n_res = 4;
rc = [ 28, 33, 24, 26 ];
n_tasks = 32;
d = [0, 6, 3, 9, 3, 8, 3, 1, 10, 8, 4, 9, 4, 9, 8, 5, 7, 2, 9, 9, 10, 9, 3, 8, 7, 4, 4, 2, 9, 9, 9, 0];
rr = array2d(1..4, 1..32, [0, 4, 7, 9, 2, 10, 4, 8, 7, 8, 9, 1, 9, 5, 1, 6, 3, 9, 9, 6, 4, 10, 10, 7, 3, 3, 2, 5, 10, 8, 9, 0, 0, 5, 9, 10, 9, 10, 1, 7, 2, 4, 5, 5, 10, 1, 6, 8, 8, 10, 10, 10, 5, 10, 8, 10, 5, 8, 2, 9, 3, 2, 10, 0, 0, 10, 1, 6, 1, 3, 8, 9, 2, 8, 9, 10, 9, 3, 4, 10, 3, 7, 4, 5, 2, 5, 8, 8, 7, 5, 7, 9, 1, 5, 5, 0, 0, 9, 3, 5, 4, 8, 6, 8, 3, 7, 6, 3, 7, 8, 8, 7, 7, 7, 6, 9, 2, 4, 9, 8, 9, 7, 6, 7, 6, 1, 7, 0]);

suc = [
   {2, 3, 4},
   {9, 21, 7},
   {8, 14, 15},
   {11, 5, 6},
   {9, 15, 7},
   {13},
   {10, 18, 12},
   {10, 11, 12},
   {16, 25, 22},
   {20, 13, 22},
   {18, 31, 23},
   {25, 13, 22},
   {30, 31},
   {16, 24, 20},
   {17, 19, 25},
   {28, 31, 23},
   {18, 20, 21},
   {24, 26},
   {27, 21},
   {27, 28},
   {24, 30},
   {23},
   {26},
   {29},
   {26, 28},
   {27},
   {29, 30},
   {29},
   {32},
   {32},
   {32},
   {  } ];

deadline = array2d(1..32, 1..3, [11, 4, 4, 16, 3, 4, 27, 2, 4, 27, 5, 1, 27, 3, 0, 28, 1, 1, 31, 5, 0, 33, 0, 0, 50, 5, 1, 52, 4, 3, 53, 3, 2, 54, 2, 4, 57, 1, 0, 58, 4, 4, 62, 3, 3, 64, 5, 0, 72, 4, 4, 82, 1, 4, 89, 4, 4, 91, 2, 5, 92, 4, 2, 99, 3, 1, 100, 5, 1, 100, 2, 1, 101, 3, 2, 102, 1, 5, 106, 0, 4, 108, 2, 1, 122, 3, 1, 123, 5, 5, 123, 5, 5, 123, 5, 5]);
