n_res = 4;
rc = [ 25, 13, 26, 25 ];
n_tasks = 32;
d = [0, 6, 1, 4, 6, 6, 4, 7, 2, 4, 9, 10, 10, 5, 1, 5, 2, 8, 9, 1, 10, 2, 8, 3, 3, 10, 4, 4, 4, 2, 2, 0];
rr = array2d(1..4, 1..32, [0, 0, 6, 7, 0, 0, 0, 0, 0, 0, 10, 0, 1, 0, 8, 2, 7, 4, 0, 6, 0, 0, 4, 0, 8, 0, 0, 0, 5, 6, 0, 0, 0, 2, 1, 2, 0, 1, 0, 0, 8, 6, 0, 5, 0, 0, 0, 0, 0, 0, 2, 0, 10, 0, 3, 7, 0, 4, 9, 0, 0, 2, 2, 0, 0, 2, 7, 5, 9, 0, 10, 0, 10, 0, 3, 4, 5, 0, 0, 0, 6, 0, 7, 6, 0, 10, 0, 5, 0, 1, 0, 2, 2, 0, 0, 0, 0, 0, 5, 0, 0, 9, 0, 1, 4, 3, 8, 0, 0, 9, 9, 8, 8, 0, 9, 3, 5, 0, 0, 0, 0, 0, 10, 0, 4, 10, 0, 0]);

suc = [
   {2, 3, 4},
   {8, 16, 10},
   {9, 5, 6},
   {26, 13, 30},
   {26, 21, 23},
   {23, 7},
   {11, 12, 14},
   {17, 20},
   {19, 15},
   {18, 23},
   {30, 31},
   {24, 13},
   {20, 22},
   {16},
   {24, 26},
   {21},
   {21},
   {19, 20, 22},
   {31},
   {28, 29},
   {24, 25, 22},
   {28, 29},
   {27},
   {27},
   {27},
   {29},
   {28, 30},
   {31},
   {32},
   {32},
   {32},
   {  } ];

deadline = array2d(1..32, 1..3, [7, 2, 0, 18, 4, 2, 22, 3, 3, 25, 5, 3, 28, 0, 5, 29, 3, 5, 31, 4, 3, 40, 1, 2, 48, 1, 0, 53, 4, 2, 53, 5, 2, 53, 5, 3, 55, 0, 5, 60, 3, 2, 61, 0, 0, 62, 2, 3, 63, 1, 4, 64, 2, 0, 70, 1, 4, 71, 5, 1, 73, 4, 2, 75, 0, 4, 79, 2, 5, 85, 2, 1, 86, 4, 3, 93, 2, 3, 94, 2, 3, 96, 2, 2, 98, 0, 1, 100, 0, 2, 107, 3, 2, 108, 4, 4]);
