n_res = 4;
rc = [ 11, 13, 15, 14 ];
n_tasks = 32;
d = [0, 10, 8, 6, 6, 3, 8, 1, 6, 2, 8, 2, 10, 3, 2, 7, 3, 6, 3, 1, 1, 3, 2, 2, 10, 8, 7, 1, 6, 10, 4, 0];
rr = array2d(1..4, 1..32, [0, 0, 0, 0, 0, 9, 0, 0, 0, 0, 0, 0, 0, 5, 8, 3, 1, 0, 0, 0, 4, 0, 4, 0, 9, 5, 0, 0, 6, 0, 0, 0, 0, 10, 0, 5, 10, 0, 0, 1, 0, 0, 0, 0, 0, 0, 0, 8, 8, 5, 0, 0, 3, 8, 9, 4, 8, 0, 0, 0, 3, 0, 0, 0, 0, 2, 0, 6, 0, 2, 0, 0, 4, 7, 9, 4, 8, 0, 2, 9, 7, 10, 0, 0, 8, 6, 9, 7, 0, 0, 0, 0, 1, 3, 6, 0, 0, 10, 1, 9, 0, 1, 8, 4, 0, 5, 10, 0, 0, 7, 0, 0, 7, 5, 8, 2, 0, 0, 0, 6, 9, 0, 5, 10, 9, 8, 0, 0]);

suc = [
   {2, 3, 4},
   {9, 5},
   {8, 16, 7},
   {27, 31},
   {10, 11, 6},
   {26, 28},
   {27},
   {15},
   {19, 12, 14},
   {18, 13, 22},
   {17, 28},
   {25, 13},
   {16, 26},
   {17, 20, 25},
   {17, 20},
   {24},
   {30},
   {25, 26, 23},
   {24, 22, 23},
   {24, 29, 21},
   {22, 23},
   {28},
   {27, 31},
   {31},
   {29},
   {29},
   {30},
   {30},
   {32},
   {32},
   {32},
   {  } ];

deadline = array2d(1..32, 1..3, [1, 0, 0, 2, 0, 4, 6, 4, 5, 8, 5, 0, 11, 3, 2, 13, 0, 4, 13, 2, 1, 14, 4, 1, 14, 0, 5, 23, 0, 5, 24, 5, 0, 34, 3, 0, 36, 2, 3, 51, 2, 5, 58, 1, 1, 59, 4, 1, 61, 2, 2, 62, 0, 1, 67, 2, 0, 67, 3, 0, 70, 4, 5, 71, 1, 2, 71, 2, 2, 78, 0, 1, 84, 3, 2, 86, 3, 2, 87, 1, 3, 90, 3, 3, 100, 2, 0, 103, 3, 2, 105, 1, 5, 106, 2, 1]);
