n_res = 4;
rc = [ 10, 6, 8, 12 ];
n_tasks = 32;
d = [0, 5, 3, 5, 3, 10, 5, 1, 4, 1, 1, 8, 8, 8, 7, 6, 5, 8, 1, 3, 2, 6, 3, 7, 1, 9, 9, 3, 10, 9, 5, 0];
rr = array2d(1..4, 1..32, [0, 7, 6, 0, 0, 0, 0, 0, 0, 0, 0, 0, 0, 0, 0, 0, 0, 9, 0, 0, 0, 0, 0, 0, 0, 0, 1, 0, 0, 0, 0, 0, 0, 0, 0, 0, 0, 0, 0, 0, 0, 5, 0, 0, 0, 0, 0, 0, 0, 0, 0, 0, 0, 0, 0, 0, 0, 0, 0, 0, 1, 6, 0, 0, 0, 0, 0, 7, 1, 0, 0, 7, 0, 0, 0, 1, 0, 0, 6, 0, 0, 0, 0, 0, 6, 0, 0, 4, 4, 0, 0, 6, 0, 0, 0, 0, 0, 0, 0, 0, 0, 5, 9, 0, 5, 0, 1, 0, 8, 7, 0, 1, 6, 0, 2, 7, 0, 10, 2, 0, 0, 5, 0, 0, 0, 0, 4, 0]);

suc = [
   {2, 3, 4},
   {16, 19, 13},
   {12, 5, 7},
   {8, 17, 12},
   {24, 6, 14},
   {16, 17},
   {17, 11, 15},
   {16, 9, 10},
   {24, 11, 15},
   {11, 23, 15},
   {13, 22},
   {25, 19, 14},
   {18, 26},
   {27, 21, 23},
   {25, 22, 30},
   {27, 18, 26},
   {26, 18, 19},
   {20},
   {21, 30, 23},
   {25},
   {29, 22},
   {31},
   {28, 31},
   {27},
   {28},
   {29, 30},
   {28, 31},
   {29},
   {32},
   {32},
   {32},
   {  } ];

deadline = array2d(1..32, 1..3, [1, 4, 1, 4, 5, 1, 5, 3, 4, 20, 2, 5, 20, 4, 0, 20, 3, 0, 21, 1, 1, 30, 5, 1, 32, 1, 2, 37, 1, 5, 39, 5, 4, 39, 1, 5, 41, 2, 3, 43, 0, 1, 54, 2, 0, 56, 3, 0, 56, 5, 0, 57, 3, 5, 60, 3, 2, 60, 0, 3, 67, 5, 3, 68, 0, 1, 80, 3, 2, 86, 0, 3, 88, 4, 4, 89, 5, 4, 99, 4, 3, 106, 1, 5, 108, 2, 2, 111, 5, 5, 113, 5, 3, 113, 5, 1]);
