n_res = 4;
rc = [ 61, 53, 58, 58 ];
n_tasks = 62;
d = [0, 5, 2, 1, 5, 5, 2, 3, 2, 5, 9, 10, 6, 9, 3, 5, 4, 3, 10, 2, 8, 6, 10, 7, 10, 8, 8, 2, 2, 4, 9, 10, 10, 8, 2, 3, 1, 5, 7, 3, 6, 5, 10, 2, 8, 2, 8, 4, 3, 6, 5, 4, 9, 4, 4, 7, 3, 2, 8, 8, 10, 0];
rr = array2d(1..4, 1..62, [0, 6, 1, 9, 0, 1, 4, 0, 1, 5, 0, 6, 1, 6, 9, 9, 4, 5, 1, 2, 0, 6, 1, 5, 6, 6, 6, 5, 5, 9, 8, 3, 8, 3, 10, 7, 6, 8, 0, 6, 0, 4, 0, 0, 5, 6, 5, 5, 2, 9, 6, 2, 4, 0, 8, 6, 0, 0, 0, 1, 2, 0, 0, 7, 6, 0, 4, 4, 9, 1, 0, 6, 9, 5, 7, 9, 0, 7, 3, 0, 9, 3, 9, 5, 2, 2, 0, 10, 6, 2, 5, 0, 0, 1, 3, 4, 7, 3, 0, 2, 0, 4, 0, 4, 9, 5, 4, 1, 5, 4, 5, 0, 2, 5, 0, 1, 2, 0, 5, 0, 7, 0, 5, 0, 0, 6, 5, 0, 3, 8, 5, 1, 10, 10, 6, 10, 7, 6, 0, 4, 10, 9, 6, 3, 0, 8, 0, 0, 0, 4, 8, 2, 7, 3, 5, 2, 0, 8, 9, 4, 0, 5, 0, 0, 5, 7, 4, 6, 8, 7, 7, 3, 10, 3, 6, 5, 2, 9, 9, 1, 1, 4, 3, 0, 0, 0, 0, 6, 6, 0, 8, 2, 3, 0, 6, 0, 0, 9, 7, 10, 0, 9, 7, 1, 0, 3, 1, 0, 0, 0, 7, 5, 0, 0, 6, 5, 4, 2, 3, 3, 7, 0, 0, 0, 4, 5, 9, 0, 4, 6, 7, 8, 7, 2, 0, 6, 0, 3, 5, 3, 6, 0, 0, 0, 2, 2, 5, 0]);

suc = [
   {2, 3, 4},
   {5, 46},
   {9, 36, 7},
   {8, 19, 6},
   {12, 14},
   {24, 14},
   {10},
   {45, 29},
   {26, 11, 20},
   {17, 37, 46},
   {16, 18, 13},
   {28, 55},
   {50},
   {33, 39, 15},
   {28, 22},
   {31},
   {32, 19, 28},
   {25, 38, 23},
   {34, 59, 22},
   {43, 60, 21},
   {44, 29},
   {41, 27, 49},
   {56, 52},
   {49, 30},
   {40, 54, 46},
   {33},
   {40, 43, 47},
   {44},
   {53},
   {34, 35, 45},
   {55},
   {60, 39},
   {42, 43},
   {48, 47},
   {37},
   {41, 44},
   {61},
   {51, 54},
   {40, 42},
   {53},
   {50, 52},
   {48},
   {48, 50},
   {59, 51},
   {47},
   {58, 59},
   {52},
   {56, 51},
   {57, 55},
   {56},
   {53},
   {54},
   {61},
   {57},
   {58},
   {61},
   {58},
   {60},
   {62},
   {62},
   {62},
   {  } ];

deadline = array2d(1..62, 1..3, [3, 5, 3, 11, 4, 4, 14, 4, 4, 21, 1, 2, 23, 2, 2, 30, 0, 3, 31, 2, 1, 36, 5, 4, 37, 4, 4, 40, 4, 1, 44, 4, 4, 48, 5, 5, 48, 3, 5, 53, 1, 0, 59, 1, 0, 63, 2, 1, 63, 5, 3, 65, 2, 5, 76, 3, 4, 80, 3, 1, 80, 0, 0, 83, 0, 2, 90, 0, 0, 91, 2, 1, 91, 2, 4, 95, 3, 0, 95, 5, 1, 95, 0, 2, 97, 3, 0, 100, 4, 4, 103, 5, 1, 104, 4, 5, 106, 5, 4, 113, 2, 3, 116, 3, 2, 118, 0, 1, 123, 4, 2, 131, 0, 5, 136, 2, 3, 138, 1, 3, 139, 0, 5, 140, 4, 5, 142, 3, 1, 144, 4, 5, 146, 4, 1, 147, 4, 1, 151, 4, 5, 151, 1, 4, 151, 5, 3, 152, 4, 0, 152, 1, 1, 163, 4, 5, 163, 4, 5, 166, 3, 2, 180, 3, 2, 180, 0, 5, 181, 2, 4, 182, 1, 1, 182, 0, 0, 183, 5, 0, 184, 5, 5, 186, 0, 3]);
