n_res = 4;
rc = [ 49, 51, 44, 49 ];
n_tasks = 92;
d = [0, 4, 10, 7, 10, 4, 8, 5, 6, 3, 3, 2, 2, 4, 5, 4, 5, 1, 10, 1, 3, 1, 5, 3, 2, 3, 4, 3, 6, 5, 7, 7, 10, 3, 8, 6, 2, 6, 4, 2, 7, 7, 8, 3, 6, 9, 3, 3, 7, 9, 3, 10, 4, 5, 8, 1, 3, 2, 3, 1, 8, 8, 5, 2, 8, 4, 1, 1, 9, 10, 9, 10, 6, 3, 4, 6, 2, 6, 1, 6, 3, 5, 7, 10, 3, 2, 2, 5, 9, 7, 10, 0];
rr = array2d(1..4, 1..92, [0, 2, 9, 10, 1, 9, 8, 1, 2, 4, 10, 7, 6, 9, 6, 2, 4, 8, 0, 0, 9, 0, 7, 6, 2, 3, 3, 0, 9, 7, 0, 4, 0, 5, 10, 5, 4, 0, 0, 0, 0, 6, 5, 1, 8, 8, 9, 1, 0, 0, 8, 3, 0, 0, 7, 8, 6, 6, 10, 0, 1, 1, 4, 6, 5, 0, 1, 4, 5, 0, 10, 3, 5, 0, 2, 5, 0, 2, 5, 5, 0, 0, 0, 1, 2, 5, 4, 0, 4, 2, 6, 0, 0, 1, 0, 8, 8, 9, 6, 4, 0, 0, 4, 2, 0, 0, 6, 6, 4, 8, 7, 9, 10, 7, 3, 4, 2, 0, 6, 2, 0, 7, 0, 0, 2, 2, 0, 6, 5, 9, 6, 3, 5, 2, 8, 0, 0, 4, 2, 9, 2, 7, 0, 4, 7, 5, 7, 4, 7, 4, 8, 0, 0, 10, 7, 0, 7, 1, 4, 10, 3, 5, 2, 4, 0, 9, 1, 9, 6, 6, 0, 0, 0, 1, 8, 7, 5, 6, 1, 6, 6, 1, 9, 0, 0, 6, 4, 8, 0, 2, 9, 6, 3, 8, 3, 0, 10, 0, 4, 4, 0, 9, 2, 2, 6, 3, 10, 2, 9, 5, 10, 6, 1, 3, 0, 9, 0, 6, 6, 3, 5, 9, 0, 0, 8, 3, 10, 1, 1, 0, 9, 4, 8, 0, 10, 0, 4, 2, 0, 3, 0, 1, 0, 8, 6, 10, 3, 0, 4, 1, 0, 0, 0, 6, 5, 0, 9, 4, 0, 10, 1, 3, 7, 5, 0, 0, 3, 8, 6, 0, 1, 5, 0, 0, 0, 0, 0, 2, 6, 4, 10, 7, 3, 0, 8, 1, 4, 0, 9, 8, 7, 7, 0, 1, 0, 2, 5, 10, 9, 7, 8, 1, 0, 0, 5, 0, 10, 0, 8, 3, 2, 2, 7, 0, 7, 0, 1, 8, 9, 0, 0, 2, 2, 9, 2, 1, 7, 2, 3, 7, 3, 10, 1, 8, 9, 5, 1, 0, 2, 10, 6, 6, 3, 10, 0, 0, 9, 10, 5, 9, 4, 8, 0, 6, 9, 3, 5, 0, 8, 3, 0, 6, 6, 0, 0, 4, 3, 0]);

suc = [
   {2, 3, 4},
   {8, 21, 14},
   {13, 5, 6},
   {56, 58, 29},
   {26, 27, 14},
   {11, 37, 7},
   {36},
   {16, 9, 12},
   {10, 53, 54},
   {42, 23, 15},
   {25, 18, 77},
   {40, 81, 34},
   {70},
   {33, 30},
   {17, 20, 25},
   {19},
   {32, 26, 63},
   {24, 49, 48},
   {41, 51},
   {45, 22, 31},
   {51, 55},
   {65, 28},
   {57, 52},
   {86, 35, 46},
   {43},
   {43, 60},
   {71},
   {46, 47},
   {44},
   {64, 50, 47},
   {65, 62},
   {88, 65, 67},
   {72},
   {38, 39},
   {82, 63},
   {91, 50, 43},
   {44},
   {70, 55},
   {66},
   {74, 51, 55},
   {57},
   {66, 44, 46},
   {66},
   {79},
   {73, 74},
   {61},
   {69},
   {84},
   {78},
   {68},
   {64, 71},
   {74, 60},
   {64, 81},
   {57, 59},
   {89, 75},
   {80},
   {77, 63},
   {73, 85},
   {67, 71},
   {75, 78},
   {90},
   {75, 69},
   {70},
   {86, 69, 78},
   {68, 76},
   {68},
   {77},
   {90},
   {79},
   {84, 87},
   {73},
   {80, 81},
   {76},
   {82, 76},
   {87},
   {80},
   {79},
   {82},
   {83},
   {83, 86},
   {83, 85, 87},
   {84, 85},
   {91},
   {88},
   {88},
   {89},
   {90},
   {89, 91},
   {92},
   {92},
   {92},
   {  } ];

deadline = array2d(1..92, 1..3, [3, 3, 2, 7, 4, 0, 8, 1, 4, 11, 4, 5, 13, 2, 1, 13, 4, 1, 17, 2, 0, 21, 4, 5, 24, 1, 1, 26, 0, 2, 28, 5, 4, 28, 1, 2, 30, 5, 4, 30, 1, 1, 31, 5, 5, 31, 0, 1, 38, 5, 3, 41, 0, 1, 41, 3, 1, 43, 5, 1, 46, 5, 5, 52, 2, 0, 60, 0, 3, 62, 0, 5, 62, 4, 1, 67, 5, 1, 76, 4, 0, 78, 5, 0, 78, 5, 4, 80, 4, 2, 81, 5, 4, 81, 3, 5, 83, 3, 0, 83, 2, 0, 83, 0, 1, 85, 5, 0, 86, 2, 3, 87, 3, 0, 88, 2, 3, 96, 2, 0, 99, 1, 3, 99, 4, 2, 100, 0, 4, 102, 5, 5, 106, 2, 0, 107, 3, 3, 108, 5, 2, 109, 4, 3, 109, 5, 4, 109, 5, 3, 109, 0, 1, 112, 5, 2, 112, 1, 5, 113, 1, 3, 115, 2, 2, 115, 4, 1, 119, 2, 2, 120, 3, 2, 127, 5, 2, 129, 1, 3, 130, 0, 5, 130, 5, 2, 133, 2, 4, 134, 0, 4, 134, 3, 1, 141, 1, 1, 142, 4, 3, 144, 3, 2, 144, 1, 4, 147, 3, 4, 147, 4, 4, 147, 4, 4, 148, 3, 1, 149, 3, 2, 152, 5, 4, 152, 2, 1, 153, 1, 5, 155, 4, 0, 155, 3, 0, 158, 2, 1, 159, 1, 2, 161, 2, 5, 161, 1, 0, 162, 0, 3, 162, 0, 0, 165, 5, 1, 168, 4, 1, 170, 3, 3, 171, 0, 3, 172, 5, 1, 172, 1, 4, 178, 5, 5]);
