n_res = 4;
rc = [ 25, 21, 25, 29 ];
n_tasks = 92;
d = [0, 9, 6, 6, 2, 10, 7, 4, 9, 6, 4, 7, 3, 3, 3, 5, 4, 1, 6, 7, 9, 6, 3, 8, 4, 6, 7, 7, 9, 4, 5, 8, 4, 10, 4, 9, 7, 3, 4, 10, 6, 1, 1, 5, 2, 9, 5, 2, 5, 2, 4, 5, 9, 5, 9, 3, 9, 6, 10, 6, 2, 8, 4, 7, 4, 2, 8, 6, 10, 4, 4, 2, 2, 4, 8, 5, 5, 5, 10, 1, 8, 10, 10, 2, 9, 1, 4, 3, 8, 2, 7, 0];
rr = array2d(1..4, 1..92, [0, 0, 0, 3, 0, 0, 0, 0, 0, 0, 4, 0, 0, 10, 9, 5, 0, 0, 3, 5, 3, 7, 0, 7, 5, 0, 1, 0, 0, 5, 0, 0, 7, 1, 0, 6, 0, 0, 6, 0, 2, 4, 0, 8, 0, 0, 1, 3, 2, 0, 0, 7, 5, 0, 0, 0, 0, 8, 0, 5, 6, 0, 0, 10, 0, 4, 3, 8, 0, 0, 5, 4, 0, 8, 4, 0, 0, 7, 5, 8, 8, 8, 10, 4, 4, 0, 0, 0, 0, 0, 7, 0, 0, 5, 4, 0, 0, 5, 0, 3, 3, 6, 2, 4, 0, 4, 3, 0, 0, 0, 0, 0, 9, 7, 1, 0, 0, 3, 0, 0, 0, 0, 1, 5, 9, 8, 1, 0, 2, 0, 1, 1, 0, 7, 0, 0, 3, 7, 0, 0, 0, 10, 5, 4, 0, 0, 9, 8, 7, 0, 0, 9, 0, 0, 0, 6, 0, 0, 0, 0, 1, 9, 0, 0, 4, 6, 8, 0, 8, 0, 0, 7, 0, 6, 0, 0, 5, 8, 0, 1, 0, 0, 0, 0, 0, 7, 0, 0, 5, 5, 5, 0, 0, 0, 3, 1, 8, 2, 7, 4, 0, 6, 9, 0, 0, 10, 4, 1, 9, 0, 0, 0, 0, 0, 10, 0, 4, 10, 0, 0, 0, 7, 4, 0, 4, 0, 8, 1, 0, 2, 0, 7, 1, 0, 0, 0, 0, 0, 1, 0, 0, 1, 8, 0, 0, 0, 10, 0, 10, 0, 0, 1, 5, 5, 1, 0, 1, 0, 2, 7, 0, 0, 4, 0, 0, 5, 0, 7, 0, 0, 0, 8, 3, 9, 0, 0, 0, 0, 7, 9, 0, 0, 7, 0, 8, 10, 4, 1, 3, 0, 0, 2, 10, 4, 2, 3, 9, 0, 7, 0, 0, 8, 2, 3, 9, 9, 1, 0, 0, 9, 9, 0, 0, 9, 0, 0, 3, 9, 0, 0, 0, 0, 1, 2, 0, 8, 9, 8, 0, 5, 2, 0, 0, 0, 0, 0, 0, 5, 0, 3, 0, 9, 0, 0, 0, 0, 9, 7, 10, 9, 0, 2, 10, 10, 0, 0, 0, 0, 5, 3, 0, 0, 10, 0, 3, 0, 0, 0]);

suc = [
   {2, 3, 4},
   {16, 17, 29},
   {21, 19, 5},
   {8, 6, 14},
   {40, 25, 7},
   {10, 51, 69},
   {17},
   {9, 13},
   {72, 26, 20},
   {24, 11, 12},
   {41, 44, 22},
   {49, 15},
   {25, 35, 52},
   {32, 42, 19},
   {18, 27, 77},
   {35, 36, 76},
   {24, 48, 23},
   {28, 30, 55},
   {40, 50, 45},
   {48, 49, 85},
   {34, 39, 31},
   {85, 77, 54},
   {73, 51, 78},
   {61, 36, 37},
   {62, 28, 38},
   {50, 35, 38},
   {41, 44, 47},
   {68, 54, 47},
   {64, 37, 63},
   {52, 45},
   {73, 33, 49},
   {34, 54, 71},
   {56, 65, 82},
   {77, 53, 62},
   {40, 89, 45},
   {72, 81, 50},
   {58, 46},
   {56, 65},
   {57, 67, 53},
   {83, 51},
   {59, 60, 53},
   {66, 43, 44},
   {62},
   {60, 46},
   {66, 74, 47},
   {59},
   {79},
   {57, 66, 68},
   {79, 71},
   {84, 63, 55},
   {55},
   {81, 70, 86},
   {88},
   {65, 61},
   {82},
   {57},
   {64, 61, 79},
   {67, 60},
   {78, 67, 70},
   {70},
   {75, 87, 63},
   {87},
   {78},
   {80, 69},
   {80},
   {75},
   {72, 68},
   {80, 74},
   {71},
   {73, 82},
   {76, 86},
   {89, 74, 75},
   {76, 85},
   {86},
   {84},
   {87},
   {90},
   {91},
   {90, 83},
   {81},
   {83},
   {88},
   {84},
   {88},
   {91},
   {90},
   {89},
   {91},
   {92},
   {92},
   {92},
   {  } ];

deadline = array2d(1..92, 1..3, [4, 3, 0, 6, 3, 3, 6, 4, 0, 9, 1, 2, 20, 1, 5, 20, 1, 4, 22, 3, 4, 26, 1, 2, 42, 1, 3, 42, 5, 1, 45, 2, 5, 49, 2, 3, 49, 3, 2, 50, 2, 5, 56, 2, 4, 60, 3, 4, 60, 2, 1, 61, 2, 5, 63, 3, 5, 64, 1, 5, 74, 2, 4, 74, 0, 1, 78, 1, 1, 80, 3, 0, 83, 1, 4, 86, 5, 1, 86, 4, 2, 93, 0, 3, 99, 0, 1, 101, 2, 3, 101, 4, 1, 104, 5, 4, 106, 5, 0, 113, 3, 3, 114, 5, 0, 116, 5, 2, 116, 4, 1, 119, 2, 3, 125, 4, 2, 127, 2, 5, 129, 3, 1, 131, 0, 2, 135, 5, 0, 139, 3, 2, 142, 5, 5, 149, 1, 4, 151, 5, 4, 154, 4, 3, 155, 0, 4, 156, 1, 0, 157, 3, 4, 158, 0, 3, 160, 2, 1, 165, 2, 4, 165, 0, 1, 166, 2, 2, 170, 0, 5, 172, 2, 1, 178, 5, 3, 178, 3, 3, 178, 0, 5, 181, 3, 5, 184, 1, 4, 184, 5, 1, 184, 5, 0, 185, 1, 3, 186, 4, 2, 189, 1, 3, 192, 4, 0, 194, 2, 5, 199, 0, 3, 201, 0, 4, 210, 5, 1, 214, 1, 3, 216, 1, 5, 218, 4, 5, 226, 5, 4, 234, 1, 4, 235, 3, 0, 246, 0, 1, 247, 5, 0, 247, 5, 0, 252, 4, 2, 252, 3, 3, 253, 4, 5, 253, 2, 3, 257, 1, 5, 259, 3, 2, 260, 2, 1, 263, 4, 1, 267, 3, 3, 267, 1, 3]);
