n_res = 4;
rc = [ 24, 21, 20, 21 ];
n_tasks = 32;
d = [0, 6, 1, 10, 7, 3, 9, 8, 2, 9, 8, 9, 5, 10, 8, 3, 8, 5, 6, 3, 3, 6, 1, 6, 2, 2, 5, 1, 6, 8, 5, 0];
rr = array2d(1..4, 1..32, [0, 4, 1, 3, 8, 10, 4, 1, 6, 10, 6, 1, 6, 3, 5, 10, 6, 3, 1, 10, 4, 6, 10, 2, 4, 10, 6, 7, 3, 7, 7, 0, 0, 10, 9, 5, 4, 2, 4, 4, 1, 6, 5, 4, 1, 8, 10, 1, 4, 9, 1, 1, 10, 6, 2, 7, 6, 1, 10, 4, 6, 8, 6, 0, 0, 2, 8, 6, 4, 7, 8, 6, 3, 10, 3, 1, 2, 4, 6, 3, 7, 6, 8, 1, 6, 8, 4, 5, 8, 5, 2, 3, 5, 5, 10, 0, 0, 2, 1, 4, 6, 8, 1, 6, 4, 2, 2, 4, 2, 5, 10, 10, 1, 4, 1, 10, 5, 7, 9, 8, 2, 5, 3, 3, 3, 1, 1, 0]);

suc = [
   {2, 3, 4},
   {28},
   {10, 12, 5},
   {8, 9, 6},
   {11, 7},
   {14, 15},
   {17, 26, 19},
   {13},
   {18, 21, 23},
   {27, 11},
   {18, 21},
   {16, 20, 28},
   {24, 26, 19},
   {17, 19, 21},
   {30, 31},
   {24, 29, 23},
   {24, 18, 20},
   {28, 30},
   {27},
   {22},
   {26},
   {23},
   {25},
   {31},
   {27, 30},
   {29},
   {31},
   {29},
   {32},
   {32},
   {32},
   {  } ];

deadline = array2d(1..32, 1..3, [2, 4, 2, 5, 4, 4, 10, 0, 2, 15, 5, 5, 21, 0, 3, 27, 2, 2, 32, 4, 0, 33, 4, 3, 35, 4, 2, 35, 3, 4, 35, 1, 2, 37, 4, 4, 47, 0, 4, 50, 5, 5, 57, 3, 2, 58, 2, 2, 60, 4, 2, 60, 0, 4, 63, 4, 2, 68, 2, 1, 68, 3, 1, 74, 1, 0, 78, 5, 0, 99, 5, 3, 107, 2, 5, 110, 0, 0, 118, 5, 5, 120, 5, 4, 126, 1, 1, 128, 3, 5, 129, 4, 1, 130, 3, 1]);
