n_res = 4;
rc = [ 29, 29, 32, 30 ];
n_tasks = 32;
d = [0, 3, 3, 4, 1, 6, 4, 1, 2, 6, 8, 4, 3, 6, 2, 3, 9, 5, 7, 10, 4, 3, 9, 7, 7, 6, 1, 10, 7, 3, 4, 0];
rr = array2d(1..4, 1..32, [0, 1, 0, 5, 0, 0, 10, 1, 8, 3, 0, 5, 0, 4, 5, 9, 2, 0, 10, 9, 0, 0, 4, 0, 4, 5, 7, 5, 8, 2, 1, 0, 0, 4, 0, 8, 0, 4, 7, 9, 2, 0, 6, 7, 2, 0, 8, 10, 2, 9, 9, 9, 7, 8, 2, 8, 8, 1, 5, 0, 8, 8, 3, 0, 0, 5, 0, 5, 10, 3, 10, 0, 7, 0, 4, 3, 3, 4, 0, 10, 9, 7, 0, 7, 0, 2, 2, 3, 8, 0, 3, 5, 0, 7, 2, 0, 0, 2, 9, 0, 10, 10, 7, 5, 0, 0, 0, 5, 4, 1, 4, 9, 8, 0, 7, 0, 9, 2, 0, 2, 3, 5, 4, 8, 5, 9, 1, 0]);

suc = [
   {2, 3, 4},
   {8, 25, 12},
   {16, 26, 6},
   {13, 5, 15},
   {17, 21, 7},
   {24, 11},
   {25},
   {9, 20, 14},
   {10, 29},
   {13, 15},
   {19, 28},
   {19},
   {18, 28},
   {18, 29},
   {26},
   {19, 22},
   {18, 26, 31},
   {24},
   {27, 23},
   {31, 23},
   {24, 25, 22},
   {28, 30, 23},
   {29},
   {27},
   {27},
   {30},
   {30},
   {31},
   {32},
   {32},
   {32},
   {  } ];

deadline = array2d(1..32, 1..3, [1, 0, 4, 1, 5, 5, 8, 3, 4, 9, 2, 1, 16, 3, 5, 26, 5, 1, 35, 0, 3, 36, 4, 0, 39, 4, 3, 43, 1, 2, 43, 5, 0, 45, 2, 1, 49, 3, 2, 50, 3, 0, 52, 5, 1, 54, 2, 2, 56, 5, 3, 62, 0, 2, 62, 0, 2, 63, 0, 3, 64, 0, 2, 67, 0, 1, 73, 2, 0, 87, 5, 5, 88, 3, 4, 88, 4, 0, 89, 4, 5, 94, 3, 5, 97, 5, 3, 98, 5, 3, 98, 0, 3, 98, 4, 1]);
