n_res = 4;
rc = [ 13, 11, 11, 8 ];
n_tasks = 32;
d = [0, 3, 3, 9, 1, 7, 4, 4, 4, 3, 1, 6, 8, 5, 4, 9, 2, 5, 1, 1, 5, 3, 5, 2, 10, 1, 1, 3, 4, 9, 6, 0];
rr = array2d(1..4, 1..32, [0, 7, 0, 1, 0, 0, 0, 0, 8, 10, 5, 0, 0, 1, 6, 0, 0, 0, 7, 0, 0, 0, 6, 0, 3, 0, 0, 0, 8, 0, 0, 0, 0, 0, 0, 0, 5, 6, 0, 0, 0, 0, 0, 9, 10, 0, 0, 0, 0, 0, 0, 5, 1, 0, 0, 0, 0, 0, 0, 9, 0, 0, 0, 0, 0, 0, 0, 0, 0, 0, 0, 6, 0, 0, 0, 0, 0, 0, 0, 7, 6, 5, 0, 0, 0, 0, 0, 8, 0, 4, 0, 0, 0, 6, 0, 0, 0, 0, 3, 0, 0, 0, 8, 0, 0, 0, 0, 0, 0, 0, 0, 0, 0, 0, 0, 0, 0, 2, 0, 0, 0, 0, 8, 0, 0, 0, 3, 0]);

suc = [
   {2, 3, 4},
   {10, 11, 7},
   {5},
   {10, 21, 6},
   {28},
   {25, 11, 14},
   {8, 22},
   {9, 21, 15},
   {17, 13},
   {24, 18, 12},
   {26, 27, 28},
   {19, 20, 13},
   {14},
   {26, 27, 28},
   {16, 24, 18},
   {19, 23},
   {18, 31},
   {19},
   {25},
   {31, 30, 23},
   {30},
   {30},
   {25},
   {26, 29},
   {27},
   {31},
   {29},
   {29},
   {32},
   {32},
   {32},
   {  } ];

deadline = array2d(1..32, 1..3, [8, 5, 4, 9, 4, 5, 9, 5, 0, 11, 0, 2, 11, 1, 1, 12, 5, 2, 16, 0, 4, 16, 0, 3, 19, 5, 5, 20, 4, 5, 21, 3, 3, 22, 1, 1, 22, 1, 4, 24, 4, 3, 32, 3, 0, 38, 5, 4, 38, 1, 1, 47, 3, 3, 48, 1, 1, 53, 0, 1, 55, 1, 0, 56, 4, 3, 59, 5, 3, 63, 5, 0, 65, 4, 3, 78, 2, 4, 79, 0, 2, 85, 1, 1, 88, 5, 0, 105, 3, 3, 105, 2, 2, 106, 2, 3]);
