n_res = 4;
rc = [ 10, 14, 12, 10 ];
n_tasks = 32;
d = [0, 5, 6, 2, 1, 3, 7, 4, 7, 10, 1, 5, 10, 10, 8, 2, 3, 10, 2, 10, 10, 6, 10, 7, 10, 4, 2, 6, 4, 5, 1, 0];
rr = array2d(1..4, 1..32, [0, 0, 6, 6, 5, 7, 0, 0, 8, 7, 1, 0, 0, 0, 0, 0, 6, 0, 4, 0, 2, 1, 0, 6, 7, 3, 0, 0, 4, 6, 8, 0, 0, 1, 0, 3, 0, 0, 5, 10, 10, 5, 0, 1, 9, 0, 0, 0, 0, 6, 6, 8, 0, 4, 0, 0, 0, 0, 0, 0, 0, 3, 2, 0, 0, 10, 3, 8, 2, 0, 5, 0, 0, 6, 7, 0, 0, 0, 5, 8, 10, 2, 2, 0, 0, 4, 2, 9, 6, 0, 3, 0, 7, 0, 3, 0, 0, 0, 0, 6, 0, 0, 3, 0, 0, 0, 0, 3, 0, 8, 2, 0, 0, 0, 9, 2, 0, 0, 1, 0, 0, 0, 1, 2, 4, 0, 0, 0]);

suc = [
   {2, 3, 4},
   {8, 13, 5},
   {17, 12, 20},
   {13, 5, 6},
   {9, 14, 15},
   {17, 23, 7},
   {8, 20, 15},
   {11, 21},
   {10, 20, 23},
   {17, 18, 12},
   {12, 14},
   {16, 27},
   {25, 27, 23},
   {24, 18, 26},
   {25, 18, 21},
   {19},
   {19, 29},
   {27},
   {24, 28, 22},
   {28, 21, 22},
   {24, 26},
   {25, 26},
   {29, 30, 31},
   {30},
   {31},
   {31},
   {28, 29},
   {30},
   {32},
   {32},
   {32},
   {  } ];

deadline = array2d(1..32, 1..3, [5, 5, 4, 8, 2, 0, 9, 0, 3, 14, 2, 3, 16, 1, 2, 18, 4, 2, 25, 0, 1, 31, 1, 4, 42, 3, 1, 48, 3, 3, 49, 3, 3, 51, 0, 4, 52, 4, 3, 54, 1, 3, 55, 0, 4, 58, 5, 5, 61, 3, 1, 62, 5, 2, 62, 0, 0, 63, 3, 4, 66, 4, 0, 70, 0, 5, 72, 1, 0, 85, 3, 0, 90, 3, 4, 101, 5, 0, 107, 0, 2, 109, 2, 5, 109, 4, 2, 112, 4, 5, 119, 0, 2, 123, 1, 3]);
