n_res = 4;
rc = [ 8, 11, 11, 9 ];
n_tasks = 32;
d = [0, 9, 10, 5, 1, 3, 5, 9, 5, 10, 8, 7, 2, 8, 3, 6, 1, 10, 10, 8, 9, 1, 3, 8, 6, 3, 9, 7, 10, 10, 10, 0];
rr = array2d(1..4, 1..32, [0, 0, 0, 0, 0, 0, 0, 0, 0, 0, 0, 0, 0, 4, 0, 0, 0, 0, 2, 0, 0, 0, 0, 0, 4, 0, 7, 6, 0, 6, 0, 0, 0, 7, 0, 0, 2, 0, 0, 0, 3, 9, 0, 0, 9, 0, 0, 0, 5, 0, 0, 2, 0, 0, 0, 0, 0, 0, 0, 0, 0, 0, 2, 0, 0, 0, 0, 5, 0, 5, 0, 9, 0, 0, 0, 4, 0, 0, 8, 0, 0, 0, 0, 0, 8, 9, 3, 8, 0, 1, 0, 0, 0, 0, 0, 0, 0, 0, 5, 0, 0, 0, 4, 0, 0, 0, 5, 0, 0, 0, 0, 6, 0, 9, 0, 0, 0, 0, 0, 0, 0, 0, 0, 0, 5, 0, 0, 0]);

suc = [
   {2, 3, 4},
   {8, 6, 14},
   {16, 17, 5},
   {16, 17, 12},
   {10, 13, 7},
   {24, 28, 7},
   {9, 11},
   {18, 23, 15},
   {31},
   {25, 31, 23},
   {18, 30},
   {20},
   {24, 21},
   {18},
   {21},
   {19, 20},
   {26, 28, 30},
   {29, 31},
   {24, 27},
   {21, 23},
   {26, 22, 30},
   {25},
   {27},
   {26},
   {27},
   {29},
   {28},
   {29},
   {32},
   {32},
   {32},
   {  } ];

deadline = array2d(1..32, 1..3, [7, 3, 2, 17, 1, 4, 20, 1, 2, 22, 2, 5, 25, 2, 5, 29, 5, 5, 37, 3, 3, 40, 4, 0, 48, 5, 5, 52, 3, 3, 62, 4, 5, 70, 0, 4, 73, 0, 5, 83, 2, 1, 87, 2, 5, 88, 1, 4, 92, 5, 0, 95, 2, 2, 100, 2, 5, 107, 0, 4, 108, 4, 0, 129, 1, 5, 129, 4, 3, 134, 3, 1, 134, 5, 5, 137, 4, 3, 138, 3, 5, 145, 2, 3, 152, 2, 3, 155, 1, 5, 159, 3, 5, 164, 0, 0]);
