n_res = 4;
rc = [ 8, 20, 17, 10 ];
n_tasks = 32;
d = [0, 3, 4, 10, 7, 2, 6, 9, 8, 8, 7, 2, 7, 6, 3, 6, 9, 7, 5, 7, 4, 9, 9, 1, 3, 5, 5, 8, 3, 3, 3, 0];
rr = array2d(1..4, 1..32, [0, 0, 0, 0, 7, 4, 0, 0, 0, 0, 0, 8, 0, 0, 0, 0, 5, 0, 0, 0, 1, 0, 0, 0, 0, 0, 0, 7, 0, 0, 0, 0, 0, 1, 0, 0, 0, 0, 6, 10, 9, 10, 0, 0, 0, 0, 0, 0, 0, 0, 6, 0, 0, 0, 0, 0, 9, 1, 0, 0, 0, 0, 5, 0, 0, 0, 9, 8, 0, 0, 0, 0, 0, 0, 0, 0, 0, 0, 7, 8, 0, 0, 0, 10, 0, 0, 2, 0, 0, 0, 0, 0, 8, 0, 0, 0, 0, 0, 0, 0, 0, 0, 0, 0, 0, 0, 3, 0, 2, 8, 0, 0, 0, 5, 0, 0, 0, 4, 0, 2, 0, 0, 1, 0, 0, 10, 0, 0]);

suc = [
   {2, 3, 4},
   {10, 11, 7},
   {18, 13, 6},
   {8, 9, 5},
   {17, 19, 12},
   {16, 10, 23},
   {14, 22},
   {17, 20, 23},
   {10, 14, 15},
   {21},
   {16, 18, 12},
   {24, 13, 23},
   {30, 31},
   {25, 19, 21},
   {16, 24},
   {19, 20, 21},
   {24, 18, 22},
   {26, 29},
   {27},
   {27, 22},
   {28},
   {25, 26},
   {25, 26, 29},
   {27, 31},
   {30, 31},
   {28},
   {28, 29},
   {30},
   {32},
   {32},
   {32},
   {  } ];

deadline = array2d(1..32, 1..3, [3, 5, 2, 5, 2, 2, 18, 3, 2, 19, 0, 0, 40, 0, 2, 42, 5, 5, 49, 2, 3, 50, 3, 5, 50, 0, 0, 52, 2, 2, 54, 1, 2, 60, 2, 1, 66, 0, 5, 73, 0, 0, 77, 0, 0, 79, 1, 5, 79, 5, 5, 86, 5, 5, 87, 5, 4, 93, 4, 0, 96, 5, 3, 101, 1, 4, 112, 2, 3, 116, 2, 0, 119, 1, 4, 124, 5, 0, 128, 3, 0, 130, 2, 1, 133, 1, 3, 134, 5, 1, 137, 3, 1, 147, 0, 0]);
