n_res = 4;
rc = [ 24, 25, 27, 25 ];
n_tasks = 32;
d = [0, 7, 7, 6, 7, 7, 7, 3, 4, 6, 2, 1, 1, 5, 3, 4, 1, 6, 5, 4, 10, 5, 9, 7, 10, 5, 6, 6, 7, 7, 7, 0];
rr = array2d(1..4, 1..32, [0, 1, 6, 6, 5, 10, 7, 3, 1, 9, 6, 8, 6, 6, 4, 5, 2, 9, 8, 2, 2, 9, 8, 10, 9, 5, 5, 1, 2, 8, 3, 0, 0, 9, 10, 5, 9, 2, 2, 5, 9, 2, 8, 8, 2, 9, 7, 6, 8, 5, 10, 8, 8, 9, 5, 7, 1, 9, 8, 8, 3, 5, 1, 0, 0, 7, 2, 2, 9, 7, 5, 7, 5, 3, 1, 2, 9, 7, 8, 1, 6, 3, 10, 8, 5, 8, 1, 6, 10, 10, 6, 5, 9, 6, 4, 0, 0, 2, 1, 4, 2, 7, 2, 8, 1, 8, 10, 8, 7, 4, 5, 7, 1, 9, 7, 6, 4, 1, 9, 7, 4, 9, 5, 10, 10, 9, 5, 0]);

suc = [
   {2, 3, 4},
   {5},
   {9, 6, 15},
   {19, 29, 7},
   {8, 12, 21},
   {18, 11},
   {16},
   {10, 23},
   {22},
   {24, 28, 30},
   {12, 21},
   {16, 13, 14},
   {17},
   {20, 22, 23},
   {16, 18},
   {31},
   {27, 22},
   {25, 30, 23},
   {25, 27},
   {24, 26},
   {24, 26, 28},
   {26},
   {28},
   {25, 27},
   {31},
   {29, 30},
   {31},
   {29},
   {32},
   {32},
   {32},
   {  } ];

deadline = array2d(1..32, 1..3, [2, 3, 2, 4, 3, 4, 12, 0, 4, 12, 4, 5, 17, 4, 5, 34, 4, 5, 51, 2, 1, 55, 4, 3, 55, 4, 4, 59, 5, 3, 61, 4, 2, 61, 3, 0, 64, 2, 4, 67, 2, 5, 69, 4, 2, 74, 0, 4, 75, 0, 4, 77, 4, 4, 78, 4, 1, 88, 2, 4, 89, 2, 1, 90, 0, 1, 93, 0, 1, 94, 3, 0, 96, 4, 5, 97, 4, 1, 99, 5, 1, 99, 3, 4, 107, 3, 2, 107, 2, 4, 112, 5, 5, 121, 0, 0]);
