n_res = 4;
rc = [ 14, 24, 14, 20 ];
n_tasks = 32;
d = [0, 10, 2, 8, 6, 2, 6, 10, 4, 1, 5, 1, 6, 8, 1, 6, 4, 6, 4, 3, 3, 9, 8, 9, 7, 1, 9, 9, 3, 4, 9, 0];
rr = array2d(1..4, 1..32, [0, 0, 0, 0, 2, 0, 0, 10, 0, 5, 3, 0, 0, 0, 2, 0, 10, 4, 0, 7, 0, 0, 3, 0, 2, 0, 3, 2, 0, 0, 0, 0, 0, 8, 2, 0, 8, 1, 4, 9, 3, 8, 5, 0, 2, 0, 0, 0, 0, 0, 6, 10, 6, 2, 7, 5, 9, 5, 0, 0, 3, 7, 0, 0, 0, 0, 8, 8, 0, 0, 0, 1, 0, 7, 2, 0, 0, 7, 0, 0, 3, 0, 0, 0, 0, 0, 0, 5, 0, 3, 6, 3, 5, 7, 0, 0, 0, 0, 0, 3, 0, 0, 7, 2, 8, 0, 0, 1, 0, 8, 8, 4, 0, 6, 0, 1, 6, 0, 0, 0, 2, 4, 0, 0, 8, 9, 7, 0]);

suc = [
   {2, 3, 4},
   {15, 21, 7},
   {10, 5, 6},
   {8, 12},
   {9, 18, 23},
   {16, 9, 14},
   {13, 22, 23},
   {16, 17, 14},
   {17, 11},
   {19, 12, 14},
   {26, 19, 21},
   {21, 27, 13},
   {18, 20},
   {18, 26, 28},
   {17, 19, 20},
   {24, 20, 22},
   {24, 22, 31},
   {25},
   {27, 29, 31},
   {25, 30},
   {25, 28, 29},
   {26},
   {24},
   {27, 29},
   {31},
   {30},
   {28},
   {30},
   {32},
   {32},
   {32},
   {  } ];

deadline = array2d(1..32, 1..3, [2, 2, 1, 4, 1, 0, 8, 1, 5, 14, 4, 3, 21, 1, 0, 23, 2, 0, 26, 0, 1, 34, 4, 2, 34, 0, 3, 34, 2, 5, 35, 3, 1, 38, 0, 0, 40, 5, 5, 41, 5, 0, 44, 1, 2, 50, 4, 4, 53, 4, 2, 61, 4, 1, 63, 4, 4, 63, 4, 1, 70, 4, 4, 82, 4, 3, 87, 5, 0, 96, 5, 3, 108, 3, 3, 117, 3, 2, 121, 5, 0, 122, 2, 3, 123, 3, 0, 126, 5, 3, 130, 2, 2, 134, 4, 1]);
