n_res = 4;
rc = [ 28, 39, 31, 27 ];
n_tasks = 32;
d = [0, 10, 9, 7, 10, 4, 9, 7, 10, 6, 3, 10, 2, 2, 3, 9, 8, 6, 2, 6, 10, 8, 6, 7, 9, 3, 10, 1, 5, 4, 5, 0];
rr = array2d(1..4, 1..32, [0, 4, 9, 10, 5, 5, 2, 7, 8, 10, 3, 7, 1, 10, 5, 7, 1, 1, 8, 10, 5, 2, 2, 1, 2, 7, 6, 7, 2, 6, 4, 0, 0, 8, 1, 9, 7, 9, 3, 1, 7, 1, 10, 6, 8, 8, 1, 4, 5, 4, 6, 7, 7, 10, 2, 4, 1, 7, 10, 5, 3, 7, 6, 0, 0, 10, 1, 10, 3, 10, 7, 2, 4, 8, 9, 7, 10, 4, 8, 10, 4, 10, 3, 5, 8, 6, 7, 5, 2, 6, 7, 6, 4, 7, 10, 0, 0, 10, 4, 9, 1, 2, 10, 8, 5, 1, 7, 1, 2, 10, 10, 1, 10, 10, 8, 9, 4, 2, 3, 1, 4, 5, 1, 5, 3, 9, 6, 0]);

suc = [
   {2, 3, 4},
   {12, 5, 15},
   {24},
   {19},
   {18, 6, 7},
   {26},
   {8, 24, 19},
   {9, 10, 20},
   {26, 21, 22},
   {21, 11, 13},
   {17, 22},
   {16, 20, 14},
   {17, 14, 23},
   {27, 22},
   {18},
   {18, 29},
   {28},
   {25, 21},
   {30},
   {31, 23},
   {23},
   {25, 28},
   {30},
   {25, 26, 29},
   {31},
   {31},
   {28, 30},
   {29},
   {32},
   {32},
   {32},
   {  } ];

deadline = array2d(1..32, 1..3, [5, 3, 0, 7, 2, 0, 8, 5, 1, 14, 5, 4, 17, 4, 3, 26, 1, 1, 32, 4, 3, 34, 1, 5, 51, 2, 4, 52, 0, 2, 53, 5, 0, 64, 3, 3, 74, 2, 2, 78, 0, 5, 78, 2, 4, 83, 0, 0, 84, 2, 5, 88, 4, 0, 99, 5, 0, 100, 2, 0, 102, 2, 4, 115, 0, 0, 131, 2, 2, 133, 2, 2, 140, 0, 4, 153, 0, 3, 153, 0, 5, 155, 5, 0, 156, 0, 0, 156, 1, 3, 164, 3, 2, 164, 3, 2]);
