n_res = 4;
rc = [ 43, 40, 44, 35 ];
n_tasks = 32;
d = [0, 7, 10, 2, 6, 8, 1, 8, 1, 7, 4, 6, 4, 9, 10, 1, 7, 8, 6, 2, 5, 6, 2, 2, 6, 9, 4, 10, 3, 5, 8, 0];
rr = array2d(1..4, 1..32, [0, 3, 5, 4, 7, 4, 2, 3, 10, 10, 4, 2, 7, 7, 8, 4, 10, 6, 7, 6, 6, 2, 2, 10, 6, 8, 7, 2, 7, 10, 9, 0, 0, 10, 8, 4, 5, 7, 6, 7, 4, 10, 1, 6, 7, 9, 1, 6, 2, 3, 9, 2, 5, 3, 10, 10, 7, 6, 5, 10, 9, 4, 4, 0, 0, 4, 9, 3, 9, 3, 9, 9, 8, 3, 4, 6, 8, 8, 3, 2, 8, 3, 1, 1, 9, 9, 8, 7, 9, 4, 7, 9, 6, 6, 4, 0, 0, 4, 8, 9, 10, 4, 7, 8, 3, 1, 5, 2, 10, 8, 9, 7, 5, 8, 5, 2, 1, 7, 4, 7, 5, 7, 7, 4, 6, 4, 9, 0]);

suc = [
   {2, 3, 4},
   {21, 5, 15},
   {8, 14, 7},
   {24, 11, 14},
   {9, 10, 6},
   {8, 13, 30},
   {21, 13, 15},
   {16, 18},
   {16, 11, 20},
   {18, 19, 12},
   {17, 26, 23},
   {13, 14, 22},
   {16, 31},
   {27, 29, 23},
   {18, 19, 20},
   {17},
   {29},
   {24, 25, 26},
   {27, 28, 22},
   {25, 28},
   {27, 22, 23},
   {24, 25, 26},
   {28},
   {29},
   {31},
   {31},
   {30},
   {30},
   {32},
   {32},
   {32},
   {  } ];

deadline = array2d(1..32, 1..3, [13, 2, 4, 14, 3, 1, 14, 1, 1, 17, 0, 4, 17, 0, 0, 19, 4, 4, 19, 2, 5, 28, 4, 4, 31, 4, 4, 36, 4, 4, 40, 5, 4, 43, 3, 0, 49, 2, 4, 51, 1, 0, 55, 4, 3, 58, 1, 3, 62, 3, 4, 63, 4, 2, 66, 1, 4, 79, 3, 1, 82, 0, 4, 82, 0, 2, 88, 0, 3, 98, 1, 0, 99, 2, 5, 106, 2, 2, 110, 1, 4, 110, 0, 3, 114, 2, 5, 114, 1, 3, 118, 4, 0, 123, 0, 5]);
