n_res = 4;
rc = [ 17, 17, 17, 13 ];
n_tasks = 32;
d = [0, 7, 6, 1, 6, 5, 9, 9, 6, 3, 3, 1, 5, 2, 9, 2, 9, 1, 2, 8, 1, 6, 8, 4, 8, 2, 7, 9, 7, 3, 6, 0];
rr = array2d(1..4, 1..32, [0, 6, 4, 1, 5, 2, 10, 6, 4, 6, 2, 4, 4, 4, 10, 8, 2, 6, 3, 10, 9, 8, 1, 8, 5, 5, 2, 9, 5, 8, 10, 0, 0, 7, 3, 5, 6, 6, 3, 10, 10, 2, 3, 5, 1, 6, 10, 6, 4, 5, 4, 3, 9, 9, 10, 7, 9, 8, 1, 10, 1, 1, 3, 0, 0, 8, 8, 2, 3, 1, 4, 10, 5, 7, 2, 6, 4, 9, 6, 4, 9, 1, 10, 6, 9, 8, 4, 8, 8, 1, 9, 1, 7, 10, 3, 0, 0, 2, 1, 9, 7, 4, 5, 5, 6, 6, 4, 2, 10, 6, 8, 7, 7, 1, 3, 2, 5, 1, 9, 1, 2, 6, 8, 10, 3, 1, 4, 0]);

suc = [
   {2, 3, 4},
   {8, 18, 6},
   {9, 11, 5},
   {9, 10, 13},
   {12, 21, 7},
   {11, 12, 20},
   {29, 15},
   {9, 21, 14},
   {19, 31},
   {16, 18, 20},
   {24, 27, 31},
   {16, 24, 22},
   {16, 14, 22},
   {17, 20, 15},
   {25, 31},
   {17, 30, 23},
   {19},
   {24, 21, 22},
   {26},
   {25, 26, 23},
   {26, 30},
   {25, 27, 23},
   {28},
   {28},
   {30},
   {27, 28},
   {29},
   {29},
   {32},
   {32},
   {32},
   {  } ];

deadline = array2d(1..32, 1..3, [17, 2, 0, 18, 1, 3, 20, 3, 5, 24, 4, 4, 26, 1, 0, 35, 3, 2, 38, 1, 0, 39, 2, 1, 40, 4, 5, 41, 1, 0, 48, 2, 4, 53, 4, 0, 55, 3, 4, 58, 1, 1, 59, 3, 3, 65, 4, 2, 73, 3, 5, 78, 2, 0, 80, 5, 4, 89, 5, 4, 94, 2, 5, 97, 0, 5, 98, 0, 3, 99, 2, 4, 104, 2, 3, 104, 1, 4, 105, 5, 3, 109, 2, 3, 111, 3, 5, 115, 2, 5, 117, 2, 2, 124, 3, 1]);
