n_res = 4;
rc = [ 25, 22, 18, 24 ];
n_tasks = 32;
d = [0, 7, 3, 5, 1, 10, 5, 9, 1, 5, 2, 1, 7, 4, 5, 7, 8, 5, 1, 1, 10, 3, 4, 3, 1, 7, 9, 10, 6, 5, 10, 0];
rr = array2d(1..4, 1..32, [0, 6, 0, 2, 0, 4, 9, 0, 0, 0, 0, 0, 3, 0, 3, 0, 0, 0, 0, 4, 5, 0, 2, 2, 2, 9, 9, 3, 9, 0, 3, 0, 0, 7, 0, 0, 0, 0, 6, 0, 0, 8, 9, 6, 4, 10, 9, 0, 10, 2, 3, 0, 0, 0, 0, 0, 0, 0, 9, 0, 0, 0, 0, 0, 0, 0, 1, 2, 7, 5, 3, 6, 2, 0, 4, 0, 4, 8, 0, 8, 0, 1, 3, 3, 0, 0, 1, 0, 0, 2, 5, 0, 9, 0, 5, 0, 0, 0, 6, 0, 0, 0, 10, 7, 3, 0, 10, 0, 0, 7, 4, 0, 0, 0, 0, 4, 0, 2, 3, 7, 0, 0, 0, 9, 0, 8, 3, 0]);

suc = [
   {2, 3, 4},
   {22},
   {11, 5, 6},
   {31},
   {27, 20, 7},
   {8, 10, 15},
   {9, 28, 14},
   {26},
   {23},
   {19, 12, 13},
   {24},
   {21},
   {16, 18},
   {24},
   {24, 17},
   {17},
   {29},
   {22, 31},
   {30, 31},
   {28},
   {26},
   {27},
   {29},
   {25},
   {29},
   {27, 28},
   {30},
   {30},
   {32},
   {32},
   {32},
   {  } ];

deadline = array2d(1..32, 1..3, [3, 3, 1, 4, 5, 4, 7, 0, 0, 9, 0, 5, 11, 0, 4, 13, 2, 3, 15, 4, 3, 17, 0, 4, 20, 1, 2, 22, 5, 4, 24, 5, 4, 27, 3, 3, 28, 4, 2, 28, 1, 4, 35, 2, 5, 50, 5, 5, 69, 0, 0, 70, 5, 4, 74, 1, 3, 79, 4, 0, 85, 2, 1, 91, 2, 5, 92, 2, 5, 98, 3, 5, 105, 4, 2, 108, 2, 4, 115, 4, 5, 119, 1, 5, 120, 2, 4, 126, 2, 0, 127, 2, 5, 127, 5, 5]);
