n_res = 4;
rc = [ 20, 17, 18, 15 ];
n_tasks = 32;
d = [0, 4, 6, 1, 6, 9, 3, 7, 2, 8, 7, 7, 2, 8, 5, 4, 1, 10, 9, 8, 6, 8, 1, 6, 1, 8, 10, 2, 4, 10, 2, 0];
rr = array2d(1..4, 1..32, [0, 4, 0, 1, 0, 0, 1, 0, 4, 8, 0, 10, 4, 8, 0, 0, 6, 9, 6, 0, 1, 10, 0, 4, 0, 0, 1, 1, 0, 0, 0, 0, 0, 10, 3, 0, 6, 10, 5, 0, 0, 0, 0, 0, 10, 0, 5, 8, 4, 0, 0, 0, 8, 0, 3, 0, 10, 8, 0, 0, 0, 4, 9, 0, 0, 10, 8, 0, 8, 9, 0, 0, 0, 0, 7, 0, 0, 3, 0, 0, 0, 5, 9, 0, 9, 10, 2, 0, 4, 0, 0, 0, 3, 0, 8, 0, 0, 0, 2, 5, 0, 9, 3, 1, 5, 0, 1, 7, 2, 0, 0, 0, 0, 4, 0, 9, 0, 0, 0, 6, 2, 0, 0, 6, 5, 7, 0, 0]);

suc = [
   {2, 3, 4},
   {8, 12, 6},
   {27, 7},
   {5},
   {16, 19, 14},
   {9, 10},
   {28},
   {29, 21},
   {11},
   {13, 22, 30},
   {26},
   {27},
   {15},
   {25, 20, 22},
   {17, 18, 23},
   {24, 31},
   {25, 21},
   {27},
   {21},
   {23},
   {26},
   {26},
   {28},
   {25},
   {28},
   {31},
   {31},
   {29},
   {32},
   {32},
   {32},
   {  } ];

deadline = array2d(1..32, 1..3, [8, 3, 2, 9, 5, 2, 11, 2, 3, 15, 4, 4, 27, 3, 2, 32, 0, 2, 36, 4, 3, 46, 4, 1, 53, 4, 3, 55, 1, 5, 56, 0, 3, 56, 4, 1, 57, 2, 1, 57, 5, 2, 59, 3, 0, 61, 3, 0, 63, 4, 3, 64, 1, 5, 68, 0, 2, 72, 1, 1, 87, 2, 5, 99, 3, 1, 103, 4, 5, 105, 0, 4, 109, 1, 5, 114, 1, 3, 115, 1, 5, 119, 3, 0, 123, 2, 4, 124, 1, 1, 125, 2, 5, 125, 4, 2]);
