n_res = 4;
rc = [ 17, 14, 20, 22 ];
n_tasks = 32;
d = [0, 3, 10, 6, 9, 7, 2, 1, 6, 10, 4, 3, 9, 10, 3, 10, 6, 6, 1, 8, 4, 7, 3, 5, 3, 10, 6, 1, 10, 5, 6, 0];
rr = array2d(1..4, 1..32, [0, 9, 0, 7, 3, 0, 1, 4, 4, 0, 0, 1, 3, 1, 6, 4, 1, 0, 6, 4, 0, 7, 6, 8, 0, 3, 0, 1, 0, 7, 7, 0, 0, 3, 0, 0, 4, 3, 9, 3, 1, 2, 0, 4, 2, 3, 0, 5, 5, 5, 0, 1, 5, 6, 5, 0, 9, 1, 0, 2, 3, 1, 3, 0, 0, 0, 8, 0, 7, 0, 4, 6, 0, 0, 10, 0, 1, 0, 5, 10, 4, 1, 8, 9, 0, 1, 9, 4, 10, 5, 1, 0, 8, 0, 10, 0, 0, 1, 9, 6, 7, 10, 10, 1, 7, 10, 7, 0, 9, 5, 4, 6, 8, 8, 2, 5, 7, 0, 7, 6, 8, 4, 3, 1, 9, 2, 0, 0]);

suc = [
   {2, 3, 4},
   {10, 12, 21},
   {27, 10, 26},
   {11, 5, 6},
   {8, 16, 29},
   {8, 9, 7},
   {18, 19, 14},
   {17, 20, 21},
   {10, 12, 21},
   {16, 19, 13},
   {16, 12, 14},
   {18, 20, 22},
   {18, 14, 23},
   {15},
   {24, 17, 29},
   {25},
   {30},
   {28},
   {31, 29, 23},
   {24, 26, 27},
   {24, 27, 22},
   {25, 26, 23},
   {30},
   {25, 28},
   {31},
   {30},
   {28},
   {31},
   {32},
   {32},
   {32},
   {  } ];

deadline = array2d(1..32, 1..3, [5, 1, 1, 7, 4, 1, 20, 1, 3, 27, 3, 4, 28, 4, 5, 35, 1, 5, 42, 3, 5, 44, 3, 4, 50, 4, 2, 53, 3, 5, 55, 2, 2, 57, 5, 5, 58, 2, 2, 59, 4, 2, 77, 0, 2, 80, 3, 4, 84, 1, 2, 93, 0, 2, 97, 2, 4, 100, 4, 2, 100, 4, 3, 105, 1, 0, 112, 1, 0, 113, 4, 3, 114, 1, 5, 114, 5, 4, 117, 4, 4, 126, 3, 5, 133, 2, 0, 141, 0, 0, 146, 3, 3, 161, 0, 1]);
