n_res = 4;
rc = [ 14, 16, 15, 16 ];
n_tasks = 32;
d = [0, 7, 8, 9, 2, 9, 6, 6, 6, 5, 3, 7, 9, 9, 10, 1, 3, 3, 1, 10, 5, 8, 6, 7, 10, 3, 3, 2, 2, 1, 9, 0];
rr = array2d(1..4, 1..32, [0, 0, 4, 9, 1, 0, 0, 2, 0, 8, 0, 0, 3, 3, 0, 5, 10, 2, 0, 5, 6, 3, 0, 5, 0, 0, 5, 10, 2, 4, 0, 0, 0, 9, 0, 6, 6, 3, 0, 3, 0, 0, 10, 5, 7, 6, 0, 0, 8, 1, 5, 8, 6, 8, 9, 9, 3, 10, 5, 4, 0, 4, 9, 0, 0, 7, 8, 6, 3, 3, 3, 7, 7, 8, 2, 0, 0, 1, 8, 7, 2, 4, 6, 0, 5, 0, 10, 0, 1, 6, 7, 6, 5, 1, 1, 0, 0, 3, 0, 8, 0, 10, 3, 3, 9, 7, 7, 3, 4, 6, 8, 9, 10, 10, 0, 7, 1, 10, 10, 0, 7, 5, 2, 3, 0, 1, 10, 0]);

suc = [
   {2, 3, 4},
   {5, 6, 7},
   {9, 11, 12},
   {10, 27},
   {8, 19, 13},
   {25, 13},
   {16, 15},
   {18, 20},
   {23},
   {16, 17, 21},
   {24, 17, 29},
   {26, 28},
   {18, 14, 15},
   {16, 27, 31},
   {31},
   {23},
   {18},
   {30},
   {25, 20, 21},
   {22},
   {28, 31, 23},
   {26, 28},
   {29, 30},
   {25},
   {26},
   {27},
   {30},
   {29},
   {32},
   {32},
   {32},
   {  } ];

deadline = array2d(1..32, 1..3, [2, 2, 4, 2, 1, 5, 3, 1, 0, 5, 1, 4, 7, 3, 3, 10, 4, 3, 11, 1, 1, 14, 0, 4, 15, 3, 0, 23, 3, 5, 25, 0, 3, 28, 3, 5, 29, 2, 3, 32, 5, 0, 35, 4, 0, 41, 3, 3, 51, 1, 1, 54, 2, 2, 55, 3, 1, 65, 3, 0, 65, 5, 4, 72, 3, 2, 73, 2, 4, 76, 2, 3, 79, 1, 5, 80, 0, 0, 85, 1, 3, 89, 0, 5, 95, 5, 0, 98, 0, 2, 100, 2, 4, 101, 2, 0]);
