n_res = 4;
rc = [ 15, 18, 15, 14 ];
n_tasks = 32;
d = [0, 6, 10, 10, 6, 6, 10, 7, 3, 9, 5, 1, 3, 4, 5, 4, 6, 1, 8, 7, 1, 9, 1, 3, 6, 2, 5, 9, 9, 10, 8, 0];
rr = array2d(1..4, 1..32, [0, 6, 0, 0, 1, 3, 0, 0, 7, 0, 5, 0, 6, 6, 0, 1, 0, 0, 6, 0, 0, 0, 8, 9, 3, 6, 5, 0, 0, 0, 0, 0, 0, 7, 0, 0, 5, 0, 7, 0, 0, 9, 0, 9, 4, 0, 6, 8, 0, 6, 2, 8, 0, 4, 10, 6, 0, 5, 0, 3, 3, 2, 0, 0, 0, 0, 6, 0, 8, 1, 0, 5, 8, 1, 6, 2, 2, 0, 0, 0, 3, 0, 4, 0, 0, 0, 2, 1, 9, 0, 8, 0, 0, 10, 0, 0, 0, 0, 6, 3, 0, 0, 0, 0, 0, 0, 0, 10, 0, 0, 2, 2, 0, 6, 7, 6, 7, 5, 0, 0, 0, 0, 4, 0, 0, 6, 4, 0]);

suc = [
   {2, 3, 4},
   {9, 17},
   {16, 21, 6},
   {10, 21, 5},
   {8, 13, 14},
   {8, 7},
   {10, 11, 15},
   {9, 12},
   {20},
   {31},
   {30},
   {31},
   {25, 19, 23},
   {24, 20},
   {26, 18, 19},
   {24, 22},
   {25, 27},
   {28, 23},
   {20, 22},
   {29},
   {24, 22, 23},
   {27, 29},
   {27, 30},
   {25},
   {28},
   {28},
   {31},
   {29, 30},
   {32},
   {32},
   {32},
   {  } ];

deadline = array2d(1..32, 1..3, [7, 5, 3, 17, 0, 2, 27, 1, 0, 27, 1, 2, 28, 4, 1, 28, 4, 0, 40, 3, 1, 41, 0, 3, 41, 2, 5, 45, 5, 0, 52, 5, 5, 54, 1, 4, 58, 2, 2, 64, 3, 2, 66, 4, 4, 69, 1, 1, 75, 3, 1, 78, 5, 4, 96, 3, 0, 98, 3, 5, 105, 5, 0, 124, 5, 5, 127, 1, 5, 127, 0, 3, 131, 1, 4, 133, 4, 1, 135, 4, 5, 138, 5, 1, 140, 2, 3, 140, 3, 3, 147, 1, 5, 151, 0, 3]);
