n_res = 4;
rc = [ 38, 35, 30, 37 ];
n_tasks = 32;
d = [0, 5, 9, 9, 1, 6, 7, 8, 9, 5, 10, 2, 3, 9, 6, 2, 3, 9, 8, 7, 9, 7, 1, 10, 9, 7, 9, 4, 4, 10, 9, 0];
rr = array2d(1..4, 1..32, [0, 6, 9, 8, 6, 4, 10, 6, 6, 9, 3, 4, 7, 10, 10, 3, 10, 4, 6, 8, 5, 1, 5, 3, 1, 4, 8, 10, 2, 6, 10, 0, 0, 3, 10, 10, 4, 2, 3, 1, 8, 2, 8, 5, 1, 8, 2, 1, 7, 3, 10, 8, 10, 10, 7, 10, 1, 6, 10, 10, 3, 9, 2, 0, 0, 5, 10, 2, 1, 5, 1, 10, 1, 9, 4, 1, 3, 3, 6, 8, 2, 6, 5, 8, 9, 7, 1, 2, 1, 2, 10, 8, 1, 2, 1, 0, 0, 5, 9, 9, 4, 10, 5, 3, 6, 3, 10, 2, 6, 4, 2, 6, 2, 2, 5, 2, 4, 5, 1, 5, 6, 6, 9, 2, 3, 1, 2, 0]);

suc = [
   {2, 3, 4},
   {26, 27, 21},
   {9, 10, 5},
   {12, 13, 6},
   {8, 11, 7},
   {18, 19, 15},
   {17},
   {12, 13, 14},
   {30},
   {24, 28, 23},
   {29, 22},
   {21},
   {16, 15},
   {17, 20, 25},
   {23},
   {18, 21},
   {23},
   {24, 27, 30},
   {20, 28},
   {22},
   {24, 29},
   {26, 30},
   {31},
   {31},
   {26, 27},
   {31},
   {28},
   {29},
   {32},
   {32},
   {32},
   {  } ];

deadline = array2d(1..32, 1..3, [2, 4, 0, 6, 0, 0, 15, 0, 1, 15, 0, 4, 18, 4, 5, 21, 2, 2, 27, 1, 1, 32, 5, 1, 37, 3, 1, 37, 2, 5, 43, 1, 5, 44, 3, 4, 45, 4, 0, 48, 3, 5, 53, 2, 1, 57, 2, 1, 59, 2, 3, 70, 4, 3, 75, 4, 5, 79, 2, 4, 84, 1, 3, 95, 4, 0, 98, 3, 5, 99, 1, 0, 105, 2, 5, 112, 0, 5, 114, 0, 2, 116, 1, 5, 120, 4, 3, 123, 1, 2, 128, 3, 3, 128, 5, 0]);
