n_res = 4;
rc = [ 10, 10, 11, 19 ];
n_tasks = 32;
d = [0, 5, 6, 8, 6, 5, 4, 6, 5, 8, 10, 8, 9, 7, 3, 9, 1, 1, 6, 6, 6, 7, 5, 6, 8, 5, 3, 8, 6, 10, 8, 0];
rr = array2d(1..4, 1..32, [0, 0, 0, 5, 0, 0, 0, 0, 0, 0, 0, 0, 0, 0, 0, 0, 0, 0, 0, 0, 5, 0, 0, 0, 9, 0, 2, 0, 0, 0, 0, 0, 0, 0, 0, 0, 0, 0, 0, 0, 3, 0, 0, 0, 0, 0, 0, 0, 10, 7, 0, 0, 0, 0, 0, 0, 0, 0, 0, 9, 0, 0, 0, 0, 0, 8, 0, 0, 0, 4, 1, 6, 0, 0, 0, 0, 0, 0, 2, 1, 0, 0, 0, 0, 0, 9, 0, 0, 0, 10, 0, 0, 3, 0, 0, 0, 0, 0, 5, 0, 4, 0, 0, 0, 0, 3, 1, 8, 4, 1, 0, 0, 0, 0, 1, 8, 0, 0, 4, 2, 0, 0, 0, 0, 0, 6, 10, 0]);

suc = [
   {2, 3, 4},
   {5, 6, 7},
   {8, 17, 20},
   {16, 26, 11},
   {9, 19},
   {18},
   {25, 18},
   {10, 27, 15},
   {12, 13, 14},
   {11},
   {29},
   {25},
   {16, 27, 29},
   {20, 31},
   {16, 19, 22},
   {18, 21, 23},
   {22},
   {30},
   {24, 25, 21},
   {26, 27},
   {28},
   {24, 26, 23},
   {31},
   {30},
   {31},
   {28, 29},
   {28},
   {30},
   {32},
   {32},
   {32},
   {  } ];

deadline = array2d(1..32, 1..3, [2, 3, 5, 8, 5, 5, 8, 1, 4, 11, 1, 1, 12, 4, 2, 13, 3, 0, 14, 2, 3, 15, 3, 3, 15, 3, 2, 16, 0, 0, 29, 2, 0, 30, 3, 1, 37, 5, 1, 39, 1, 5, 41, 5, 5, 45, 4, 4, 58, 3, 0, 62, 4, 5, 63, 1, 3, 72, 3, 4, 75, 4, 5, 92, 1, 0, 94, 3, 1, 96, 1, 2, 110, 0, 4, 113, 2, 2, 114, 2, 2, 129, 0, 4, 136, 3, 2, 140, 1, 4, 143, 3, 3, 144, 0, 5]);
