n_res = 4;
rc = [ 11, 17, 16, 15 ];
n_tasks = 32;
d = [0, 4, 4, 8, 2, 7, 4, 1, 9, 8, 5, 10, 10, 10, 4, 3, 2, 4, 7, 5, 7, 6, 5, 10, 1, 2, 1, 1, 10, 8, 3, 0];
rr = array2d(1..4, 1..32, [0, 8, 5, 5, 0, 3, 0, 3, 4, 0, 1, 4, 1, 7, 0, 5, 0, 2, 8, 3, 7, 0, 5, 6, 5, 0, 1, 5, 0, 0, 4, 0, 0, 4, 3, 0, 1, 0, 8, 3, 7, 6, 7, 5, 7, 1, 1, 0, 9, 0, 1, 5, 2, 9, 10, 8, 3, 5, 10, 4, 7, 0, 1, 0, 0, 9, 6, 0, 4, 9, 1, 5, 1, 0, 2, 10, 0, 0, 4, 7, 8, 10, 1, 0, 5, 5, 0, 3, 4, 0, 8, 6, 0, 9, 0, 0, 0, 5, 2, 9, 0, 0, 6, 3, 4, 6, 8, 3, 8, 0, 3, 5, 7, 9, 10, 1, 1, 0, 1, 6, 0, 3, 10, 8, 1, 1, 0, 0]);

suc = [
   {2, 3, 4},
   {24, 9, 5},
   {8, 14, 23},
   {15, 7},
   {11, 6},
   {17, 19},
   {10},
   {29},
   {11, 20, 13},
   {18, 27},
   {12, 21, 22},
   {25},
   {16},
   {20},
   {23},
   {19},
   {21, 23},
   {26},
   {30},
   {30},
   {28},
   {25},
   {26, 27},
   {30},
   {26},
   {31},
   {28, 31},
   {29},
   {32},
   {32},
   {32},
   {  } ];

deadline = array2d(1..32, 1..3, [1, 2, 4, 2, 0, 1, 3, 4, 2, 7, 5, 3, 7, 1, 1, 8, 3, 4, 10, 5, 5, 14, 5, 5, 14, 3, 0, 17, 1, 5, 20, 3, 4, 20, 0, 5, 21, 2, 2, 24, 4, 3, 25, 4, 1, 42, 1, 3, 42, 4, 0, 57, 2, 2, 60, 1, 0, 63, 4, 1, 64, 5, 4, 68, 4, 2, 70, 4, 4, 77, 2, 3, 79, 4, 4, 86, 2, 3, 88, 4, 3, 90, 5, 4, 93, 0, 0, 96, 1, 5, 98, 1, 0, 100, 4, 1]);
