n_res = 4;
rc = [ 21, 20, 21, 20 ];
n_tasks = 32;
d = [0, 5, 6, 2, 10, 8, 6, 3, 5, 2, 9, 10, 1, 2, 1, 6, 2, 2, 8, 10, 8, 1, 1, 9, 5, 3, 7, 6, 3, 1, 9, 0];
rr = array2d(1..4, 1..32, [0, 5, 7, 10, 1, 3, 6, 5, 3, 2, 6, 1, 1, 3, 8, 10, 8, 10, 9, 1, 6, 3, 2, 9, 9, 1, 6, 1, 5, 7, 1, 0, 0, 9, 8, 10, 4, 8, 7, 8, 5, 7, 1, 8, 9, 9, 7, 7, 7, 4, 2, 1, 6, 1, 3, 8, 4, 1, 8, 10, 2, 3, 1, 0, 0, 3, 1, 7, 3, 3, 1, 9, 5, 1, 7, 6, 6, 5, 9, 1, 6, 7, 10, 1, 10, 6, 1, 4, 9, 5, 4, 10, 3, 1, 9, 0, 0, 4, 8, 5, 1, 7, 7, 1, 8, 8, 10, 9, 9, 4, 7, 3, 1, 2, 2, 4, 4, 2, 5, 1, 7, 6, 4, 4, 3, 4, 1, 0]);

suc = [
   {2, 3, 4},
   {20, 5, 30},
   {8, 6, 7},
   {8, 10, 13},
   {17, 10, 19},
   {11, 13, 22},
   {9, 12, 15},
   {26, 19, 23},
   {16, 17, 21},
   {18, 11},
   {16, 21, 31},
   {17, 20, 30},
   {16, 20, 14},
   {27, 19, 15},
   {18, 23},
   {25, 26},
   {18},
   {26, 28},
   {24},
   {27, 21, 31},
   {24, 25},
   {27, 31, 23},
   {24, 25, 30},
   {28},
   {28},
   {29},
   {29},
   {29},
   {32},
   {32},
   {32},
   {  } ];

deadline = array2d(1..32, 1..3, [3, 1, 1, 9, 0, 3, 12, 1, 5, 16, 5, 0, 17, 4, 1, 17, 5, 1, 30, 2, 3, 31, 2, 3, 40, 5, 4, 41, 5, 5, 45, 3, 3, 46, 1, 4, 52, 3, 1, 56, 0, 5, 62, 5, 2, 64, 4, 5, 69, 4, 2, 73, 2, 0, 86, 4, 5, 94, 5, 3, 97, 0, 5, 102, 0, 4, 105, 3, 3, 109, 3, 0, 114, 5, 4, 116, 1, 5, 117, 0, 0, 119, 4, 2, 121, 2, 0, 126, 2, 2, 137, 4, 2, 143, 4, 1]);
