n_res = 4;
rc = [ 13, 14, 12, 13 ];
n_tasks = 32;
d = [0, 5, 4, 8, 1, 4, 7, 8, 2, 2, 4, 7, 10, 8, 4, 2, 6, 9, 10, 4, 2, 8, 1, 7, 4, 3, 6, 4, 5, 3, 1, 0];
rr = array2d(1..4, 1..32, [0, 4, 2, 9, 7, 6, 10, 3, 5, 0, 7, 3, 5, 2, 5, 0, 7, 4, 1, 5, 2, 9, 0, 4, 7, 4, 10, 0, 0, 0, 3, 0, 0, 7, 10, 2, 6, 0, 6, 7, 10, 5, 6, 1, 7, 4, 9, 0, 5, 0, 8, 0, 4, 6, 4, 0, 3, 0, 10, 6, 1, 5, 6, 0, 0, 3, 9, 4, 6, 0, 0, 6, 0, 4, 8, 6, 8, 9, 7, 8, 2, 6, 1, 9, 4, 0, 0, 0, 5, 5, 5, 1, 0, 4, 7, 0, 0, 8, 0, 7, 9, 2, 0, 1, 4, 0, 0, 0, 10, 0, 10, 8, 3, 0, 0, 2, 7, 0, 8, 7, 8, 1, 2, 0, 9, 7, 2, 0]);

suc = [
   {2, 3, 4},
   {16, 25, 18},
   {5, 30, 23},
   {8, 10, 6},
   {21, 22},
   {25, 19, 7},
   {9, 11, 12},
   {25, 31},
   {17, 26},
   {19, 14, 15},
   {16, 28},
   {17, 28, 13},
   {27, 21, 15},
   {18},
   {24, 29},
   {22},
   {20},
   {30, 22, 23},
   {24},
   {29},
   {24},
   {26, 27},
   {26, 27},
   {31},
   {28},
   {31},
   {29},
   {30},
   {32},
   {32},
   {32},
   {  } ];

deadline = array2d(1..32, 1..3, [6, 4, 2, 8, 1, 4, 11, 0, 0, 12, 2, 5, 12, 0, 5, 13, 3, 2, 22, 4, 0, 22, 1, 1, 25, 5, 3, 25, 3, 1, 25, 4, 5, 35, 4, 2, 39, 4, 0, 44, 3, 0, 45, 3, 4, 49, 2, 5, 51, 4, 5, 59, 2, 3, 62, 0, 4, 65, 5, 3, 66, 4, 4, 69, 0, 3, 72, 5, 3, 83, 2, 1, 85, 3, 1, 86, 2, 3, 87, 0, 0, 97, 2, 4, 107, 3, 4, 118, 2, 4, 119, 4, 4, 119, 1, 3]);
