n_res = 4;
rc = [ 27, 17, 22, 21 ];
n_tasks = 32;
d = [0, 2, 5, 8, 3, 4, 1, 7, 2, 3, 3, 10, 7, 2, 8, 10, 9, 6, 6, 3, 3, 10, 7, 10, 9, 9, 7, 8, 2, 7, 5, 0];
rr = array2d(1..4, 1..32, [0, 8, 1, 0, 6, 2, 9, 6, 5, 6, 7, 6, 10, 3, 0, 0, 7, 8, 6, 1, 3, 2, 8, 9, 0, 4, 10, 5, 0, 1, 9, 0, 0, 9, 4, 1, 1, 3, 0, 0, 7, 0, 7, 6, 2, 5, 4, 4, 4, 8, 0, 9, 0, 0, 0, 0, 0, 8, 0, 10, 3, 7, 1, 0, 0, 10, 8, 6, 0, 5, 10, 2, 5, 9, 3, 9, 3, 0, 7, 0, 0, 0, 10, 7, 1, 5, 6, 6, 2, 7, 5, 9, 0, 0, 4, 0, 0, 2, 9, 3, 8, 1, 3, 5, 0, 9, 0, 0, 0, 6, 9, 8, 6, 0, 8, 3, 0, 7, 1, 4, 7, 9, 0, 1, 8, 6, 2, 0]);

suc = [
   {2, 3, 4},
   {5},
   {11, 7},
   {8, 14},
   {9, 6},
   {19, 20, 30},
   {16, 17},
   {10, 13, 23},
   {27},
   {18, 19},
   {12, 31},
   {22},
   {25, 22, 15},
   {17, 26, 21},
   {21},
   {20},
   {20},
   {25},
   {31},
   {29},
   {24, 28},
   {24},
   {27},
   {30},
   {28},
   {28},
   {30},
   {29},
   {32},
   {32},
   {32},
   {  } ];

deadline = array2d(1..32, 1..3, [3, 1, 1, 4, 4, 4, 11, 4, 5, 12, 2, 1, 13, 4, 4, 25, 3, 1, 27, 2, 1, 34, 1, 2, 37, 1, 2, 41, 1, 5, 48, 0, 2, 48, 3, 5, 53, 0, 5, 54, 3, 1, 56, 1, 4, 57, 3, 4, 62, 2, 4, 65, 5, 1, 66, 5, 5, 68, 5, 3, 75, 0, 0, 79, 2, 2, 80, 3, 5, 81, 0, 3, 84, 3, 4, 88, 5, 0, 105, 4, 0, 107, 4, 3, 113, 3, 2, 116, 4, 4, 118, 2, 4, 119, 1, 4]);
