n_res = 4;
rc = [ 24, 26, 34, 25 ];
n_tasks = 32;
d = [0, 9, 10, 4, 1, 9, 4, 6, 1, 1, 2, 3, 4, 7, 10, 8, 9, 7, 4, 9, 10, 5, 10, 8, 9, 1, 5, 6, 8, 5, 6, 0];
rr = array2d(1..4, 1..32, [0, 6, 3, 8, 4, 6, 6, 8, 7, 2, 2, 7, 3, 9, 1, 1, 5, 5, 5, 5, 7, 6, 6, 10, 2, 8, 2, 8, 5, 1, 4, 0, 0, 3, 3, 3, 2, 5, 1, 2, 4, 5, 10, 3, 10, 4, 4, 8, 9, 4, 6, 6, 2, 6, 1, 8, 7, 9, 4, 10, 10, 7, 8, 0, 0, 4, 6, 10, 10, 3, 10, 4, 5, 1, 9, 4, 10, 8, 1, 5, 3, 4, 7, 10, 2, 1, 8, 6, 3, 2, 2, 9, 4, 6, 1, 0, 0, 9, 10, 1, 7, 10, 4, 5, 5, 1, 3, 9, 6, 4, 10, 6, 4, 4, 8, 3, 9, 1, 8, 5, 4, 2, 9, 3, 10, 8, 10, 0]);

suc = [
   {2, 3, 4},
   {10, 5, 6},
   {23, 6, 22},
   {9, 10, 20},
   {8, 11, 7},
   {17, 14, 7},
   {19, 21},
   {12, 14, 23},
   {28, 14, 15},
   {21, 19, 13},
   {25, 18, 15},
   {16, 17, 13},
   {25, 27, 15},
   {24},
   {22},
   {18, 19, 22},
   {25, 18, 26},
   {20, 29},
   {24, 26, 28},
   {24, 21},
   {27, 28},
   {26},
   {27, 29},
   {30, 31},
   {29},
   {31},
   {30, 31},
   {30},
   {32},
   {32},
   {32},
   {  } ];

deadline = array2d(1..32, 1..3, [1, 3, 5, 10, 3, 1, 21, 2, 5, 28, 0, 4, 41, 3, 4, 42, 5, 2, 51, 5, 0, 56, 1, 0, 67, 2, 3, 71, 1, 3, 75, 1, 1, 75, 1, 0, 78, 1, 0, 80, 4, 3, 93, 5, 1, 104, 2, 2, 106, 1, 2, 107, 5, 2, 109, 0, 2, 109, 4, 4, 111, 1, 0, 120, 3, 0, 120, 3, 5, 121, 3, 0, 122, 1, 5, 124, 2, 2, 127, 5, 3, 128, 5, 3, 133, 5, 1, 141, 0, 0, 143, 0, 2, 158, 0, 3]);
