n_res = 4;
rc = [ 13, 15, 13, 14 ];
n_tasks = 32;
d = [0, 7, 9, 5, 5, 10, 7, 4, 5, 1, 6, 9, 10, 7, 5, 9, 2, 9, 3, 7, 4, 8, 9, 1, 8, 4, 10, 3, 10, 9, 9, 0];
rr = array2d(1..4, 1..32, [0, 10, 2, 8, 2, 10, 4, 9, 8, 8, 1, 6, 5, 9, 2, 8, 5, 6, 4, 7, 8, 6, 1, 2, 2, 1, 10, 6, 7, 7, 7, 0, 0, 3, 7, 4, 1, 4, 8, 8, 3, 10, 1, 8, 1, 10, 9, 9, 1, 3, 2, 10, 4, 7, 3, 2, 1, 10, 7, 8, 3, 6, 8, 0, 0, 9, 5, 9, 10, 2, 3, 2, 10, 10, 1, 1, 1, 3, 2, 7, 7, 5, 6, 2, 10, 8, 8, 7, 4, 1, 8, 9, 5, 5, 9, 0, 0, 7, 5, 3, 8, 7, 2, 6, 8, 8, 7, 1, 3, 5, 8, 8, 9, 10, 7, 5, 8, 7, 9, 5, 3, 5, 2, 4, 7, 9, 10, 0]);

suc = [
   {2, 3, 4},
   {11, 5, 6},
   {9, 21, 7},
   {10, 15, 7},
   {8, 12, 28},
   {8, 12, 22},
   {16, 20, 22},
   {18, 13, 15},
   {25, 19, 12},
   {28, 14, 23},
   {17, 15},
   {26, 20, 23},
   {16, 24, 14},
   {25, 19, 21},
   {24, 31},
   {19, 29},
   {18, 22},
   {26, 20, 21},
   {31},
   {27},
   {27, 30},
   {24, 28, 23},
   {30},
   {25},
   {26},
   {27, 30},
   {29},
   {29, 31},
   {32},
   {32},
   {32},
   {  } ];

deadline = array2d(1..32, 1..3, [10, 4, 3, 20, 5, 2, 21, 5, 3, 37, 2, 5, 38, 1, 1, 42, 3, 0, 43, 3, 1, 45, 1, 4, 47, 1, 5, 56, 0, 3, 63, 2, 5, 64, 2, 3, 64, 3, 0, 66, 1, 4, 68, 4, 3, 69, 4, 5, 73, 4, 5, 76, 1, 2, 79, 5, 5, 87, 1, 4, 88, 5, 4, 100, 2, 4, 101, 1, 1, 110, 3, 3, 110, 4, 3, 131, 5, 4, 140, 4, 5, 145, 5, 2, 150, 0, 3, 159, 3, 5, 161, 0, 0, 170, 2, 4]);
