n_res = 4;
rc = [ 17, 24, 26, 15 ];
n_tasks = 32;
d = [0, 1, 5, 7, 2, 8, 10, 3, 7, 2, 10, 7, 9, 5, 5, 6, 9, 6, 6, 7, 4, 8, 5, 10, 5, 3, 7, 5, 2, 4, 5, 0];
rr = array2d(1..4, 1..32, [0, 3, 2, 0, 4, 5, 2, 2, 3, 4, 9, 4, 0, 0, 0, 9, 7, 0, 0, 0, 4, 0, 3, 2, 6, 2, 2, 6, 4, 3, 0, 0, 0, 1, 7, 5, 2, 4, 6, 3, 7, 3, 10, 0, 0, 0, 2, 0, 3, 0, 8, 5, 7, 8, 5, 7, 5, 10, 10, 8, 1, 3, 5, 0, 0, 3, 6, 10, 3, 6, 0, 0, 7, 0, 3, 1, 3, 6, 6, 7, 4, 9, 0, 1, 0, 0, 0, 5, 10, 0, 0, 0, 10, 1, 1, 0, 0, 2, 1, 2, 7, 7, 7, 2, 0, 7, 4, 0, 7, 0, 2, 2, 3, 0, 4, 5, 7, 4, 4, 1, 3, 8, 0, 3, 7, 5, 1, 0]);

suc = [
   {2, 3, 4},
   {10, 13, 5},
   {9, 6, 15},
   {28},
   {12, 29},
   {8, 13, 7},
   {16, 19, 22},
   {31},
   {16},
   {11, 14},
   {15},
   {21, 23},
   {25},
   {24},
   {17, 26, 27},
   {24},
   {18, 20},
   {21},
   {23},
   {21},
   {30},
   {26},
   {25},
   {28, 29},
   {30},
   {29},
   {31},
   {30},
   {32},
   {32},
   {32},
   {  } ];

deadline = array2d(1..32, 1..3, [3, 2, 3, 8, 1, 4, 15, 4, 2, 18, 2, 3, 31, 5, 2, 31, 0, 1, 32, 4, 0, 32, 1, 0, 33, 4, 2, 37, 4, 1, 40, 2, 3, 41, 3, 0, 42, 3, 3, 47, 4, 3, 48, 1, 1, 48, 0, 3, 53, 3, 2, 58, 2, 2, 61, 1, 4, 61, 4, 2, 64, 4, 4, 66, 2, 0, 76, 2, 4, 78, 5, 2, 82, 2, 2, 87, 0, 5, 88, 2, 5, 90, 4, 1, 91, 5, 3, 103, 5, 0, 105, 2, 4, 115, 0, 5]);
