n_res = 4;
rc = [ 26, 23, 19, 26 ];
n_tasks = 32;
d = [0, 10, 9, 5, 1, 1, 9, 5, 9, 4, 8, 7, 2, 3, 1, 8, 9, 8, 4, 5, 2, 10, 2, 4, 1, 6, 2, 4, 1, 2, 2, 0];
rr = array2d(1..4, 1..32, [0, 8, 4, 2, 4, 4, 9, 6, 4, 9, 10, 9, 8, 4, 8, 9, 8, 7, 4, 3, 1, 10, 2, 3, 2, 10, 9, 3, 6, 7, 5, 0, 0, 1, 6, 4, 1, 1, 7, 5, 3, 2, 10, 6, 2, 9, 7, 10, 9, 3, 10, 7, 10, 2, 8, 3, 2, 1, 6, 1, 6, 10, 4, 0, 0, 10, 2, 10, 5, 3, 2, 1, 5, 9, 2, 10, 4, 6, 2, 1, 2, 1, 5, 3, 1, 6, 1, 2, 1, 7, 5, 5, 10, 7, 5, 0, 0, 6, 9, 10, 3, 9, 4, 8, 5, 5, 9, 3, 4, 6, 2, 5, 10, 4, 2, 4, 6, 2, 3, 3, 4, 5, 5, 8, 4, 3, 7, 0]);

suc = [
   {2, 3, 4},
   {27},
   {9, 10},
   {8, 5, 7},
   {23, 6, 15},
   {14, 30},
   {11, 12},
   {18},
   {19},
   {20, 13},
   {25, 14, 22},
   {16, 24, 14},
   {26},
   {21},
   {19, 30},
   {17},
   {27},
   {27, 28},
   {31},
   {24},
   {26},
   {26},
   {29},
   {30},
   {31},
   {28, 29},
   {29},
   {31},
   {32},
   {32},
   {32},
   {  } ];

deadline = array2d(1..32, 1..3, [1, 4, 5, 9, 2, 1, 10, 1, 1, 14, 5, 0, 14, 0, 2, 16, 0, 3, 19, 0, 1, 19, 2, 3, 20, 5, 0, 22, 0, 4, 22, 1, 2, 22, 2, 2, 22, 3, 0, 22, 1, 3, 23, 4, 5, 23, 3, 3, 26, 2, 2, 35, 3, 0, 37, 0, 0, 45, 1, 1, 52, 5, 1, 54, 0, 2, 56, 3, 0, 72, 3, 0, 75, 1, 0, 78, 5, 5, 82, 5, 0, 87, 4, 4, 91, 1, 5, 93, 0, 3, 93, 5, 3, 96, 1, 0]);
