n_res = 4;
rc = [ 15, 14, 27, 25 ];
n_tasks = 32;
d = [0, 7, 1, 10, 5, 7, 5, 6, 10, 5, 4, 1, 10, 7, 8, 10, 2, 4, 2, 10, 7, 7, 5, 1, 9, 2, 6, 3, 3, 1, 8, 0];
rr = array2d(1..4, 1..32, [0, 4, 0, 0, 9, 0, 0, 0, 2, 0, 0, 0, 3, 0, 0, 3, 0, 0, 8, 0, 2, 2, 0, 6, 6, 4, 0, 9, 0, 9, 7, 0, 0, 0, 7, 2, 0, 10, 0, 0, 0, 0, 3, 4, 0, 0, 3, 3, 3, 1, 0, 0, 0, 1, 0, 2, 4, 0, 5, 0, 0, 0, 10, 0, 0, 6, 8, 1, 10, 0, 7, 6, 0, 0, 0, 6, 7, 8, 2, 0, 6, 0, 0, 7, 2, 0, 4, 2, 0, 0, 10, 6, 4, 5, 7, 0, 0, 0, 1, 0, 0, 5, 9, 0, 2, 9, 0, 0, 0, 0, 0, 0, 0, 0, 4, 9, 9, 7, 8, 0, 8, 3, 0, 0, 0, 2, 0, 0]);

suc = [
   {2, 3, 4},
   {9, 12, 5},
   {8, 16, 20},
   {10, 6, 7},
   {13, 6, 7},
   {8, 14, 15},
   {17, 26, 28},
   {27, 17, 19},
   {18, 11, 21},
   {11, 12, 13},
   {22, 14, 15},
   {19, 14, 22},
   {16, 18, 21},
   {16, 20, 23},
   {27, 20, 28},
   {17, 27, 31},
   {30},
   {24, 26},
   {26, 21},
   {29},
   {23},
   {23},
   {24, 30},
   {25, 29},
   {28},
   {30, 31},
   {29},
   {31},
   {32},
   {32},
   {32},
   {  } ];

deadline = array2d(1..32, 1..3, [8, 0, 2, 21, 4, 0, 28, 4, 4, 37, 2, 5, 42, 5, 5, 43, 0, 5, 53, 0, 0, 54, 5, 4, 64, 2, 4, 66, 1, 0, 68, 4, 1, 68, 4, 5, 72, 5, 3, 78, 1, 2, 81, 5, 2, 84, 4, 1, 86, 3, 3, 91, 2, 0, 91, 0, 1, 109, 4, 4, 112, 5, 0, 114, 3, 1, 114, 3, 4, 115, 0, 5, 126, 1, 5, 132, 2, 5, 134, 3, 1, 137, 3, 4, 138, 2, 2, 140, 1, 3, 144, 1, 3, 146, 4, 4]);
