n_res = 4;
rc = [ 23, 23, 22, 20 ];
n_tasks = 32;
d = [0, 6, 3, 7, 8, 7, 5, 1, 10, 9, 6, 9, 4, 5, 10, 1, 8, 1, 7, 2, 2, 10, 3, 6, 8, 9, 1, 2, 9, 3, 9, 0];
rr = array2d(1..4, 1..32, [0, 6, 8, 4, 5, 3, 2, 5, 9, 10, 9, 3, 10, 7, 1, 2, 9, 9, 3, 2, 10, 7, 3, 1, 2, 2, 6, 4, 5, 4, 2, 0, 0, 5, 5, 9, 9, 10, 7, 10, 7, 8, 3, 4, 2, 7, 1, 8, 10, 9, 4, 10, 6, 5, 8, 6, 4, 4, 4, 2, 8, 1, 9, 0, 0, 7, 7, 2, 7, 1, 2, 3, 4, 8, 10, 1, 6, 5, 7, 4, 4, 6, 2, 4, 5, 1, 6, 2, 7, 4, 5, 1, 7, 9, 7, 0, 0, 6, 3, 2, 6, 9, 8, 10, 9, 5, 2, 2, 2, 9, 3, 4, 3, 6, 1, 7, 1, 8, 4, 4, 1, 1, 10, 2, 1, 4, 10, 0]);

suc = [
   {2, 3, 4},
   {21},
   {5, 6},
   {8},
   {10, 13, 7},
   {24, 15},
   {24, 12, 23},
   {9},
   {11, 22},
   {20},
   {17, 27},
   {16, 14},
   {31, 23},
   {26, 28},
   {19},
   {18},
   {26, 31},
   {27},
   {27, 30},
   {28},
   {25, 29},
   {24},
   {26, 29},
   {29},
   {28},
   {30},
   {31},
   {30},
   {32},
   {32},
   {32},
   {  } ];

deadline = array2d(1..32, 1..3, [2, 5, 2, 4, 1, 3, 7, 3, 2, 13, 1, 0, 14, 2, 5, 16, 1, 0, 20, 1, 0, 24, 3, 5, 33, 5, 4, 34, 0, 1, 37, 0, 4, 45, 0, 4, 47, 2, 1, 53, 2, 0, 55, 5, 5, 56, 0, 5, 63, 2, 5, 66, 3, 2, 68, 4, 5, 69, 3, 2, 71, 1, 2, 73, 4, 2, 76, 4, 3, 82, 4, 5, 85, 5, 5, 88, 3, 0, 88, 3, 0, 90, 4, 2, 98, 3, 0, 99, 5, 2, 105, 5, 2, 109, 5, 1]);
