n_res = 4;
rc = [ 16, 16, 15, 14 ];
n_tasks = 32;
d = [0, 4, 6, 1, 9, 1, 9, 2, 4, 2, 2, 4, 7, 9, 2, 2, 3, 7, 3, 8, 7, 5, 2, 4, 9, 7, 2, 2, 2, 3, 6, 0];
rr = array2d(1..4, 1..32, [0, 6, 5, 2, 2, 4, 10, 2, 5, 8, 9, 4, 1, 8, 7, 5, 7, 1, 4, 9, 3, 9, 7, 5, 5, 5, 9, 9, 6, 4, 1, 0, 0, 9, 6, 3, 10, 9, 9, 4, 4, 7, 7, 2, 8, 9, 9, 6, 3, 10, 7, 4, 4, 3, 3, 2, 8, 5, 5, 5, 6, 5, 7, 0, 0, 9, 2, 3, 4, 4, 3, 4, 4, 10, 1, 10, 6, 4, 4, 5, 3, 2, 6, 2, 2, 9, 7, 8, 9, 10, 10, 5, 9, 7, 9, 0, 0, 5, 3, 2, 5, 8, 3, 5, 6, 7, 9, 1, 5, 7, 6, 8, 8, 9, 3, 10, 7, 3, 2, 3, 3, 1, 1, 4, 7, 4, 10, 0]);

suc = [
   {2, 3, 4},
   {13},
   {8, 27, 21},
   {9, 5},
   {26, 21, 6},
   {10, 15, 7},
   {16, 13},
   {9},
   {14, 22},
   {11, 13},
   {17, 12},
   {18, 27, 14},
   {19, 22},
   {16, 24, 20},
   {22, 23},
   {25},
   {18, 19, 23},
   {24, 20},
   {27},
   {25},
   {30},
   {28, 29},
   {25, 30},
   {30, 31},
   {31},
   {28, 29},
   {28, 29},
   {31},
   {32},
   {32},
   {32},
   {  } ];

deadline = array2d(1..32, 1..3, [7, 3, 5, 13, 1, 4, 13, 2, 1, 23, 0, 5, 23, 5, 4, 28, 4, 4, 32, 5, 2, 36, 1, 4, 40, 4, 4, 40, 4, 5, 54, 0, 0, 57, 1, 2, 57, 2, 0, 60, 3, 5, 65, 5, 4, 66, 5, 3, 70, 0, 1, 70, 5, 5, 80, 1, 4, 82, 3, 5, 82, 3, 5, 88, 0, 2, 89, 5, 1, 91, 0, 0, 96, 0, 0, 99, 0, 0, 102, 1, 5, 104, 0, 1, 112, 3, 5, 121, 2, 0, 123, 2, 4, 125, 5, 3]);
