n_res = 4;
rc = [ 20, 20, 13, 18 ];
n_tasks = 32;
d = [0, 2, 3, 7, 1, 8, 3, 3, 2, 9, 10, 8, 6, 3, 1, 9, 7, 4, 1, 5, 9, 4, 7, 6, 5, 7, 1, 6, 4, 5, 3, 0];
rr = array2d(1..4, 1..32, [0, 0, 2, 0, 6, 4, 0, 0, 0, 10, 7, 0, 4, 0, 0, 0, 5, 10, 0, 0, 10, 0, 3, 5, 3, 0, 4, 0, 6, 0, 5, 0, 0, 0, 0, 10, 9, 0, 10, 0, 5, 4, 0, 8, 0, 1, 0, 8, 2, 5, 1, 0, 5, 0, 6, 7, 7, 3, 0, 2, 0, 2, 0, 0, 0, 4, 1, 10, 4, 8, 0, 2, 0, 0, 0, 0, 0, 0, 0, 1, 4, 0, 5, 3, 0, 0, 0, 6, 0, 0, 0, 0, 0, 0, 9, 0, 0, 0, 1, 0, 0, 0, 0, 8, 6, 7, 4, 1, 0, 10, 8, 0, 0, 2, 0, 4, 10, 10, 0, 0, 0, 10, 0, 0, 7, 3, 6, 0]);

suc = [
   {2, 3, 4},
   {28},
   {12},
   {11, 5, 6},
   {8, 14},
   {7},
   {27},
   {9, 10, 12},
   {16},
   {17, 13},
   {29},
   {19, 20},
   {26, 20},
   {15},
   {24, 26, 19},
   {17, 18, 21},
   {27},
   {30},
   {25},
   {25, 22, 23},
   {24, 23},
   {30},
   {31},
   {27},
   {31},
   {29},
   {30},
   {29},
   {32},
   {32},
   {32},
   {  } ];

deadline = array2d(1..32, 1..3, [2, 4, 5, 11, 3, 1, 13, 5, 1, 18, 0, 1, 19, 3, 5, 19, 1, 5, 24, 4, 1, 25, 0, 3, 34, 5, 1, 34, 4, 3, 39, 1, 0, 39, 3, 5, 45, 5, 2, 47, 4, 0, 48, 3, 4, 63, 5, 2, 63, 4, 0, 66, 1, 1, 69, 2, 5, 72, 2, 0, 73, 1, 1, 73, 4, 0, 74, 2, 1, 77, 1, 1, 77, 0, 1, 79, 5, 5, 81, 1, 0, 88, 1, 5, 91, 2, 2, 92, 3, 3, 101, 3, 5, 106, 4, 1]);
