n_res = 4;
rc = [ 27, 24, 18, 23 ];
n_tasks = 32;
d = [0, 9, 2, 7, 4, 7, 6, 3, 6, 7, 7, 3, 9, 6, 5, 7, 6, 6, 4, 6, 5, 6, 7, 2, 6, 1, 2, 9, 1, 9, 7, 0];
rr = array2d(1..4, 1..32, [0, 0, 1, 0, 0, 4, 7, 4, 2, 0, 0, 3, 1, 10, 7, 10, 4, 0, 9, 0, 0, 0, 7, 7, 0, 10, 0, 0, 0, 0, 6, 0, 0, 0, 6, 5, 2, 8, 0, 0, 2, 4, 0, 3, 0, 0, 0, 0, 10, 7, 5, 0, 0, 0, 4, 0, 3, 0, 10, 6, 0, 0, 8, 0, 0, 4, 1, 0, 0, 0, 3, 9, 5, 1, 0, 0, 3, 0, 5, 0, 8, 1, 2, 2, 0, 6, 0, 8, 5, 0, 0, 0, 7, 10, 0, 0, 0, 0, 0, 5, 0, 7, 4, 6, 0, 9, 1, 0, 0, 3, 0, 0, 0, 5, 0, 0, 2, 0, 9, 0, 0, 0, 2, 0, 10, 9, 0, 0]);

suc = [
   {2, 3, 4},
   {15, 6, 7},
   {5},
   {8},
   {27},
   {9, 13, 14},
   {16},
   {16},
   {10, 20, 30},
   {16, 11, 22},
   {19, 12},
   {24, 17, 26},
   {18, 29},
   {31},
   {25, 20, 23},
   {21},
   {31},
   {19},
   {21},
   {27},
   {25},
   {23},
   {26},
   {27},
   {28},
   {28, 29},
   {28},
   {31},
   {32},
   {32},
   {32},
   {  } ];

deadline = array2d(1..32, 1..3, [3, 2, 1, 5, 2, 4, 22, 2, 1, 24, 0, 0, 24, 2, 5, 36, 2, 1, 44, 1, 4, 51, 2, 4, 57, 4, 5, 60, 2, 0, 70, 4, 4, 76, 3, 0, 86, 1, 5, 90, 3, 3, 94, 1, 5, 101, 0, 2, 111, 3, 3, 116, 4, 2, 118, 5, 1, 121, 3, 5, 127, 4, 4, 132, 1, 0, 133, 1, 5, 136, 5, 4, 158, 1, 0, 159, 4, 1, 159, 3, 0, 159, 1, 0, 160, 0, 4, 160, 1, 1, 161, 0, 2, 166, 1, 0]);
