n_res = 4;
rc = [ 21, 16, 16, 18 ];
n_tasks = 32;
d = [0, 10, 3, 4, 9, 6, 4, 7, 2, 2, 4, 9, 7, 2, 3, 1, 1, 6, 6, 1, 2, 3, 8, 2, 3, 9, 5, 10, 9, 10, 5, 0];
rr = array2d(1..4, 1..32, [0, 0, 10, 0, 7, 0, 10, 10, 5, 2, 6, 0, 5, 4, 7, 0, 5, 0, 6, 0, 0, 0, 0, 0, 0, 0, 4, 0, 3, 0, 4, 0, 0, 0, 8, 0, 6, 7, 0, 3, 8, 0, 2, 6, 0, 5, 0, 0, 0, 0, 7, 0, 10, 6, 5, 8, 7, 0, 0, 7, 0, 0, 0, 0, 0, 0, 10, 0, 0, 9, 2, 0, 0, 4, 7, 1, 0, 0, 9, 5, 1, 0, 0, 2, 0, 0, 3, 7, 0, 0, 9, 0, 0, 0, 9, 0, 0, 9, 6, 1, 0, 0, 6, 0, 5, 7, 0, 8, 0, 0, 0, 4, 4, 6, 10, 0, 10, 0, 0, 0, 5, 9, 3, 9, 0, 4, 0, 0]);

suc = [
   {2, 3, 4},
   {8, 11, 22},
   {9, 10, 5},
   {12, 20, 6},
   {19, 13, 7},
   {10, 11, 15},
   {21, 14, 31},
   {10, 18, 12},
   {26, 20, 15},
   {16, 27, 21},
   {24, 25, 19},
   {16, 17, 24},
   {16, 18, 15},
   {24, 17, 22},
   {17, 28, 30},
   {31, 23},
   {29},
   {25, 23},
   {27, 21, 23},
   {25, 29, 22},
   {26},
   {30},
   {26},
   {27},
   {31},
   {28},
   {28, 30},
   {29},
   {32},
   {32},
   {32},
   {  } ];

deadline = array2d(1..32, 1..3, [2, 0, 2, 2, 3, 2, 12, 4, 3, 25, 3, 3, 27, 4, 3, 35, 2, 2, 45, 5, 5, 45, 4, 0, 52, 2, 4, 52, 1, 1, 53, 1, 3, 58, 2, 4, 66, 1, 4, 77, 1, 2, 78, 5, 0, 94, 0, 3, 97, 1, 3, 97, 4, 5, 101, 1, 0, 102, 1, 4, 103, 3, 5, 105, 0, 5, 114, 2, 5, 114, 4, 3, 123, 1, 3, 127, 2, 2, 137, 1, 1, 139, 4, 5, 144, 3, 0, 146, 1, 0, 156, 5, 0, 157, 2, 0]);
