n_res = 4;
rc = [ 42, 48, 37, 37 ];
n_tasks = 32;
d = [0, 7, 4, 5, 1, 1, 2, 7, 4, 4, 9, 10, 7, 2, 4, 2, 7, 9, 2, 5, 3, 8, 5, 4, 5, 2, 8, 1, 4, 1, 7, 0];
rr = array2d(1..4, 1..32, [0, 9, 6, 2, 8, 2, 8, 3, 3, 10, 9, 4, 8, 9, 4, 8, 2, 4, 2, 8, 4, 6, 10, 4, 3, 2, 5, 5, 9, 4, 4, 0, 0, 8, 5, 9, 6, 7, 3, 7, 10, 5, 3, 6, 9, 8, 5, 5, 9, 6, 8, 10, 5, 3, 8, 4, 2, 8, 9, 10, 5, 1, 5, 0, 0, 5, 6, 4, 8, 5, 8, 2, 2, 5, 5, 10, 4, 9, 3, 9, 7, 6, 8, 3, 8, 7, 10, 10, 6, 3, 8, 7, 10, 5, 4, 0, 0, 9, 7, 5, 6, 9, 8, 2, 3, 3, 7, 2, 2, 3, 3, 1, 4, 4, 4, 10, 10, 8, 2, 1, 9, 3, 8, 4, 10, 3, 9, 0]);

suc = [
   {2, 3, 4},
   {24, 11},
   {10},
   {8, 5, 7},
   {17, 13, 6},
   {25, 30},
   {19, 29, 15},
   {9, 27},
   {20, 15},
   {12, 14},
   {12},
   {16, 18, 31},
   {28},
   {19},
   {28},
   {19},
   {22},
   {21},
   {20, 28},
   {23},
   {26},
   {26},
   {30},
   {25, 27},
   {26},
   {29},
   {31},
   {30},
   {32},
   {32},
   {32},
   {  } ];

deadline = array2d(1..32, 1..3, [1, 2, 2, 6, 0, 2, 13, 5, 4, 22, 0, 2, 24, 5, 5, 28, 4, 1, 33, 3, 0, 40, 0, 1, 41, 4, 3, 41, 4, 4, 42, 2, 5, 44, 2, 3, 46, 4, 4, 47, 0, 4, 51, 2, 0, 64, 0, 4, 68, 4, 2, 69, 2, 5, 73, 3, 0, 76, 0, 0, 76, 5, 0, 76, 3, 2, 77, 0, 1, 80, 3, 0, 81, 1, 4, 83, 5, 5, 87, 2, 5, 93, 0, 3, 93, 3, 4, 101, 1, 1, 102, 1, 0, 103, 2, 0]);
