n_res = 4;
rc = [ 17, 16, 16, 21 ];
n_tasks = 32;
d = [0, 5, 6, 3, 4, 1, 6, 7, 9, 7, 5, 10, 7, 1, 4, 1, 9, 4, 10, 3, 7, 6, 4, 9, 2, 3, 10, 2, 3, 2, 9, 0];
rr = array2d(1..4, 1..32, [0, 4, 2, 10, 0, 0, 0, 0, 0, 0, 5, 0, 9, 0, 0, 7, 8, 1, 0, 10, 0, 0, 0, 3, 0, 0, 2, 0, 0, 0, 0, 0, 0, 0, 0, 0, 5, 0, 0, 0, 3, 5, 0, 2, 9, 9, 2, 0, 0, 2, 6, 0, 9, 7, 0, 5, 3, 8, 9, 8, 0, 0, 4, 0, 0, 7, 5, 7, 0, 0, 0, 0, 0, 0, 0, 7, 0, 0, 6, 0, 7, 0, 9, 4, 7, 0, 0, 0, 7, 5, 7, 0, 0, 0, 7, 0, 0, 0, 0, 0, 7, 7, 3, 9, 0, 9, 1, 0, 0, 0, 10, 6, 2, 2, 1, 0, 10, 3, 8, 8, 0, 6, 0, 9, 10, 3, 8, 0]);

suc = [
   {2, 3, 4},
   {26, 6},
   {21, 28, 5},
   {24, 12, 14},
   {9, 10, 6},
   {8, 20, 7},
   {19, 13},
   {19, 12, 23},
   {16, 17},
   {18, 11, 15},
   {16, 17},
   {30},
   {29, 14},
   {25},
   {17},
   {24, 26, 31},
   {25, 26, 22},
   {19, 22, 23},
   {25},
   {22, 30},
   {24},
   {27},
   {27},
   {29},
   {31},
   {27},
   {29},
   {30, 31},
   {32},
   {32},
   {32},
   {  } ];

deadline = array2d(1..32, 1..3, [1, 1, 5, 5, 5, 4, 10, 0, 0, 11, 0, 0, 13, 3, 1, 16, 5, 4, 18, 1, 2, 23, 4, 2, 27, 4, 2, 27, 4, 5, 31, 2, 4, 33, 3, 0, 38, 3, 5, 39, 4, 1, 54, 5, 3, 55, 2, 3, 57, 2, 2, 58, 0, 5, 59, 4, 5, 70, 1, 2, 71, 3, 4, 75, 5, 5, 77, 2, 3, 88, 4, 5, 89, 2, 5, 96, 1, 3, 102, 2, 5, 102, 1, 1, 109, 3, 5, 111, 3, 4, 112, 1, 1, 123, 4, 1]);
