n_res = 4;
rc = [ 33, 34, 38, 34 ];
n_tasks = 32;
d = [0, 1, 2, 6, 3, 2, 10, 7, 3, 4, 5, 2, 2, 7, 1, 4, 3, 7, 5, 2, 3, 6, 8, 9, 2, 7, 2, 4, 10, 7, 6, 0];
rr = array2d(1..4, 1..32, [0, 6, 6, 4, 9, 3, 7, 9, 2, 4, 8, 3, 9, 2, 5, 3, 1, 3, 5, 5, 7, 10, 5, 8, 8, 10, 8, 3, 5, 1, 7, 0, 0, 3, 5, 9, 2, 5, 7, 9, 8, 6, 5, 8, 4, 9, 8, 1, 10, 5, 3, 3, 8, 7, 10, 9, 4, 6, 1, 3, 5, 3, 6, 0, 0, 1, 9, 5, 5, 6, 3, 9, 1, 9, 5, 6, 4, 4, 2, 9, 7, 6, 2, 10, 1, 4, 8, 9, 10, 8, 4, 10, 7, 3, 2, 0, 0, 6, 6, 7, 10, 9, 1, 8, 5, 9, 9, 5, 8, 8, 1, 6, 8, 7, 4, 3, 3, 5, 1, 7, 2, 2, 5, 3, 5, 4, 5, 0]);

suc = [
   {2, 3, 4},
   {18, 14, 7},
   {9, 6},
   {13, 18, 5},
   {8, 10, 6},
   {20, 21, 22},
   {17, 11, 31},
   {16, 12, 15},
   {24, 25, 18},
   {14, 15},
   {16, 25, 15},
   {17, 22},
   {16, 31, 23},
   {17, 21, 22},
   {19},
   {26, 19},
   {24, 20, 23},
   {26, 19, 31},
   {27, 20, 21},
   {29, 30},
   {30},
   {24, 25, 23},
   {26},
   {28, 29},
   {27},
   {27, 29},
   {28},
   {30},
   {32},
   {32},
   {32},
   {  } ];

deadline = array2d(1..32, 1..3, [3, 0, 5, 11, 3, 0, 13, 0, 0, 15, 1, 2, 20, 5, 4, 22, 5, 4, 24, 2, 2, 28, 3, 3, 32, 2, 3, 44, 5, 2, 48, 2, 4, 51, 4, 3, 51, 4, 3, 55, 3, 2, 58, 5, 1, 59, 0, 0, 64, 4, 4, 76, 3, 4, 76, 0, 2, 79, 1, 0, 82, 0, 0, 91, 4, 2, 92, 5, 1, 102, 4, 4, 105, 1, 0, 106, 0, 0, 108, 2, 2, 110, 2, 5, 119, 0, 5, 127, 5, 2, 127, 1, 5, 131, 0, 3]);
