n_res = 4;
rc = [ 25, 28, 28, 31 ];
n_tasks = 32;
d = [0, 5, 4, 7, 2, 6, 4, 10, 10, 5, 2, 10, 1, 3, 8, 9, 9, 7, 2, 8, 6, 6, 8, 1, 4, 1, 10, 1, 10, 3, 5, 0];
rr = array2d(1..4, 1..32, [0, 0, 7, 0, 3, 2, 5, 6, 3, 10, 0, 8, 2, 5, 6, 2, 0, 8, 9, 9, 1, 2, 7, 1, 7, 0, 4, 9, 0, 2, 0, 0, 0, 6, 10, 8, 0, 1, 10, 0, 7, 9, 6, 1, 0, 0, 3, 4, 0, 0, 9, 7, 1, 1, 9, 10, 3, 7, 9, 5, 5, 0, 5, 0, 0, 10, 6, 7, 7, 2, 5, 0, 0, 4, 8, 1, 3, 8, 10, 3, 7, 0, 0, 9, 1, 0, 6, 10, 0, 1, 9, 2, 0, 8, 8, 0, 0, 9, 0, 6, 0, 6, 5, 3, 9, 2, 0, 3, 7, 0, 6, 6, 7, 0, 0, 2, 1, 7, 6, 9, 0, 10, 5, 8, 8, 5, 0, 0]);

suc = [
   {2, 3, 4},
   {16, 10, 29},
   {12, 5, 15},
   {8, 24, 11},
   {22, 6, 7},
   {17, 13},
   {9},
   {10, 21},
   {24, 26},
   {23},
   {21},
   {14},
   {20},
   {27},
   {20},
   {26, 18, 19},
   {20, 23},
   {28},
   {31},
   {21},
   {25},
   {25},
   {28},
   {28},
   {31},
   {30},
   {29},
   {30, 31},
   {32},
   {32},
   {32},
   {  } ];

deadline = array2d(1..32, 1..3, [1, 1, 0, 3, 4, 5, 4, 3, 1, 6, 5, 0, 7, 5, 5, 7, 4, 2, 9, 1, 3, 10, 3, 2, 15, 3, 2, 16, 2, 4, 20, 4, 2, 21, 3, 5, 23, 0, 3, 25, 0, 3, 35, 5, 0, 39, 2, 2, 50, 2, 4, 52, 1, 3, 56, 4, 0, 56, 4, 1, 60, 4, 2, 62, 0, 1, 67, 4, 5, 73, 5, 1, 77, 4, 3, 80, 4, 3, 81, 3, 1, 86, 2, 0, 89, 3, 1, 95, 1, 3, 99, 3, 5, 109, 5, 2]);
