n_res = 4;
rc = [ 13, 12, 10, 14 ];
n_tasks = 32;
d = [0, 10, 2, 4, 7, 2, 9, 1, 2, 8, 3, 6, 4, 6, 6, 6, 6, 2, 9, 3, 3, 8, 8, 10, 1, 8, 2, 10, 3, 4, 4, 0];
rr = array2d(1..4, 1..32, [0, 1, 9, 0, 0, 8, 5, 0, 0, 0, 0, 0, 5, 0, 0, 8, 0, 6, 0, 0, 7, 4, 0, 0, 7, 0, 0, 0, 0, 0, 9, 0, 0, 0, 0, 0, 0, 0, 0, 9, 0, 0, 4, 10, 0, 0, 0, 0, 3, 0, 9, 0, 0, 0, 0, 0, 0, 0, 9, 0, 0, 5, 0, 0, 0, 0, 0, 0, 10, 0, 0, 0, 4, 0, 0, 0, 0, 10, 0, 0, 0, 0, 0, 0, 0, 0, 0, 4, 0, 1, 0, 0, 0, 0, 0, 0, 0, 0, 0, 7, 0, 0, 0, 0, 0, 7, 0, 0, 0, 0, 7, 0, 0, 0, 0, 1, 0, 0, 6, 0, 0, 0, 0, 5, 6, 0, 0, 0]);

suc = [
   {2, 3, 4},
   {17, 21},
   {9, 10, 11},
   {25, 5, 7},
   {8, 10, 6},
   {20, 12, 13},
   {16, 18, 14},
   {19, 28},
   {19, 28},
   {30, 23},
   {16, 17, 18},
   {17, 22, 23},
   {29, 15},
   {27, 19},
   {18, 31},
   {20},
   {24, 30},
   {21},
   {21, 31},
   {24, 22},
   {30},
   {26},
   {24},
   {26},
   {29},
   {27},
   {28},
   {29, 31},
   {32},
   {32},
   {32},
   {  } ];

deadline = array2d(1..32, 1..3, [13, 3, 5, 20, 5, 2, 23, 2, 4, 27, 5, 5, 33, 5, 2, 34, 3, 2, 44, 3, 2, 44, 4, 4, 46, 0, 1, 46, 0, 0, 49, 3, 3, 51, 4, 0, 59, 2, 4, 59, 4, 1, 62, 1, 5, 66, 3, 0, 67, 3, 1, 67, 0, 2, 72, 0, 1, 87, 2, 3, 90, 0, 4, 90, 4, 4, 101, 3, 5, 109, 2, 5, 111, 3, 1, 114, 1, 4, 116, 3, 2, 116, 2, 0, 125, 1, 5, 128, 4, 2, 140, 1, 5, 151, 0, 4]);
