n_res = 4;
rc = [ 27, 25, 31, 26 ];
n_tasks = 32;
d = [0, 7, 9, 7, 4, 9, 7, 5, 7, 5, 4, 9, 3, 2, 5, 8, 2, 9, 1, 10, 5, 2, 2, 10, 8, 1, 9, 4, 8, 4, 1, 0];
rr = array2d(1..4, 1..32, [0, 3, 10, 5, 5, 9, 1, 6, 8, 3, 4, 7, 10, 6, 6, 6, 6, 7, 4, 9, 3, 8, 3, 6, 9, 7, 4, 10, 10, 1, 4, 0, 0, 9, 5, 5, 4, 8, 9, 8, 5, 7, 9, 9, 2, 2, 5, 8, 5, 8, 7, 6, 1, 1, 4, 3, 4, 2, 1, 5, 4, 3, 2, 0, 0, 6, 8, 9, 8, 10, 5, 6, 7, 2, 8, 7, 5, 4, 5, 7, 2, 6, 4, 5, 8, 2, 9, 4, 8, 9, 4, 7, 5, 1, 3, 0, 0, 5, 10, 2, 8, 4, 5, 8, 2, 6, 5, 4, 3, 9, 10, 4, 3, 1, 2, 3, 4, 2, 10, 3, 8, 5, 2, 6, 7, 5, 8, 0]);

suc = [
   {2, 3, 4},
   {8, 12, 7},
   {12, 5},
   {6},
   {30},
   {16, 9, 14},
   {29},
   {25, 13, 23},
   {18, 10, 11},
   {20},
   {27, 28, 22},
   {14},
   {19, 21, 15},
   {17},
   {29},
   {17},
   {24},
   {27},
   {20},
   {22},
   {26},
   {24, 26},
   {28},
   {30},
   {26, 31},
   {29},
   {31},
   {31},
   {32},
   {32},
   {32},
   {  } ];

deadline = array2d(1..32, 1..3, [10, 2, 1, 16, 4, 2, 18, 4, 4, 20, 2, 1, 26, 2, 0, 27, 0, 2, 30, 3, 4, 30, 3, 0, 32, 3, 3, 47, 4, 2, 51, 3, 1, 54, 3, 4, 63, 5, 2, 64, 3, 0, 70, 1, 4, 72, 1, 3, 78, 5, 2, 80, 5, 5, 82, 0, 0, 83, 2, 1, 85, 4, 5, 89, 5, 5, 90, 2, 0, 97, 1, 3, 97, 4, 0, 101, 3, 3, 103, 2, 4, 105, 2, 3, 110, 1, 0, 120, 2, 2, 126, 4, 1, 130, 3, 1]);
