n_res = 4;
rc = [ 37, 43, 44, 33 ];
n_tasks = 32;
d = [0, 8, 6, 4, 4, 10, 3, 1, 5, 2, 3, 7, 3, 4, 5, 1, 4, 8, 5, 7, 6, 7, 6, 5, 6, 7, 3, 10, 8, 9, 2, 0];
rr = array2d(1..4, 1..32, [0, 8, 5, 8, 5, 1, 3, 1, 4, 8, 6, 2, 6, 2, 8, 6, 10, 6, 8, 6, 6, 2, 3, 10, 9, 2, 1, 8, 6, 10, 4, 0, 0, 7, 3, 4, 5, 3, 10, 7, 8, 8, 2, 8, 3, 10, 7, 5, 5, 6, 1, 10, 6, 6, 9, 6, 4, 6, 8, 7, 7, 4, 5, 0, 0, 5, 9, 8, 3, 2, 6, 10, 2, 2, 5, 5, 10, 9, 4, 5, 3, 4, 5, 7, 10, 5, 9, 8, 1, 9, 8, 7, 3, 6, 8, 0, 0, 2, 6, 8, 4, 6, 8, 5, 10, 4, 9, 2, 5, 4, 7, 4, 5, 2, 2, 3, 3, 2, 3, 5, 6, 8, 6, 6, 3, 7, 3, 0]);

suc = [
   {2, 3, 4},
   {28, 13},
   {8, 9, 6},
   {27, 5},
   {16},
   {27, 21, 7},
   {10, 23},
   {11, 22, 23},
   {15},
   {18},
   {16, 12, 14},
   {31},
   {30},
   {24, 17},
   {19},
   {28},
   {26, 19},
   {20},
   {25},
   {25},
   {24},
   {25, 26, 29},
   {29},
   {30},
   {30},
   {31},
   {28},
   {29},
   {32},
   {32},
   {32},
   {  } ];

deadline = array2d(1..32, 1..3, [4, 4, 0, 15, 3, 5, 23, 2, 5, 25, 3, 2, 33, 4, 3, 34, 3, 3, 34, 4, 5, 40, 0, 4, 41, 1, 0, 42, 0, 3, 44, 2, 4, 45, 1, 5, 46, 5, 1, 53, 4, 5, 71, 0, 1, 92, 1, 3, 93, 2, 1, 93, 0, 1, 96, 1, 4, 99, 2, 2, 99, 1, 5, 104, 1, 0, 106, 4, 2, 106, 4, 0, 107, 1, 3, 110, 1, 0, 114, 1, 3, 117, 0, 1, 118, 5, 1, 119, 2, 3, 120, 0, 4, 121, 1, 5]);
