n_res = 4;
rc = [ 10, 7, 12, 10 ];
n_tasks = 32;
d = [0, 3, 8, 4, 4, 6, 5, 7, 2, 5, 1, 9, 9, 5, 10, 8, 10, 2, 8, 8, 9, 1, 3, 7, 10, 6, 5, 10, 10, 10, 8, 0];
rr = array2d(1..4, 1..32, [0, 0, 0, 0, 0, 0, 0, 10, 0, 0, 1, 0, 0, 9, 0, 0, 0, 0, 0, 0, 0, 0, 3, 3, 0, 0, 0, 0, 0, 2, 0, 0, 0, 0, 0, 7, 3, 0, 0, 0, 0, 0, 0, 0, 0, 0, 0, 0, 0, 0, 0, 5, 4, 0, 0, 0, 0, 0, 0, 0, 0, 0, 2, 0, 0, 0, 0, 0, 0, 9, 3, 0, 7, 7, 0, 5, 0, 0, 0, 8, 0, 0, 0, 0, 0, 2, 0, 0, 3, 0, 0, 4, 0, 0, 0, 0, 0, 9, 7, 0, 0, 0, 0, 0, 0, 0, 0, 0, 5, 0, 3, 0, 1, 7, 4, 0, 0, 0, 0, 0, 0, 9, 7, 0, 9, 0, 0, 0]);

suc = [
   {2, 3, 4},
   {16, 26, 12},
   {8, 13, 22},
   {12, 5, 6},
   {18, 14, 22},
   {8, 7},
   {18, 13, 22},
   {9, 10, 19},
   {11, 14, 15},
   {20, 23, 15},
   {17, 25},
   {17, 19, 13},
   {20, 14, 30},
   {24},
   {25, 21},
   {19, 21},
   {18, 23},
   {24, 27, 21},
   {20, 28, 23},
   {24, 29},
   {31},
   {26, 28},
   {27},
   {31},
   {26, 28},
   {27, 29, 30},
   {31},
   {29, 30},
   {32},
   {32},
   {32},
   {  } ];

deadline = array2d(1..32, 1..3, [3, 1, 0, 12, 2, 0, 18, 3, 2, 18, 5, 3, 23, 5, 5, 30, 3, 1, 35, 4, 1, 39, 0, 1, 56, 1, 1, 56, 1, 3, 67, 3, 1, 68, 0, 3, 74, 1, 1, 76, 5, 4, 85, 5, 2, 85, 4, 4, 96, 5, 1, 102, 1, 3, 106, 4, 4, 110, 0, 3, 112, 4, 3, 115, 1, 5, 133, 0, 4, 133, 4, 0, 134, 5, 4, 134, 0, 1, 135, 5, 1, 137, 3, 3, 141, 3, 1, 142, 2, 3, 144, 4, 5, 151, 3, 4]);
