n_res = 4;
rc = [ 15, 17, 16, 16 ];
n_tasks = 32;
d = [0, 3, 1, 7, 5, 7, 10, 9, 9, 9, 9, 3, 7, 6, 5, 9, 8, 5, 10, 6, 7, 5, 7, 3, 5, 8, 1, 1, 5, 3, 3, 0];
rr = array2d(1..4, 1..32, [0, 1, 8, 1, 2, 1, 1, 3, 8, 7, 5, 3, 6, 9, 1, 4, 1, 3, 5, 5, 4, 8, 8, 4, 5, 1, 8, 7, 9, 2, 8, 0, 0, 6, 2, 3, 9, 4, 4, 9, 6, 7, 9, 4, 3, 6, 7, 1, 6, 1, 7, 8, 7, 9, 3, 5, 4, 7, 5, 3, 2, 6, 1, 0, 0, 8, 6, 2, 4, 1, 3, 2, 6, 9, 8, 4, 2, 4, 10, 8, 2, 1, 3, 9, 9, 8, 5, 9, 7, 8, 7, 10, 8, 3, 10, 0, 0, 7, 9, 9, 2, 3, 5, 4, 6, 3, 10, 8, 1, 2, 7, 1, 1, 7, 7, 2, 10, 3, 5, 9, 8, 9, 7, 8, 6, 8, 10, 0]);

suc = [
   {2, 3, 4},
   {19, 5, 6},
   {8, 20},
   {11, 20, 22},
   {7},
   {8, 9, 10},
   {14},
   {12},
   {16, 25, 26},
   {18, 13},
   {21},
   {24, 27, 13},
   {28, 15},
   {17, 27},
   {26},
   {20},
   {24},
   {30},
   {24},
   {29},
   {26},
   {23},
   {25},
   {29},
   {30},
   {31},
   {29, 30},
   {31},
   {32},
   {32},
   {32},
   {  } ];

deadline = array2d(1..32, 1..3, [6, 5, 0, 25, 5, 0, 28, 4, 2, 32, 0, 3, 37, 3, 3, 44, 1, 1, 45, 5, 3, 49, 2, 2, 51, 1, 0, 52, 2, 0, 56, 4, 4, 66, 0, 4, 67, 5, 0, 81, 2, 4, 82, 1, 0, 84, 2, 2, 85, 5, 5, 86, 3, 1, 86, 5, 1, 87, 2, 5, 91, 1, 1, 96, 2, 1, 99, 2, 0, 99, 4, 2, 104, 4, 2, 106, 4, 0, 107, 0, 1, 107, 2, 1, 108, 5, 4, 108, 1, 0, 111, 5, 1, 112, 1, 4]);
