n_res = 4;
rc = [ 31, 24, 30, 29 ];
n_tasks = 32;
d = [0, 10, 10, 3, 2, 10, 9, 6, 6, 2, 1, 5, 3, 1, 3, 5, 2, 10, 1, 8, 1, 8, 6, 2, 2, 8, 6, 4, 3, 8, 1, 0];
rr = array2d(1..4, 1..32, [0, 5, 8, 8, 1, 7, 8, 4, 10, 5, 2, 5, 4, 9, 5, 9, 2, 10, 5, 10, 1, 2, 6, 2, 9, 3, 7, 7, 9, 4, 7, 0, 0, 3, 2, 2, 1, 10, 1, 1, 5, 9, 4, 10, 7, 8, 2, 2, 1, 1, 2, 3, 7, 5, 3, 3, 5, 10, 1, 9, 8, 3, 4, 0, 0, 8, 3, 1, 4, 3, 1, 3, 5, 5, 4, 5, 9, 10, 9, 9, 8, 2, 2, 6, 6, 5, 10, 9, 4, 4, 3, 5, 1, 10, 5, 0, 0, 10, 8, 10, 4, 6, 4, 9, 3, 1, 3, 7, 8, 8, 4, 5, 4, 8, 9, 1, 10, 1, 1, 9, 8, 6, 3, 1, 9, 8, 1, 0]);

suc = [
   {2, 3, 4},
   {24, 12, 20},
   {5, 6, 14},
   {23, 13, 7},
   {9, 25},
   {16, 20, 21},
   {8, 16, 24},
   {17, 10, 11},
   {24, 15},
   {19, 29},
   {25, 30},
   {16, 28, 22},
   {14},
   {17},
   {18, 28, 22},
   {29},
   {25, 26},
   {27, 23},
   {26},
   {27, 23},
   {27, 22},
   {30, 31},
   {26},
   {31},
   {28},
   {30},
   {29},
   {31},
   {32},
   {32},
   {32},
   {  } ];

deadline = array2d(1..32, 1..3, [1, 1, 1, 6, 1, 2, 6, 1, 2, 14, 0, 4, 16, 3, 4, 24, 0, 2, 39, 0, 5, 39, 5, 0, 49, 3, 4, 49, 2, 0, 50, 0, 1, 55, 2, 1, 58, 2, 4, 65, 2, 5, 65, 0, 0, 70, 0, 4, 71, 4, 5, 75, 1, 4, 79, 4, 5, 82, 5, 5, 83, 5, 0, 86, 5, 5, 94, 1, 0, 95, 4, 1, 102, 3, 2, 102, 2, 1, 105, 0, 2, 109, 4, 3, 117, 2, 1, 121, 3, 1, 121, 1, 5, 132, 3, 5]);
