n_res = 4;
rc = [ 23, 21, 18, 17 ];
n_tasks = 32;
d = [0, 8, 5, 9, 8, 2, 4, 1, 4, 6, 8, 1, 8, 1, 10, 4, 7, 3, 7, 4, 8, 1, 5, 9, 5, 2, 3, 2, 5, 10, 1, 0];
rr = array2d(1..4, 1..32, [0, 0, 6, 7, 10, 10, 3, 4, 1, 10, 10, 8, 2, 1, 7, 0, 7, 6, 3, 7, 9, 0, 1, 0, 2, 8, 0, 0, 6, 7, 0, 0, 0, 7, 9, 10, 0, 4, 3, 5, 0, 8, 3, 0, 10, 5, 1, 9, 3, 8, 7, 5, 7, 8, 5, 4, 3, 2, 0, 0, 3, 2, 5, 0, 0, 3, 7, 2, 0, 6, 3, 4, 8, 0, 7, 1, 7, 1, 6, 1, 0, 3, 7, 1, 3, 1, 0, 6, 0, 10, 6, 2, 9, 0, 0, 0, 0, 0, 0, 0, 7, 6, 3, 8, 0, 4, 0, 4, 1, 0, 8, 4, 0, 8, 10, 4, 2, 8, 0, 3, 8, 7, 0, 4, 0, 1, 3, 0]);

suc = [
   {2, 3, 4},
   {25, 18, 20},
   {27, 5, 7},
   {31, 13, 7},
   {9, 6},
   {8, 11, 12},
   {28},
   {10},
   {19, 21},
   {16, 13, 14},
   {16, 17, 26},
   {15},
   {18, 19, 21},
   {19, 28},
   {16, 17, 24},
   {18, 29},
   {20, 30, 31},
   {30},
   {20, 23},
   {29},
   {22, 23},
   {24, 28},
   {24},
   {25},
   {26},
   {29},
   {31},
   {30},
   {32},
   {32},
   {32},
   {  } ];

deadline = array2d(1..32, 1..3, [1, 1, 3, 1, 2, 2, 18, 5, 2, 18, 1, 2, 20, 4, 0, 22, 3, 1, 27, 0, 3, 42, 4, 0, 47, 1, 3, 52, 3, 3, 54, 3, 5, 57, 3, 0, 63, 4, 0, 70, 1, 4, 74, 0, 4, 81, 4, 3, 82, 1, 0, 90, 4, 5, 95, 1, 5, 96, 4, 1, 104, 5, 5, 107, 2, 4, 108, 4, 0, 111, 1, 0, 114, 3, 5, 117, 2, 3, 120, 3, 5, 123, 4, 3, 124, 5, 5, 135, 0, 2, 142, 5, 2, 144, 2, 3]);
