n_res = 4;
rc = [ 37, 45, 27, 17 ];
n_tasks = 32;
d = [0, 8, 2, 10, 1, 10, 2, 5, 2, 6, 6, 3, 3, 1, 8, 6, 9, 10, 7, 9, 5, 5, 4, 3, 4, 10, 9, 7, 7, 7, 8, 0];
rr = array2d(1..4, 1..32, [0, 0, 7, 9, 4, 6, 1, 1, 1, 6, 0, 0, 8, 4, 9, 7, 0, 7, 3, 1, 5, 10, 6, 0, 9, 9, 7, 0, 1, 1, 0, 0, 0, 0, 4, 8, 10, 7, 10, 5, 10, 0, 1, 4, 0, 7, 6, 10, 10, 10, 9, 0, 7, 4, 0, 0, 4, 0, 10, 0, 7, 8, 8, 0, 0, 0, 5, 0, 8, 2, 2, 5, 0, 8, 8, 1, 5, 2, 0, 1, 8, 1, 5, 5, 2, 9, 10, 7, 7, 2, 2, 3, 5, 9, 2, 0, 0, 4, 3, 0, 6, 6, 4, 4, 2, 0, 2, 2, 3, 9, 1, 0, 0, 0, 1, 4, 8, 2, 6, 0, 2, 0, 0, 0, 7, 0, 5, 0]);

suc = [
   {2, 3, 4},
   {5, 6, 7},
   {9},
   {30},
   {17, 20},
   {8, 11, 13},
   {24},
   {16, 19},
   {10, 18, 12},
   {14},
   {16, 24, 15},
   {28},
   {21},
   {26, 19},
   {28},
   {20},
   {22},
   {28},
   {27, 29},
   {31},
   {29, 30},
   {25, 27, 23},
   {26},
   {25},
   {30},
   {31},
   {31},
   {29},
   {32},
   {32},
   {32},
   {  } ];

deadline = array2d(1..32, 1..3, [11, 5, 5, 13, 4, 3, 18, 3, 5, 21, 5, 4, 28, 3, 5, 30, 1, 4, 36, 1, 2, 37, 5, 1, 38, 0, 1, 40, 1, 1, 42, 3, 0, 43, 2, 3, 46, 3, 2, 46, 0, 1, 49, 0, 0, 52, 3, 0, 52, 5, 4, 54, 3, 0, 65, 1, 1, 66, 2, 4, 78, 2, 5, 84, 0, 2, 85, 4, 2, 96, 5, 5, 99, 2, 1, 107, 1, 5, 109, 2, 0, 112, 2, 2, 113, 5, 3, 115, 2, 1, 116, 2, 1, 116, 1, 0]);
