n_res = 4;
rc = [ 15, 21, 11, 13 ];
n_tasks = 32;
d = [0, 1, 6, 1, 5, 3, 1, 7, 7, 4, 5, 3, 7, 3, 2, 1, 5, 9, 7, 10, 7, 1, 9, 2, 4, 10, 10, 9, 5, 5, 9, 0];
rr = array2d(1..4, 1..32, [0, 0, 0, 0, 0, 0, 7, 1, 0, 0, 0, 0, 0, 9, 0, 0, 0, 7, 7, 0, 8, 0, 9, 0, 0, 0, 0, 0, 9, 0, 0, 0, 0, 1, 7, 0, 7, 7, 0, 0, 0, 0, 0, 0, 0, 0, 0, 0, 10, 0, 0, 0, 0, 0, 0, 0, 8, 0, 0, 0, 0, 0, 0, 0, 0, 0, 0, 6, 0, 0, 0, 0, 0, 0, 0, 4, 4, 0, 0, 6, 0, 0, 0, 1, 0, 0, 0, 0, 0, 6, 7, 0, 0, 0, 0, 0, 0, 0, 0, 0, 0, 0, 0, 0, 3, 4, 2, 0, 0, 0, 10, 0, 0, 0, 0, 0, 0, 4, 0, 9, 0, 0, 0, 2, 0, 9, 8, 0]);

suc = [
   {2, 3, 4},
   {9, 14, 22},
   {25, 13, 5},
   {24, 7},
   {10, 6},
   {8, 19, 22},
   {18, 11, 12},
   {16, 21},
   {17, 30},
   {31},
   {27},
   {16},
   {29, 15},
   {27},
   {22},
   {20},
   {28},
   {23},
   {27},
   {26},
   {26},
   {24},
   {26, 30},
   {31},
   {30},
   {28, 29},
   {28},
   {31},
   {32},
   {32},
   {32},
   {  } ];

deadline = array2d(1..32, 1..3, [8, 2, 2, 14, 4, 4, 19, 3, 4, 22, 1, 5, 31, 3, 5, 33, 0, 5, 34, 3, 4, 40, 5, 4, 42, 4, 3, 48, 2, 1, 50, 0, 5, 55, 2, 1, 60, 5, 4, 62, 1, 2, 65, 3, 3, 76, 3, 4, 96, 0, 4, 100, 1, 0, 101, 0, 3, 107, 2, 4, 110, 1, 5, 121, 3, 1, 126, 4, 3, 132, 4, 0, 137, 5, 1, 139, 3, 0, 140, 4, 0, 142, 0, 4, 143, 3, 4, 146, 0, 1, 149, 3, 0, 150, 4, 1]);
