n_res = 4;
rc = [ 21, 24, 17, 15 ];
n_tasks = 32;
d = [0, 10, 5, 9, 2, 3, 4, 10, 5, 5, 6, 3, 3, 10, 10, 9, 8, 9, 1, 7, 4, 1, 4, 5, 7, 7, 3, 6, 9, 1, 10, 0];
rr = array2d(1..4, 1..32, [0, 3, 2, 7, 3, 0, 7, 0, 0, 0, 10, 0, 8, 9, 0, 0, 0, 0, 3, 0, 0, 6, 2, 3, 5, 0, 0, 0, 1, 0, 0, 0, 0, 1, 2, 7, 0, 6, 5, 7, 8, 8, 2, 0, 0, 6, 9, 2, 3, 0, 5, 2, 0, 0, 0, 2, 0, 0, 0, 0, 9, 3, 0, 0, 0, 0, 0, 0, 5, 0, 3, 0, 0, 2, 0, 2, 0, 0, 10, 4, 0, 6, 0, 9, 2, 0, 0, 2, 9, 10, 0, 0, 0, 0, 1, 0, 0, 0, 0, 4, 10, 0, 0, 0, 0, 2, 7, 0, 3, 0, 7, 0, 0, 0, 0, 5, 2, 3, 0, 4, 0, 6, 2, 2, 5, 5, 2, 0]);

suc = [
   {2, 3, 4},
   {11, 5},
   {10, 12, 6},
   {9, 14, 15},
   {8, 13, 7},
   {8, 26, 14},
   {9, 17, 15},
   {25, 27, 20},
   {16, 24, 23},
   {11, 14, 15},
   {16, 24, 13},
   {16, 27, 31},
   {17, 21, 22},
   {17, 30},
   {18, 21, 22},
   {20, 21},
   {25, 20},
   {19},
   {24, 25, 23},
   {28},
   {29, 30},
   {23},
   {26, 29},
   {26, 28},
   {28, 31},
   {27, 31},
   {30},
   {29},
   {32},
   {32},
   {32},
   {  } ];

deadline = array2d(1..32, 1..3, [10, 0, 2, 12, 3, 1, 23, 3, 3, 26, 4, 3, 30, 5, 1, 38, 0, 2, 40, 0, 4, 46, 5, 0, 48, 0, 3, 52, 5, 4, 54, 0, 1, 55, 4, 5, 55, 3, 5, 60, 0, 0, 61, 0, 2, 70, 0, 5, 71, 2, 2, 75, 1, 4, 78, 0, 5, 88, 1, 3, 102, 3, 5, 117, 0, 3, 119, 4, 0, 121, 1, 4, 123, 4, 2, 134, 4, 5, 134, 4, 5, 136, 2, 3, 137, 3, 5, 138, 2, 1, 140, 3, 1, 145, 0, 2]);
