n_res = 4;
rc = [ 12, 20, 10, 15 ];
n_tasks = 32;
d = [0, 2, 10, 10, 8, 4, 7, 6, 5, 7, 2, 10, 5, 2, 2, 8, 1, 10, 8, 4, 3, 6, 8, 6, 10, 9, 3, 6, 1, 7, 10, 0];
rr = array2d(1..4, 1..32, [0, 5, 5, 0, 0, 0, 0, 0, 0, 0, 0, 0, 9, 0, 0, 0, 0, 0, 0, 0, 0, 0, 0, 0, 0, 0, 0, 0, 2, 0, 0, 0, 0, 0, 0, 4, 7, 0, 0, 9, 2, 0, 1, 7, 0, 6, 0, 0, 0, 1, 0, 0, 0, 5, 8, 3, 0, 0, 0, 1, 0, 0, 0, 0, 0, 0, 0, 0, 0, 9, 0, 0, 0, 0, 0, 0, 0, 0, 4, 0, 9, 0, 0, 0, 0, 0, 0, 0, 0, 0, 5, 0, 0, 0, 10, 0, 0, 0, 0, 0, 0, 0, 2, 0, 0, 7, 0, 0, 0, 0, 0, 8, 0, 0, 4, 2, 9, 0, 0, 0, 10, 10, 0, 0, 0, 9, 0, 0]);

suc = [
   {2, 3, 4},
   {18, 6},
   {5, 22, 15},
   {9, 14},
   {16, 10, 18},
   {11, 13, 7},
   {8, 23},
   {17},
   {27, 21},
   {26, 14},
   {12, 31, 15},
   {24, 19, 30},
   {19, 14},
   {24, 28, 30},
   {20, 30},
   {26, 23},
   {29, 31},
   {27, 21, 23},
   {25, 20},
   {21},
   {26},
   {25},
   {25, 31},
   {27},
   {28},
   {28},
   {29},
   {29},
   {32},
   {32},
   {32},
   {  } ];

deadline = array2d(1..32, 1..3, [7, 4, 0, 13, 2, 3, 15, 2, 2, 15, 2, 4, 17, 3, 5, 27, 2, 4, 29, 3, 1, 33, 2, 0, 37, 0, 0, 40, 5, 3, 46, 1, 3, 52, 0, 1, 57, 3, 4, 63, 5, 5, 67, 1, 2, 68, 5, 1, 74, 3, 3, 76, 0, 5, 87, 4, 1, 88, 5, 4, 89, 4, 2, 89, 0, 2, 94, 3, 5, 101, 0, 1, 102, 0, 4, 104, 3, 4, 107, 4, 0, 112, 4, 0, 122, 0, 2, 125, 1, 5, 129, 4, 2, 130, 5, 0]);
