n_res = 4;
rc = [ 46, 40, 37, 46 ];
n_tasks = 32;
d = [0, 7, 9, 9, 6, 1, 3, 3, 2, 2, 10, 5, 5, 4, 7, 1, 5, 3, 6, 2, 10, 8, 7, 4, 7, 1, 4, 5, 6, 7, 4, 0];
rr = array2d(1..4, 1..32, [0, 4, 5, 1, 9, 3, 10, 6, 3, 6, 6, 3, 8, 5, 4, 10, 6, 9, 6, 8, 7, 3, 1, 8, 10, 8, 1, 5, 2, 1, 2, 0, 0, 6, 8, 1, 3, 7, 4, 2, 4, 2, 7, 10, 4, 3, 6, 9, 4, 5, 4, 4, 6, 5, 1, 10, 6, 8, 5, 4, 3, 6, 8, 0, 0, 10, 1, 1, 5, 1, 10, 3, 6, 1, 8, 4, 9, 3, 1, 3, 9, 3, 9, 10, 1, 10, 10, 9, 3, 4, 5, 2, 8, 4, 2, 0, 0, 3, 4, 2, 1, 6, 10, 6, 10, 10, 5, 8, 7, 7, 5, 3, 10, 6, 2, 4, 10, 7, 3, 3, 4, 5, 3, 1, 3, 5, 8, 0]);

suc = [
   {2, 3, 4},
   {11, 5, 15},
   {17},
   {8, 12, 14},
   {9, 6, 7},
   {12},
   {20, 13},
   {22},
   {10},
   {19},
   {18, 12},
   {30},
   {16, 24},
   {19},
   {25, 21},
   {23},
   {27},
   {19},
   {29},
   {24, 30},
   {24, 22},
   {26, 23},
   {28},
   {26},
   {28},
   {29},
   {28, 29, 31},
   {30},
   {32},
   {32},
   {32},
   {  } ];

deadline = array2d(1..32, 1..3, [12, 1, 1, 18, 0, 0, 20, 0, 3, 22, 5, 1, 23, 5, 5, 25, 5, 2, 26, 5, 3, 28, 3, 0, 29, 0, 1, 41, 4, 5, 41, 0, 0, 42, 3, 3, 45, 5, 2, 50, 3, 0, 52, 2, 2, 65, 1, 1, 67, 1, 2, 69, 4, 1, 71, 5, 5, 76, 4, 1, 76, 4, 1, 81, 5, 3, 87, 4, 3, 90, 5, 4, 96, 4, 5, 98, 1, 1, 98, 3, 5, 112, 0, 0, 119, 2, 1, 119, 3, 1, 121, 3, 4, 125, 0, 4]);
