n_res = 4;
rc = [ 16, 11, 13, 7 ];
n_tasks = 32;
d = [0, 1, 10, 5, 8, 5, 9, 1, 8, 8, 6, 6, 6, 6, 1, 6, 1, 3, 7, 10, 8, 10, 8, 3, 3, 7, 7, 3, 5, 5, 1, 0];
rr = array2d(1..4, 1..32, [0, 0, 4, 0, 6, 0, 0, 7, 1, 0, 0, 0, 0, 0, 1, 0, 0, 8, 0, 10, 0, 0, 0, 0, 3, 0, 1, 0, 0, 0, 0, 0, 0, 4, 0, 0, 0, 1, 0, 0, 0, 0, 0, 7, 0, 0, 0, 0, 0, 0, 7, 0, 0, 8, 0, 7, 0, 0, 0, 3, 0, 2, 1, 0, 0, 0, 0, 5, 0, 0, 0, 0, 0, 6, 10, 0, 10, 6, 0, 0, 1, 0, 0, 0, 0, 0, 0, 0, 0, 0, 0, 0, 6, 0, 0, 0, 0, 0, 0, 0, 0, 0, 1, 0, 0, 0, 0, 0, 0, 0, 0, 6, 0, 0, 0, 0, 2, 0, 2, 0, 0, 1, 0, 0, 0, 0, 0, 0]);

suc = [
   {2, 3, 4},
   {16, 6, 7},
   {8, 25, 22},
   {8, 5},
   {10, 21, 31},
   {11, 12, 15},
   {9, 18},
   {20, 23},
   {13, 22, 23},
   {11, 14},
   {17, 13},
   {26, 23},
   {27, 28},
   {24},
   {18},
   {19, 20},
   {27, 26, 19},
   {24, 20},
   {22},
   {21, 31},
   {29, 30},
   {28},
   {31},
   {25},
   {26, 27},
   {28, 30},
   {30},
   {29},
   {32},
   {32},
   {32},
   {  } ];

deadline = array2d(1..32, 1..3, [4, 4, 5, 14, 0, 1, 16, 1, 4, 17, 1, 3, 24, 2, 0, 26, 5, 2, 28, 0, 5, 36, 4, 2, 36, 4, 1, 37, 0, 0, 40, 3, 4, 51, 5, 3, 51, 5, 4, 57, 3, 3, 60, 1, 0, 64, 0, 2, 66, 3, 0, 67, 4, 1, 74, 4, 0, 76, 0, 4, 77, 1, 1, 83, 4, 0, 94, 2, 3, 95, 0, 3, 98, 0, 3, 102, 2, 0, 103, 5, 0, 104, 0, 2, 105, 2, 0, 113, 5, 0, 119, 1, 2, 128, 3, 4]);
