n_res = 4;
rc = [ 15, 14, 16, 16 ];
n_tasks = 32;
d = [0, 9, 10, 1, 5, 9, 9, 6, 7, 6, 9, 8, 9, 7, 8, 1, 1, 9, 6, 6, 10, 3, 4, 9, 1, 4, 8, 5, 3, 2, 7, 0];
rr = array2d(1..4, 1..32, [0, 10, 3, 2, 4, 5, 6, 5, 5, 4, 1, 2, 7, 4, 2, 5, 2, 8, 9, 9, 8, 10, 4, 10, 2, 1, 10, 6, 2, 1, 10, 0, 0, 8, 6, 2, 10, 10, 10, 6, 6, 7, 1, 8, 2, 4, 6, 1, 5, 10, 3, 9, 5, 8, 2, 1, 7, 6, 10, 1, 3, 8, 10, 0, 0, 4, 10, 8, 2, 5, 10, 7, 8, 1, 6, 5, 8, 9, 3, 1, 9, 4, 1, 2, 3, 10, 4, 4, 8, 9, 9, 9, 5, 10, 6, 0, 0, 7, 5, 6, 9, 5, 7, 6, 10, 9, 3, 7, 4, 7, 8, 5, 5, 5, 8, 1, 10, 5, 2, 7, 1, 2, 7, 5, 5, 5, 5, 0]);

suc = [
   {2, 3, 4},
   {28, 13, 22},
   {5, 7},
   {6},
   {12, 21, 14},
   {8, 19, 31},
   {10, 30},
   {9, 11},
   {30},
   {16, 15},
   {14},
   {20},
   {19},
   {24, 17},
   {27, 23},
   {18, 26},
   {26, 23},
   {19},
   {25},
   {29, 22},
   {25},
   {30},
   {25},
   {26},
   {29},
   {29},
   {31},
   {31},
   {32},
   {32},
   {32},
   {  } ];

deadline = array2d(1..32, 1..3, [1, 3, 5, 6, 0, 4, 14, 0, 0, 18, 5, 2, 25, 0, 5, 27, 1, 2, 28, 0, 4, 30, 3, 0, 32, 3, 0, 37, 3, 2, 42, 4, 2, 43, 2, 1, 45, 4, 4, 46, 4, 3, 50, 4, 0, 53, 0, 4, 55, 3, 4, 59, 1, 0, 60, 0, 0, 60, 4, 1, 61, 4, 2, 69, 5, 2, 77, 5, 3, 86, 4, 3, 88, 4, 4, 90, 0, 4, 94, 4, 3, 101, 3, 2, 101, 1, 4, 101, 3, 5, 103, 3, 0, 104, 0, 1]);
