n_res = 4;
rc = [ 14, 9, 8, 13 ];
n_tasks = 32;
d = [0, 2, 6, 4, 1, 5, 9, 2, 6, 2, 1, 10, 4, 10, 5, 3, 1, 9, 7, 9, 8, 7, 4, 4, 8, 4, 3, 10, 6, 10, 7, 0];
rr = array2d(1..4, 1..32, [0, 6, 0, 0, 10, 0, 1, 0, 0, 0, 3, 0, 3, 0, 0, 0, 9, 0, 0, 0, 0, 0, 0, 10, 0, 0, 4, 0, 8, 0, 0, 0, 0, 0, 0, 4, 0, 0, 0, 0, 8, 0, 0, 0, 0, 1, 0, 0, 0, 0, 0, 0, 0, 4, 4, 0, 0, 0, 0, 0, 0, 0, 5, 0, 0, 0, 1, 0, 0, 2, 0, 3, 0, 0, 0, 0, 0, 0, 6, 1, 0, 2, 0, 0, 0, 0, 0, 0, 0, 4, 0, 6, 0, 4, 0, 0, 0, 0, 0, 0, 0, 0, 0, 0, 0, 5, 0, 3, 0, 0, 0, 0, 0, 0, 2, 4, 3, 0, 0, 0, 8, 0, 0, 0, 0, 0, 0, 0]);

suc = [
   {2, 3, 4},
   {21, 5, 22},
   {8, 14},
   {9, 6, 7},
   {18, 11, 20},
   {16},
   {16, 10, 11},
   {26, 12},
   {20, 13, 22},
   {25, 29, 21},
   {17, 27, 15},
   {24, 19, 13},
   {17},
   {19},
   {23},
   {25, 21, 23},
   {29},
   {25, 29},
   {27, 22, 23},
   {30},
   {24},
   {28},
   {28, 30},
   {27, 31},
   {26},
   {28},
   {30},
   {31},
   {32},
   {32},
   {32},
   {  } ];

deadline = array2d(1..32, 1..3, [8, 5, 1, 10, 1, 0, 10, 4, 0, 10, 4, 1, 23, 4, 4, 30, 5, 0, 35, 5, 4, 39, 4, 5, 45, 5, 3, 45, 0, 3, 46, 2, 4, 54, 0, 0, 56, 4, 1, 57, 2, 5, 58, 3, 4, 61, 2, 4, 62, 0, 2, 64, 5, 5, 65, 1, 4, 69, 3, 4, 78, 2, 4, 80, 3, 2, 83, 0, 2, 83, 0, 2, 86, 0, 0, 89, 1, 5, 89, 1, 4, 101, 1, 1, 108, 4, 0, 112, 3, 5, 118, 4, 0, 122, 4, 1]);
