n_res = 4;
rc = [ 14, 16, 14, 15 ];
n_tasks = 32;
d = [0, 7, 4, 1, 5, 9, 7, 5, 7, 10, 8, 2, 6, 2, 6, 5, 7, 4, 9, 3, 7, 7, 6, 5, 6, 10, 2, 5, 3, 7, 5, 0];
rr = array2d(1..4, 1..32, [0, 0, 0, 0, 0, 0, 0, 0, 0, 0, 0, 0, 0, 0, 0, 0, 5, 10, 0, 6, 0, 0, 0, 0, 0, 8, 0, 0, 0, 0, 5, 0, 0, 2, 0, 0, 0, 0, 0, 0, 0, 0, 0, 10, 8, 0, 4, 0, 0, 0, 0, 0, 0, 0, 0, 8, 7, 0, 5, 0, 9, 0, 0, 0, 0, 0, 4, 7, 0, 6, 5, 0, 2, 0, 0, 0, 0, 5, 0, 0, 0, 0, 0, 0, 2, 10, 0, 0, 0, 0, 0, 3, 0, 1, 0, 0, 0, 0, 0, 0, 4, 0, 0, 7, 0, 2, 9, 0, 0, 0, 0, 8, 0, 0, 5, 0, 0, 0, 9, 0, 0, 0, 0, 0, 0, 0, 0, 0]);

suc = [
   {2, 3, 4},
   {12, 28, 7},
   {16, 11, 5},
   {8, 13, 6},
   {28, 13, 15},
   {10, 23, 15},
   {8, 16, 17},
   {9, 18, 14},
   {25, 20, 21},
   {17, 19, 25},
   {24, 26, 14},
   {18, 13, 22},
   {24, 17, 25},
   {23, 15},
   {27, 22},
   {18, 27, 22},
   {29, 21},
   {24, 20, 23},
   {28, 20, 21},
   {30},
   {26, 27},
   {29},
   {30},
   {29},
   {26},
   {30, 31},
   {31},
   {31},
   {32},
   {32},
   {32},
   {  } ];

deadline = array2d(1..32, 1..3, [1, 0, 4, 5, 1, 3, 10, 4, 3, 19, 1, 5, 22, 5, 0, 26, 2, 3, 29, 2, 3, 41, 5, 3, 45, 2, 2, 46, 5, 2, 47, 5, 3, 48, 5, 3, 53, 2, 2, 61, 0, 4, 64, 4, 4, 64, 1, 1, 65, 5, 4, 65, 0, 4, 69, 3, 4, 70, 1, 0, 77, 2, 2, 78, 4, 4, 80, 0, 1, 82, 0, 3, 84, 3, 3, 86, 4, 4, 96, 2, 0, 100, 5, 3, 105, 0, 5, 106, 1, 2, 122, 4, 3, 123, 0, 3]);
