n_res = 4;
rc = [ 28, 18, 23, 21 ];
n_tasks = 32;
d = [0, 10, 5, 2, 2, 4, 10, 3, 6, 10, 6, 4, 8, 4, 8, 10, 9, 6, 3, 7, 3, 1, 9, 3, 5, 7, 10, 8, 2, 6, 6, 0];
rr = array2d(1..4, 1..32, [0, 0, 4, 8, 6, 0, 0, 0, 9, 0, 6, 5, 0, 0, 1, 0, 0, 10, 9, 1, 2, 8, 0, 5, 8, 0, 0, 1, 0, 5, 9, 0, 0, 9, 0, 0, 3, 0, 4, 5, 9, 9, 0, 0, 0, 8, 1, 0, 0, 0, 0, 0, 0, 7, 1, 0, 7, 10, 7, 0, 0, 0, 10, 0, 0, 10, 0, 0, 5, 4, 7, 8, 0, 0, 6, 0, 0, 6, 2, 0, 10, 0, 0, 1, 6, 0, 2, 0, 0, 10, 0, 8, 2, 4, 0, 0, 0, 0, 9, 0, 0, 0, 0, 10, 0, 5, 0, 7, 6, 7, 2, 3, 0, 0, 0, 1, 0, 1, 9, 0, 0, 10, 7, 0, 9, 0, 0, 0]);

suc = [
   {2, 3, 4},
   {10, 5, 7},
   {8, 13, 6},
   {15, 6, 7},
   {16, 12, 29},
   {18, 12, 23},
   {9, 11, 14},
   {17, 10, 19},
   {17, 28},
   {25, 21, 15},
   {24, 20, 29},
   {20, 22},
   {19, 21, 23},
   {17, 18, 23},
   {24, 26, 27},
   {18, 21, 22},
   {24, 22},
   {19, 20, 30},
   {31},
   {27, 28},
   {26},
   {25},
   {25, 26, 29},
   {30},
   {27, 30},
   {28},
   {31},
   {31},
   {32},
   {32},
   {32},
   {  } ];

deadline = array2d(1..32, 1..3, [10, 3, 4, 12, 3, 3, 15, 2, 5, 22, 4, 0, 22, 2, 1, 33, 2, 2, 33, 0, 5, 53, 0, 0, 56, 4, 2, 61, 0, 1, 62, 2, 4, 65, 3, 0, 70, 5, 1, 78, 1, 4, 79, 1, 2, 83, 0, 3, 85, 4, 4, 96, 5, 1, 100, 2, 1, 106, 5, 3, 107, 3, 1, 109, 4, 3, 110, 3, 5, 114, 2, 5, 117, 3, 4, 119, 1, 2, 124, 3, 4, 130, 3, 1, 133, 1, 5, 133, 1, 1, 136, 5, 1, 139, 4, 0]);
