n_res = 4;
rc = [ 14, 14, 15, 16 ];
n_tasks = 32;
d = [0, 10, 4, 5, 6, 2, 9, 5, 8, 4, 2, 1, 4, 7, 4, 5, 10, 1, 5, 2, 6, 9, 2, 4, 10, 9, 9, 7, 7, 1, 7, 0];
rr = array2d(1..4, 1..32, [0, 0, 1, 1, 4, 5, 10, 6, 4, 1, 4, 0, 0, 5, 0, 3, 7, 6, 0, 10, 3, 3, 0, 0, 0, 4, 6, 1, 4, 8, 10, 0, 0, 6, 8, 4, 5, 4, 7, 0, 0, 7, 5, 0, 4, 10, 0, 0, 0, 3, 0, 8, 4, 0, 1, 0, 6, 1, 5, 0, 9, 7, 4, 0, 0, 0, 7, 10, 7, 0, 10, 5, 3, 9, 0, 9, 5, 10, 8, 0, 5, 9, 6, 0, 6, 3, 1, 8, 10, 4, 5, 2, 0, 0, 4, 0, 0, 10, 3, 6, 3, 0, 1, 7, 3, 6, 5, 0, 8, 10, 8, 1, 8, 8, 0, 2, 10, 4, 4, 2, 9, 4, 6, 4, 0, 9, 9, 0]);

suc = [
   {2, 3, 4},
   {7},
   {13, 6, 14},
   {8, 9, 5},
   {27, 20},
   {28, 21, 15},
   {10, 11, 12},
   {16, 19, 29},
   {25, 23},
   {15},
   {17},
   {21},
   {17},
   {27},
   {24, 22},
   {28},
   {18},
   {24},
   {26},
   {24, 26},
   {25},
   {30},
   {28},
   {30},
   {27},
   {31},
   {31},
   {30, 31},
   {32},
   {32},
   {32},
   {  } ];

deadline = array2d(1..32, 1..3, [10, 2, 2, 13, 2, 2, 14, 1, 3, 19, 3, 1, 20, 4, 3, 21, 4, 0, 22, 4, 2, 24, 5, 5, 25, 2, 5, 26, 2, 3, 30, 0, 3, 32, 5, 5, 34, 4, 1, 35, 4, 3, 36, 1, 2, 49, 5, 2, 55, 4, 4, 57, 3, 5, 58, 3, 5, 60, 2, 5, 64, 1, 3, 83, 4, 4, 87, 5, 0, 96, 4, 0, 100, 2, 1, 104, 1, 1, 114, 3, 5, 118, 0, 1, 125, 4, 3, 128, 4, 2, 130, 3, 4, 130, 5, 4]);
