n_res = 4;
rc = [ 24, 17, 28, 29 ];
n_tasks = 32;
d = [0, 4, 3, 10, 4, 9, 2, 8, 6, 8, 5, 1, 3, 3, 1, 5, 6, 8, 5, 7, 1, 4, 2, 3, 4, 3, 8, 5, 6, 10, 1, 0];
rr = array2d(1..4, 1..32, [0, 5, 0, 7, 10, 3, 0, 0, 3, 10, 9, 0, 3, 0, 8, 10, 0, 6, 0, 4, 9, 0, 4, 8, 0, 3, 7, 0, 0, 10, 0, 0, 0, 0, 0, 0, 0, 2, 0, 8, 0, 0, 3, 2, 0, 1, 0, 0, 0, 10, 4, 0, 0, 0, 0, 0, 10, 0, 0, 1, 3, 0, 0, 0, 0, 0, 0, 0, 0, 7, 3, 1, 0, 9, 5, 9, 0, 0, 0, 7, 2, 0, 1, 0, 9, 0, 0, 2, 0, 0, 5, 10, 7, 7, 7, 0, 0, 0, 3, 1, 10, 4, 0, 0, 0, 7, 4, 0, 10, 2, 0, 0, 6, 9, 9, 1, 0, 7, 0, 0, 6, 4, 0, 7, 0, 7, 0, 0]);

suc = [
   {2, 3, 4},
   {9, 21},
   {11, 13, 7},
   {17, 5, 6},
   {8, 10, 12},
   {16, 18, 21},
   {31, 22, 23},
   {16, 18, 26},
   {30},
   {14},
   {24, 20, 15},
   {19, 15},
   {26, 19},
   {24, 27, 31},
   {25},
   {19, 22},
   {18, 22},
   {20},
   {27, 31},
   {28},
   {23},
   {25, 29},
   {24, 25, 29},
   {26},
   {27},
   {28},
   {28},
   {30},
   {32},
   {32},
   {32},
   {  } ];

deadline = array2d(1..32, 1..3, [6, 5, 2, 9, 3, 4, 16, 3, 2, 19, 5, 5, 24, 1, 2, 24, 0, 4, 26, 3, 2, 35, 2, 4, 39, 0, 0, 52, 5, 5, 52, 4, 2, 53, 0, 5, 58, 4, 3, 59, 1, 3, 63, 4, 0, 71, 3, 2, 72, 1, 1, 81, 3, 0, 85, 0, 0, 89, 2, 1, 91, 5, 4, 96, 5, 4, 107, 3, 0, 109, 3, 2, 112, 3, 5, 123, 0, 5, 128, 2, 2, 130, 5, 0, 131, 2, 2, 138, 2, 1, 139, 3, 0, 144, 1, 1]);
