n_res = 4;
rc = [ 14, 10, 16, 14 ];
n_tasks = 32;
d = [0, 4, 4, 1, 9, 9, 9, 5, 6, 4, 8, 1, 1, 2, 3, 6, 7, 2, 9, 5, 9, 1, 3, 2, 10, 1, 8, 10, 2, 5, 2, 0];
rr = array2d(1..4, 1..32, [0, 0, 0, 0, 0, 0, 1, 0, 0, 0, 3, 6, 0, 8, 0, 0, 2, 0, 0, 0, 0, 10, 3, 0, 0, 0, 7, 0, 9, 0, 0, 0, 0, 0, 0, 0, 8, 3, 0, 0, 0, 0, 0, 0, 0, 0, 3, 0, 0, 0, 0, 0, 0, 0, 0, 9, 0, 0, 0, 0, 0, 0, 0, 0, 0, 0, 9, 0, 0, 0, 0, 0, 1, 5, 0, 0, 2, 0, 0, 8, 0, 0, 3, 5, 3, 0, 0, 0, 0, 0, 0, 0, 0, 0, 4, 0, 0, 3, 0, 1, 0, 0, 0, 8, 0, 0, 0, 0, 0, 0, 0, 0, 0, 5, 0, 0, 0, 0, 0, 0, 4, 10, 0, 8, 0, 8, 0, 0]);

suc = [
   {2, 3, 4},
   {16, 18, 7},
   {13, 11, 5},
   {18, 6},
   {25, 29, 14},
   {9, 11, 15},
   {8, 9, 24},
   {17, 12, 21},
   {26, 10, 19},
   {28, 22, 23},
   {16},
   {25, 26, 20},
   {27, 15},
   {27},
   {20, 30},
   {30},
   {23},
   {25, 19, 22},
   {20, 31},
   {29},
   {22, 23},
   {31},
   {30},
   {28},
   {27},
   {28},
   {31},
   {29},
   {32},
   {32},
   {32},
   {  } ];

deadline = array2d(1..32, 1..3, [5, 0, 0, 11, 2, 1, 13, 2, 1, 16, 2, 0, 17, 3, 0, 18, 2, 4, 21, 5, 5, 21, 0, 5, 26, 2, 0, 26, 5, 0, 28, 4, 5, 32, 2, 0, 35, 5, 4, 35, 1, 5, 41, 3, 2, 41, 5, 0, 42, 1, 4, 42, 0, 3, 44, 2, 2, 46, 2, 4, 58, 5, 2, 58, 5, 4, 59, 3, 1, 60, 2, 1, 65, 4, 4, 65, 5, 4, 66, 0, 2, 71, 4, 1, 75, 1, 4, 75, 5, 2, 87, 2, 4, 94, 0, 4]);
