n_res = 4;
rc = [ 16, 17, 16, 19 ];
n_tasks = 32;
d = [0, 1, 3, 6, 8, 1, 10, 5, 10, 2, 3, 3, 1, 10, 3, 2, 10, 1, 6, 8, 2, 4, 9, 2, 4, 1, 7, 10, 9, 4, 6, 0];
rr = array2d(1..4, 1..32, [0, 0, 9, 0, 1, 0, 0, 0, 7, 4, 4, 10, 0, 0, 5, 0, 0, 10, 7, 3, 0, 5, 2, 1, 0, 0, 6, 6, 2, 0, 0, 0, 0, 4, 0, 9, 0, 1, 4, 0, 10, 0, 0, 4, 9, 6, 0, 9, 0, 0, 4, 9, 0, 5, 0, 0, 8, 4, 2, 8, 0, 0, 0, 0, 0, 0, 0, 0, 0, 2, 8, 7, 10, 0, 0, 0, 0, 0, 0, 9, 1, 0, 6, 6, 0, 0, 7, 5, 8, 2, 0, 0, 0, 0, 1, 0, 0, 0, 0, 5, 2, 6, 2, 2, 10, 0, 1, 0, 0, 0, 1, 0, 7, 0, 0, 0, 8, 0, 0, 0, 1, 3, 0, 10, 8, 9, 8, 0]);

suc = [
   {2, 3, 4},
   {27, 12, 14},
   {18, 19, 5},
   {8, 10, 7},
   {9, 6, 7},
   {16, 12, 13},
   {21, 30, 23},
   {18, 11, 20},
   {10, 12, 20},
   {25, 27, 21},
   {31, 14, 15},
   {17, 21, 22},
   {27, 20, 23},
   {16, 26, 19},
   {16, 17, 19},
   {24},
   {24, 26},
   {25},
   {22, 23},
   {25, 22},
   {28},
   {28, 30},
   {24},
   {29},
   {26, 31},
   {29, 30},
   {28, 31},
   {29},
   {32},
   {32},
   {32},
   {  } ];

deadline = array2d(1..32, 1..3, [5, 1, 1, 12, 5, 4, 14, 2, 2, 18, 5, 5, 23, 1, 2, 26, 2, 0, 37, 4, 1, 38, 0, 0, 42, 0, 0, 60, 4, 0, 63, 1, 0, 76, 5, 3, 78, 0, 0, 81, 5, 0, 83, 3, 4, 87, 1, 0, 88, 2, 2, 89, 5, 5, 96, 4, 1, 98, 3, 5, 98, 1, 1, 99, 5, 5, 103, 5, 5, 104, 1, 2, 106, 1, 5, 108, 3, 0, 112, 0, 5, 118, 5, 2, 120, 3, 1, 121, 5, 4, 123, 0, 1, 124, 2, 3]);
