n_res = 4;
rc = [ 12, 12, 12, 12 ];
n_tasks = 32;
d = [0, 3, 2, 9, 6, 1, 10, 9, 9, 10, 4, 8, 10, 3, 9, 10, 4, 1, 2, 9, 1, 4, 10, 5, 9, 1, 2, 1, 7, 1, 5, 0];
rr = array2d(1..4, 1..32, [0, 0, 0, 3, 0, 0, 5, 6, 0, 10, 0, 4, 0, 1, 0, 0, 0, 6, 2, 0, 2, 7, 0, 0, 6, 8, 0, 0, 1, 0, 6, 0, 0, 0, 9, 1, 5, 0, 0, 0, 9, 6, 0, 3, 8, 0, 9, 0, 8, 6, 0, 4, 0, 0, 0, 0, 7, 0, 0, 0, 0, 10, 0, 0, 0, 3, 9, 0, 1, 0, 1, 0, 2, 0, 4, 0, 7, 10, 1, 6, 2, 0, 0, 4, 8, 0, 6, 0, 0, 9, 0, 10, 6, 2, 2, 0, 0, 0, 4, 0, 9, 9, 4, 9, 0, 8, 0, 6, 0, 0, 8, 5, 6, 0, 0, 0, 0, 0, 0, 9, 0, 4, 9, 0, 0, 8, 9, 0]);

suc = [
   {2, 3, 4},
   {25, 5, 6},
   {10, 18, 13},
   {8, 9, 7},
   {9, 10, 14},
   {16, 10, 22},
   {11, 12, 20},
   {25, 14, 15},
   {26, 18, 19},
   {27, 12, 21},
   {18, 13, 15},
   {29, 15},
   {17, 19, 14},
   {28, 23},
   {30},
   {24, 20},
   {25, 29, 23},
   {22, 23},
   {21, 22},
   {26, 27, 21},
   {28},
   {24, 27, 30},
   {24, 30},
   {31},
   {26},
   {31},
   {28},
   {29, 31},
   {32},
   {32},
   {32},
   {  } ];

deadline = array2d(1..32, 1..3, [8, 1, 5, 16, 3, 0, 18, 2, 3, 28, 4, 3, 33, 3, 4, 40, 2, 5, 43, 4, 5, 46, 2, 4, 50, 1, 2, 54, 0, 1, 56, 0, 5, 57, 5, 2, 57, 2, 2, 65, 3, 3, 68, 5, 2, 91, 0, 0, 96, 3, 4, 97, 4, 2, 97, 3, 4, 98, 4, 5, 109, 0, 3, 111, 4, 3, 111, 0, 3, 126, 1, 4, 127, 4, 5, 129, 0, 1, 132, 4, 0, 134, 4, 5, 135, 2, 3, 137, 5, 0, 138, 4, 4, 139, 4, 2]);
