n_res = 4;
rc = [ 16, 19, 21, 17 ];
n_tasks = 32;
d = [0, 5, 6, 1, 10, 7, 8, 6, 10, 8, 7, 4, 1, 9, 5, 3, 4, 2, 6, 8, 3, 3, 3, 10, 10, 10, 8, 9, 3, 3, 10, 0];
rr = array2d(1..4, 1..32, [0, 2, 0, 0, 0, 0, 0, 6, 0, 1, 10, 2, 9, 8, 4, 3, 4, 0, 0, 3, 3, 0, 0, 0, 0, 0, 5, 7, 0, 0, 0, 0, 0, 4, 1, 4, 10, 4, 2, 0, 5, 0, 0, 2, 0, 5, 6, 0, 6, 1, 0, 10, 0, 6, 5, 0, 3, 0, 0, 5, 0, 6, 0, 0, 0, 0, 3, 0, 8, 7, 0, 0, 8, 10, 0, 0, 0, 0, 0, 2, 0, 6, 5, 9, 2, 0, 0, 2, 0, 3, 2, 10, 7, 0, 8, 0, 0, 1, 0, 0, 3, 0, 6, 0, 1, 0, 0, 2, 10, 0, 0, 0, 0, 5, 0, 0, 0, 0, 8, 5, 0, 7, 0, 1, 6, 9, 0, 0]);

suc = [
   {2, 3, 4},
   {8, 5, 7},
   {17, 11, 13},
   {9, 14},
   {16, 21, 6},
   {12, 30, 15},
   {10, 12, 15},
   {16, 11, 31},
   {24, 22, 31},
   {18, 19, 28},
   {18, 19, 14},
   {25, 26, 28},
   {20, 14, 15},
   {26, 21, 23},
   {25, 28},
   {26, 19, 23},
   {18, 21, 23},
   {24, 20},
   {27, 20},
   {22, 30},
   {27, 22},
   {29},
   {24, 27},
   {25},
   {29},
   {29},
   {30},
   {31},
   {32},
   {32},
   {32},
   {  } ];

deadline = array2d(1..32, 1..3, [13, 3, 5, 14, 1, 5, 14, 4, 2, 18, 0, 4, 18, 3, 5, 20, 3, 4, 21, 0, 2, 34, 3, 0, 41, 4, 3, 42, 5, 2, 45, 0, 4, 49, 2, 4, 50, 4, 1, 51, 0, 2, 55, 3, 3, 56, 4, 4, 60, 1, 4, 62, 5, 5, 74, 2, 3, 76, 0, 3, 77, 1, 5, 81, 3, 2, 87, 0, 1, 99, 4, 4, 100, 4, 5, 102, 3, 0, 106, 1, 4, 106, 1, 1, 111, 2, 0, 111, 1, 2, 128, 0, 4, 129, 2, 5]);
