n_res = 4;
rc = [ 17, 15, 16, 16 ];
n_tasks = 32;
d = [0, 4, 10, 1, 10, 8, 2, 2, 3, 4, 4, 1, 3, 10, 7, 9, 6, 8, 6, 8, 2, 7, 5, 3, 7, 9, 7, 4, 8, 1, 10, 0];
rr = array2d(1..4, 1..32, [0, 5, 8, 0, 9, 6, 8, 3, 0, 5, 0, 10, 3, 0, 0, 1, 0, 0, 10, 0, 8, 0, 9, 0, 3, 0, 0, 0, 5, 8, 8, 0, 0, 10, 0, 9, 0, 0, 0, 10, 0, 0, 7, 0, 6, 0, 0, 0, 9, 0, 0, 4, 2, 0, 1, 1, 1, 0, 4, 6, 0, 0, 0, 0, 0, 0, 0, 3, 5, 4, 0, 0, 0, 6, 0, 1, 0, 4, 0, 9, 5, 5, 0, 0, 0, 0, 0, 2, 0, 10, 6, 1, 0, 0, 8, 0, 0, 0, 0, 6, 0, 7, 10, 5, 8, 0, 0, 0, 0, 2, 4, 0, 0, 0, 0, 5, 3, 7, 5, 0, 7, 10, 8, 0, 6, 10, 4, 0]);

suc = [
   {2, 3, 4},
   {12, 20, 6},
   {16, 5},
   {8, 12, 5},
   {18, 11, 7},
   {16, 7},
   {10, 26, 23},
   {9, 29, 13},
   {15},
   {24, 17, 22},
   {24, 13, 14},
   {24, 21, 13},
   {17, 26, 25},
   {17, 19, 29},
   {16, 18, 19},
   {26, 28},
   {28, 31},
   {20, 21, 31},
   {27, 20, 21},
   {22, 23},
   {22, 23},
   {25, 28},
   {25},
   {27, 29},
   {30},
   {27, 30},
   {31},
   {30},
   {32},
   {32},
   {32},
   {  } ];

deadline = array2d(1..32, 1..3, [3, 4, 4, 4, 3, 2, 8, 5, 4, 17, 0, 4, 22, 2, 0, 31, 3, 2, 43, 3, 2, 53, 2, 1, 56, 3, 2, 62, 1, 4, 62, 0, 3, 63, 3, 2, 63, 4, 4, 67, 2, 1, 68, 2, 2, 73, 1, 2, 73, 4, 5, 75, 1, 3, 82, 4, 4, 93, 1, 3, 103, 1, 5, 116, 2, 3, 117, 4, 1, 122, 2, 4, 124, 2, 4, 130, 4, 4, 131, 2, 5, 136, 5, 4, 137, 2, 2, 146, 4, 4, 152, 3, 1, 154, 4, 1]);
