n_res = 4;
rc = [ 16, 10, 10, 14 ];
n_tasks = 32;
d = [0, 5, 2, 5, 6, 7, 8, 1, 7, 5, 6, 9, 5, 10, 8, 5, 7, 2, 8, 2, 4, 5, 8, 7, 7, 3, 5, 1, 5, 3, 10, 0];
rr = array2d(1..4, 1..32, [0, 3, 0, 0, 0, 0, 0, 0, 0, 0, 0, 0, 0, 0, 10, 2, 0, 0, 10, 10, 0, 0, 8, 0, 0, 0, 0, 5, 0, 0, 6, 0, 0, 0, 9, 1, 7, 0, 0, 0, 1, 0, 0, 0, 0, 0, 0, 0, 0, 8, 0, 0, 5, 0, 0, 6, 0, 4, 4, 0, 0, 6, 0, 0, 0, 0, 0, 0, 0, 1, 0, 0, 0, 0, 5, 0, 0, 0, 0, 0, 9, 0, 0, 0, 0, 0, 0, 0, 0, 0, 0, 0, 10, 0, 0, 0, 0, 0, 0, 0, 0, 0, 2, 9, 0, 2, 0, 3, 10, 2, 0, 0, 0, 0, 0, 0, 0, 7, 0, 0, 9, 0, 0, 0, 0, 0, 0, 0]);

suc = [
   {2, 3, 4},
   {16, 10, 7},
   {16, 12, 5},
   {8, 5, 6},
   {24, 10, 30},
   {11, 13, 15},
   {18, 12, 13},
   {9, 13, 23},
   {18, 12, 20},
   {21},
   {16, 18, 14},
   {25, 19},
   {20},
   {21},
   {26, 27, 20},
   {24, 17, 22},
   {25, 19, 21},
   {24, 19, 22},
   {27, 28, 30},
   {22, 30},
   {23},
   {28, 31},
   {26, 29},
   {25},
   {26, 27, 28},
   {31},
   {29, 31},
   {29},
   {32},
   {32},
   {32},
   {  } ];

deadline = array2d(1..32, 1..3, [4, 0, 1, 11, 5, 0, 17, 3, 5, 24, 3, 1, 40, 1, 4, 45, 0, 1, 50, 3, 4, 52, 4, 0, 54, 2, 5, 58, 3, 2, 62, 3, 3, 65, 0, 3, 68, 1, 1, 71, 3, 3, 75, 5, 0, 78, 0, 5, 83, 3, 0, 83, 0, 1, 94, 1, 4, 97, 2, 4, 100, 3, 5, 104, 2, 5, 108, 2, 4, 110, 1, 4, 112, 5, 3, 115, 4, 5, 121, 1, 4, 123, 0, 0, 123, 2, 4, 128, 3, 0, 129, 2, 1, 135, 4, 1]);
