n_res = 4;
rc = [ 19, 29, 24, 27 ];
n_tasks = 32;
d = [0, 6, 6, 9, 1, 5, 10, 2, 6, 7, 1, 6, 1, 10, 8, 5, 7, 9, 5, 10, 3, 5, 2, 4, 8, 2, 2, 6, 2, 10, 9, 0];
rr = array2d(1..4, 1..32, [0, 10, 9, 1, 1, 0, 0, 3, 2, 3, 0, 4, 8, 0, 6, 0, 3, 7, 2, 2, 0, 1, 7, 0, 0, 1, 6, 10, 0, 6, 0, 0, 0, 10, 3, 0, 0, 9, 9, 5, 0, 5, 4, 4, 3, 3, 10, 9, 0, 6, 3, 3, 8, 1, 6, 8, 4, 0, 0, 8, 7, 8, 4, 0, 0, 4, 0, 2, 8, 5, 6, 2, 4, 0, 8, 4, 5, 9, 0, 10, 3, 7, 2, 4, 0, 5, 7, 5, 6, 7, 7, 10, 4, 1, 0, 0, 0, 0, 0, 2, 6, 4, 0, 0, 10, 2, 0, 8, 5, 9, 4, 0, 0, 0, 8, 7, 3, 3, 8, 8, 4, 3, 4, 1, 3, 6, 2, 0]);

suc = [
   {2, 3, 4},
   {29, 23},
   {10, 26, 13},
   {5, 6, 7},
   {24, 18, 20},
   {11, 14, 23},
   {8, 9, 17},
   {12, 20},
   {16},
   {17, 12, 15},
   {15},
   {21},
   {22},
   {27, 19},
   {19, 20},
   {25, 21},
   {27, 21},
   {19},
   {28, 22, 31},
   {28, 30},
   {28, 22, 23},
   {30},
   {31},
   {26},
   {26, 27, 30},
   {31},
   {29},
   {29},
   {32},
   {32},
   {32},
   {  } ];

deadline = array2d(1..32, 1..3, [2, 5, 4, 5, 1, 5, 8, 1, 5, 12, 0, 5, 12, 3, 4, 13, 1, 0, 25, 2, 2, 26, 3, 0, 28, 3, 5, 30, 0, 2, 30, 4, 0, 41, 0, 1, 45, 5, 2, 48, 4, 5, 48, 3, 1, 52, 0, 1, 53, 0, 3, 54, 2, 5, 54, 0, 0, 78, 1, 1, 81, 4, 1, 82, 0, 2, 82, 1, 2, 87, 5, 4, 89, 4, 1, 92, 3, 3, 99, 2, 3, 101, 0, 5, 105, 5, 4, 106, 2, 0, 111, 4, 0, 115, 1, 0]);
