n_res = 4;
rc = [ 39, 45, 45, 43 ];
n_tasks = 32;
d = [0, 8, 7, 4, 10, 7, 1, 1, 1, 5, 3, 4, 8, 7, 10, 5, 6, 10, 5, 1, 3, 6, 3, 4, 5, 3, 3, 7, 9, 8, 3, 0];
rr = array2d(1..4, 1..32, [0, 8, 7, 3, 7, 2, 4, 7, 6, 8, 7, 9, 5, 9, 2, 8, 5, 3, 1, 1, 7, 2, 6, 7, 7, 5, 8, 8, 1, 1, 9, 0, 0, 2, 5, 10, 10, 10, 6, 1, 5, 10, 9, 1, 3, 9, 9, 9, 7, 10, 4, 1, 10, 2, 5, 4, 6, 3, 3, 7, 5, 2, 2, 0, 0, 2, 5, 1, 8, 10, 1, 10, 10, 5, 5, 10, 7, 2, 10, 1, 7, 2, 6, 9, 9, 6, 4, 5, 3, 5, 5, 1, 10, 4, 4, 0, 0, 7, 4, 8, 7, 10, 10, 3, 2, 1, 5, 5, 6, 9, 3, 4, 3, 4, 3, 7, 1, 5, 10, 7, 2, 5, 9, 9, 2, 6, 4, 0]);

suc = [
   {2, 3, 4},
   {8, 9, 10},
   {17, 12, 6},
   {5, 14, 15},
   {11, 13, 7},
   {16, 24, 22},
   {16, 31},
   {18, 13, 22},
   {19, 12},
   {18, 13, 15},
   {27, 20, 22},
   {24, 20, 23},
   {16, 25, 27},
   {17, 19, 23},
   {24, 17, 19},
   {30},
   {28, 21},
   {27, 20, 23},
   {26, 21},
   {25, 21},
   {29, 31},
   {26},
   {25, 30},
   {29},
   {26},
   {28},
   {28, 30},
   {29, 31},
   {32},
   {32},
   {32},
   {  } ];

deadline = array2d(1..32, 1..3, [1, 4, 0, 7, 2, 2, 14, 1, 0, 14, 0, 5, 15, 4, 5, 15, 2, 0, 17, 2, 4, 22, 3, 0, 23, 1, 4, 37, 3, 4, 37, 1, 5, 41, 4, 5, 53, 1, 3, 61, 5, 2, 68, 4, 2, 77, 4, 5, 80, 1, 5, 80, 3, 4, 82, 3, 0, 83, 5, 4, 84, 1, 1, 87, 3, 5, 92, 2, 3, 95, 2, 4, 95, 0, 2, 98, 0, 3, 101, 5, 2, 101, 5, 1, 103, 1, 4, 110, 1, 3, 111, 0, 0, 123, 2, 0]);
