n_res = 4;
rc = [ 20, 25, 20, 18 ];
n_tasks = 32;
d = [0, 2, 10, 4, 5, 8, 9, 2, 1, 3, 1, 5, 8, 5, 6, 8, 9, 8, 2, 3, 8, 4, 1, 2, 5, 5, 3, 10, 6, 3, 6, 0];
rr = array2d(1..4, 1..32, [0, 5, 6, 3, 3, 9, 8, 10, 9, 10, 8, 6, 5, 4, 3, 6, 4, 1, 1, 3, 1, 3, 8, 6, 9, 10, 10, 6, 8, 10, 7, 0, 0, 6, 9, 8, 8, 8, 1, 3, 5, 4, 9, 10, 10, 8, 1, 10, 10, 5, 7, 9, 10, 3, 8, 9, 8, 2, 5, 1, 8, 8, 3, 0, 0, 8, 1, 2, 6, 1, 10, 7, 7, 6, 10, 5, 10, 3, 10, 6, 3, 4, 5, 10, 4, 2, 4, 4, 2, 2, 4, 7, 6, 3, 2, 0, 0, 9, 7, 8, 9, 1, 5, 6, 4, 1, 1, 6, 8, 5, 4, 2, 7, 7, 4, 1, 8, 5, 6, 1, 2, 5, 7, 6, 5, 4, 6, 0]);

suc = [
   {2, 3, 4},
   {8, 18, 21},
   {11, 23, 15},
   {10, 5, 7},
   {6, 23},
   {9, 13, 15},
   {16, 20, 14},
   {20, 28, 22},
   {19, 24, 11},
   {11, 13, 15},
   {12, 28, 14},
   {16, 17, 29},
   {16, 24, 19},
   {18, 26},
   {17, 19, 28},
   {21, 31},
   {25, 18, 20},
   {31},
   {25, 26, 21},
   {30},
   {27},
   {24, 23},
   {26, 27},
   {25},
   {27},
   {29, 30},
   {30},
   {29, 31},
   {32},
   {32},
   {32},
   {  } ];

deadline = array2d(1..32, 1..3, [2, 5, 5, 3, 4, 0, 7, 3, 4, 8, 2, 3, 9, 5, 5, 16, 3, 5, 16, 5, 3, 36, 5, 2, 36, 1, 4, 41, 3, 0, 42, 5, 4, 43, 2, 3, 43, 1, 4, 45, 5, 0, 48, 3, 5, 49, 3, 1, 50, 1, 2, 53, 3, 0, 55, 0, 3, 61, 3, 0, 62, 2, 4, 63, 4, 4, 72, 3, 5, 80, 0, 2, 80, 3, 4, 82, 3, 2, 89, 2, 0, 98, 1, 4, 102, 2, 0, 106, 0, 0, 108, 5, 2, 114, 3, 1]);
