n_res = 4;
rc = [ 30, 27, 17, 21 ];
n_tasks = 32;
d = [0, 8, 3, 7, 2, 3, 6, 7, 9, 9, 3, 1, 2, 5, 2, 5, 9, 3, 2, 3, 3, 8, 9, 4, 7, 3, 9, 9, 4, 5, 2, 0];
rr = array2d(1..4, 1..32, [0, 7, 8, 9, 10, 1, 1, 9, 2, 7, 0, 0, 0, 2, 7, 7, 2, 5, 8, 4, 0, 0, 1, 9, 0, 8, 3, 8, 0, 0, 9, 0, 0, 10, 6, 10, 0, 3, 10, 0, 3, 10, 5, 4, 1, 7, 3, 3, 3, 9, 1, 2, 0, 5, 7, 3, 8, 1, 1, 7, 2, 9, 9, 0, 0, 3, 1, 0, 0, 2, 3, 3, 0, 5, 3, 7, 4, 0, 6, 6, 8, 4, 7, 6, 9, 8, 10, 0, 0, 3, 7, 6, 2, 8, 0, 0, 0, 0, 2, 9, 8, 0, 9, 0, 0, 10, 6, 3, 8, 10, 8, 0, 4, 6, 0, 0, 8, 0, 4, 1, 0, 10, 0, 5, 7, 4, 0, 0]);

suc = [
   {2, 3, 4},
   {17, 14, 7},
   {20, 5, 6},
   {24},
   {18},
   {8, 19, 21},
   {10},
   {16, 9},
   {24, 12},
   {11},
   {13, 15},
   {14},
   {21, 22},
   {25, 31},
   {26, 27},
   {29},
   {21},
   {29},
   {25},
   {24},
   {28},
   {23},
   {25, 27, 31},
   {26, 31},
   {30},
   {28},
   {28},
   {29},
   {32},
   {32},
   {32},
   {  } ];

deadline = array2d(1..32, 1..3, [2, 5, 0, 3, 0, 5, 9, 4, 0, 30, 5, 2, 31, 4, 5, 32, 4, 2, 40, 4, 0, 45, 2, 2, 50, 5, 0, 61, 1, 5, 68, 0, 5, 76, 4, 5, 77, 5, 2, 86, 3, 4, 94, 0, 4, 101, 2, 4, 102, 3, 2, 108, 0, 5, 115, 2, 4, 116, 1, 2, 116, 2, 0, 128, 4, 3, 134, 2, 0, 142, 2, 1, 143, 0, 5, 144, 3, 2, 146, 1, 4, 147, 5, 5, 148, 0, 0, 150, 2, 1, 153, 1, 0, 154, 5, 2]);
