n_res = 4;
rc = [ 25, 20, 18, 23 ];
n_tasks = 32;
d = [0, 3, 3, 5, 3, 7, 2, 3, 8, 9, 8, 8, 10, 4, 2, 6, 5, 9, 5, 7, 4, 4, 1, 10, 10, 9, 4, 3, 5, 6, 8, 0];
rr = array2d(1..4, 1..32, [0, 3, 0, 2, 0, 10, 0, 9, 2, 0, 0, 10, 0, 2, 0, 2, 0, 0, 9, 0, 8, 0, 0, 1, 0, 9, 0, 0, 5, 0, 0, 0, 0, 0, 0, 1, 0, 6, 2, 0, 4, 2, 4, 9, 7, 4, 5, 0, 8, 3, 6, 0, 0, 4, 3, 4, 0, 0, 2, 0, 0, 6, 9, 0, 0, 1, 0, 10, 0, 0, 0, 4, 7, 0, 0, 4, 5, 0, 0, 0, 9, 10, 8, 0, 0, 5, 0, 0, 0, 0, 2, 0, 3, 0, 0, 0, 0, 0, 2, 0, 2, 4, 10, 4, 6, 9, 0, 0, 0, 0, 0, 7, 0, 0, 0, 2, 3, 0, 0, 0, 9, 4, 8, 10, 2, 1, 7, 0]);

suc = [
   {2, 3, 4},
   {8, 12, 5},
   {10, 11, 13},
   {14, 6, 7},
   {17, 20, 29},
   {9, 19, 13},
   {9, 11, 13},
   {9, 11, 20},
   {16, 24, 21},
   {18, 20, 15},
   {25, 18, 15},
   {17, 29, 25},
   {28, 21, 15},
   {16, 19, 28},
   {16, 17, 23},
   {22, 31},
   {22},
   {19, 30},
   {21, 31},
   {26, 22},
   {27},
   {30},
   {26, 27},
   {25, 27},
   {26, 28},
   {30},
   {29},
   {31},
   {32},
   {32},
   {32},
   {  } ];

deadline = array2d(1..32, 1..3, [8, 5, 5, 8, 2, 4, 8, 0, 0, 9, 2, 5, 17, 3, 4, 21, 2, 0, 33, 0, 4, 42, 5, 0, 43, 4, 4, 43, 1, 0, 44, 5, 3, 48, 1, 1, 51, 4, 5, 64, 1, 1, 65, 0, 3, 66, 4, 2, 75, 0, 0, 77, 4, 3, 78, 1, 2, 82, 2, 3, 83, 3, 2, 83, 5, 2, 89, 4, 3, 90, 1, 1, 93, 1, 3, 97, 3, 1, 98, 5, 1, 108, 1, 1, 117, 3, 0, 118, 1, 5, 124, 3, 4, 135, 0, 0]);
