n_res = 4;
rc = [ 22, 34, 24, 27 ];
n_tasks = 32;
d = [0, 9, 10, 9, 10, 7, 1, 4, 4, 4, 8, 9, 3, 2, 1, 3, 7, 7, 4, 6, 9, 9, 8, 8, 6, 10, 7, 6, 4, 1, 9, 0];
rr = array2d(1..4, 1..32, [0, 7, 0, 10, 3, 5, 3, 4, 1, 0, 10, 1, 8, 8, 1, 10, 3, 0, 10, 0, 2, 0, 8, 9, 2, 7, 2, 10, 5, 8, 0, 0, 0, 1, 0, 4, 0, 10, 2, 7, 9, 2, 0, 8, 5, 2, 0, 8, 3, 3, 1, 5, 4, 0, 10, 0, 7, 10, 0, 6, 6, 1, 3, 0, 0, 6, 6, 1, 3, 8, 5, 0, 0, 6, 0, 9, 6, 4, 2, 8, 7, 0, 0, 1, 0, 8, 0, 1, 5, 6, 0, 9, 7, 2, 7, 0, 0, 8, 6, 7, 8, 0, 3, 10, 8, 1, 2, 5, 0, 7, 2, 0, 6, 1, 9, 0, 7, 8, 6, 4, 10, 0, 0, 9, 0, 4, 0, 0]);

suc = [
   {2, 3, 4},
   {29, 12, 13},
   {6, 7},
   {9, 5},
   {27},
   {8, 19},
   {22},
   {17, 10, 21},
   {28},
   {11, 22},
   {16},
   {24, 30, 15},
   {20, 14, 23},
   {26, 15},
   {19},
   {18},
   {26},
   {25},
   {27},
   {28},
   {31},
   {24, 30},
   {30},
   {31},
   {26, 29},
   {27},
   {28},
   {31},
   {32},
   {32},
   {32},
   {  } ];

deadline = array2d(1..32, 1..3, [1, 5, 4, 22, 2, 1, 22, 4, 0, 23, 5, 3, 24, 0, 4, 46, 3, 3, 74, 2, 1, 75, 4, 2, 78, 4, 2, 91, 1, 5, 92, 5, 2, 93, 3, 2, 95, 2, 2, 110, 3, 5, 112, 4, 0, 114, 0, 5, 115, 0, 0, 119, 1, 1, 149, 1, 3, 151, 1, 3, 154, 2, 3, 159, 4, 3, 170, 4, 1, 170, 2, 3, 173, 0, 3, 181, 5, 0, 182, 3, 3, 184, 2, 5, 189, 4, 3, 194, 2, 4, 202, 5, 1, 202, 3, 4]);
