n_res = 4;
rc = [ 16, 23, 30, 23 ];
n_tasks = 32;
d = [0, 9, 7, 1, 8, 10, 8, 3, 7, 4, 1, 6, 7, 3, 1, 2, 1, 6, 6, 4, 10, 2, 9, 3, 2, 3, 10, 3, 5, 8, 10, 0];
rr = array2d(1..4, 1..32, [0, 1, 4, 1, 5, 3, 4, 0, 0, 8, 0, 0, 1, 8, 0, 0, 0, 0, 0, 0, 7, 0, 0, 0, 3, 5, 0, 0, 0, 0, 0, 0, 0, 0, 0, 3, 2, 0, 0, 3, 1, 0, 7, 0, 3, 3, 0, 7, 0, 7, 0, 10, 1, 9, 1, 4, 0, 0, 0, 5, 0, 8, 9, 0, 0, 2, 0, 0, 0, 0, 3, 8, 0, 5, 0, 2, 8, 0, 2, 4, 1, 4, 0, 0, 9, 10, 4, 1, 0, 9, 0, 10, 0, 0, 0, 0, 0, 0, 5, 0, 8, 0, 7, 0, 10, 0, 6, 4, 0, 0, 2, 6, 9, 6, 2, 0, 0, 3, 0, 0, 3, 0, 2, 0, 4, 0, 1, 0]);

suc = [
   {2, 3, 4},
   {8, 27},
   {5, 6, 7},
   {9, 19, 12},
   {8, 9, 23},
   {11, 20},
   {25, 20},
   {10, 21, 14},
   {10, 21},
   {28, 13, 15},
   {17, 12, 15},
   {24},
   {16, 18},
   {16, 29, 30},
   {16},
   {31},
   {22},
   {30},
   {25, 26, 20},
   {28, 29},
   {30},
   {24, 23},
   {31},
   {25, 26, 29},
   {27},
   {27},
   {28},
   {31},
   {32},
   {32},
   {32},
   {  } ];

deadline = array2d(1..32, 1..3, [1, 3, 2, 4, 5, 1, 4, 3, 2, 16, 0, 3, 20, 4, 2, 20, 4, 2, 23, 4, 4, 31, 1, 2, 35, 5, 0, 43, 4, 0, 44, 4, 1, 45, 4, 5, 52, 1, 2, 72, 2, 5, 72, 5, 3, 74, 5, 5, 75, 0, 5, 77, 2, 1, 81, 1, 3, 81, 5, 1, 87, 0, 4, 91, 4, 2, 97, 0, 5, 98, 2, 5, 101, 0, 5, 108, 3, 4, 109, 1, 2, 109, 2, 5, 112, 1, 3, 116, 2, 2, 128, 0, 1, 132, 2, 1]);
