n_res = 4;
rc = [ 54, 45, 48, 38 ];
n_tasks = 32;
d = [0, 2, 1, 4, 10, 10, 1, 1, 4, 10, 3, 1, 2, 3, 10, 3, 4, 10, 5, 5, 1, 6, 2, 4, 8, 5, 4, 10, 10, 4, 4, 0];
rr = array2d(1..4, 1..32, [0, 9, 9, 4, 6, 10, 3, 6, 6, 1, 1, 10, 5, 10, 6, 5, 10, 4, 3, 1, 2, 4, 3, 8, 5, 2, 7, 5, 1, 7, 7, 0, 0, 9, 9, 8, 10, 8, 2, 1, 2, 3, 4, 10, 4, 1, 2, 3, 9, 10, 6, 3, 9, 8, 7, 1, 8, 6, 3, 1, 7, 2, 4, 0, 0, 4, 10, 6, 7, 9, 10, 7, 4, 6, 9, 9, 1, 2, 2, 1, 9, 7, 2, 5, 6, 10, 2, 7, 9, 4, 1, 6, 8, 5, 5, 0, 0, 1, 5, 3, 2, 2, 6, 2, 9, 9, 2, 2, 3, 3, 4, 5, 10, 4, 8, 4, 3, 1, 7, 5, 7, 2, 1, 3, 8, 3, 10, 0]);

suc = [
   {2, 3, 4},
   {12, 13, 7},
   {8, 5, 6},
   {21},
   {10, 18},
   {16, 11, 22},
   {15},
   {9, 14},
   {29},
   {30},
   {24, 25, 19},
   {31},
   {26, 27, 15},
   {20},
   {18},
   {17, 29},
   {21},
   {23},
   {20, 28},
   {29},
   {24, 30},
   {25},
   {30},
   {28},
   {26},
   {28},
   {31},
   {31},
   {32},
   {32},
   {32},
   {  } ];

deadline = array2d(1..32, 1..3, [3, 0, 1, 6, 0, 4, 6, 2, 3, 8, 1, 4, 11, 1, 3, 12, 3, 0, 28, 3, 3, 33, 0, 2, 47, 1, 0, 53, 1, 1, 56, 2, 3, 57, 1, 3, 58, 0, 1, 59, 4, 0, 59, 3, 1, 81, 3, 1, 82, 5, 4, 83, 0, 5, 86, 5, 3, 87, 2, 0, 90, 5, 1, 92, 1, 2, 93, 0, 2, 96, 4, 3, 96, 2, 0, 101, 2, 0, 101, 5, 1, 103, 1, 4, 106, 5, 0, 107, 5, 1, 109, 1, 4, 110, 1, 5]);
