n_res = 4;
rc = [ 15, 18, 11, 14 ];
n_tasks = 32;
d = [0, 1, 5, 7, 6, 2, 9, 4, 9, 7, 3, 10, 6, 9, 4, 5, 10, 10, 5, 10, 1, 1, 8, 10, 3, 4, 3, 4, 3, 3, 2, 0];
rr = array2d(1..4, 1..32, [0, 0, 0, 0, 0, 0, 0, 0, 9, 0, 0, 0, 0, 0, 0, 0, 0, 0, 0, 0, 0, 0, 0, 0, 9, 8, 0, 0, 0, 0, 0, 0, 0, 0, 0, 0, 0, 0, 2, 2, 0, 0, 0, 0, 0, 0, 0, 0, 0, 0, 10, 0, 1, 10, 0, 1, 0, 0, 0, 1, 10, 6, 6, 0, 0, 10, 0, 0, 9, 0, 0, 0, 0, 0, 0, 0, 8, 0, 3, 8, 3, 1, 0, 0, 0, 0, 0, 0, 0, 0, 3, 0, 0, 0, 0, 0, 0, 0, 5, 3, 0, 7, 0, 0, 0, 2, 8, 1, 0, 2, 0, 0, 0, 0, 0, 5, 0, 0, 2, 0, 0, 0, 0, 0, 0, 0, 0, 0]);

suc = [
   {2, 3, 4},
   {24, 20, 5},
   {24, 11, 14},
   {8, 6, 7},
   {9, 14},
   {9, 12},
   {9},
   {10, 21, 15},
   {19, 13},
   {17, 18, 12},
   {16, 22, 15},
   {31},
   {29, 15},
   {17},
   {28},
   {20, 28, 23},
   {27},
   {24, 19, 29},
   {28},
   {27},
   {25, 26, 23},
   {25, 26},
   {31},
   {25, 26},
   {30},
   {31},
   {29, 30},
   {30},
   {32},
   {32},
   {32},
   {  } ];

deadline = array2d(1..32, 1..3, [1, 0, 4, 1, 1, 3, 2, 4, 2, 8, 5, 2, 9, 3, 3, 10, 0, 0, 14, 2, 5, 18, 0, 0, 28, 3, 3, 29, 4, 2, 39, 1, 0, 39, 2, 3, 54, 1, 4, 58, 0, 3, 60, 1, 1, 61, 1, 2, 76, 1, 4, 77, 5, 4, 81, 3, 2, 82, 1, 1, 87, 4, 1, 88, 1, 1, 90, 0, 4, 92, 3, 4, 94, 3, 4, 97, 5, 3, 97, 4, 4, 97, 2, 4, 100, 4, 3, 105, 3, 5, 105, 1, 3, 109, 1, 5]);
