n_res = 4;
rc = [ 17, 9, 14, 17 ];
n_tasks = 32;
d = [0, 5, 7, 4, 5, 4, 4, 4, 9, 10, 4, 5, 2, 1, 10, 6, 1, 8, 1, 9, 6, 1, 1, 8, 8, 3, 3, 6, 10, 5, 5, 0];
rr = array2d(1..4, 1..32, [0, 0, 4, 0, 0, 0, 0, 0, 0, 0, 6, 0, 8, 0, 8, 0, 0, 0, 0, 0, 0, 0, 0, 0, 0, 0, 0, 3, 10, 0, 0, 0, 0, 0, 0, 3, 0, 0, 0, 0, 0, 0, 0, 1, 0, 0, 0, 0, 6, 0, 8, 8, 8, 5, 0, 0, 0, 0, 0, 0, 0, 0, 0, 0, 0, 9, 0, 0, 1, 0, 0, 0, 0, 2, 0, 0, 0, 7, 0, 2, 0, 1, 0, 0, 0, 0, 0, 7, 0, 0, 10, 0, 0, 7, 0, 0, 0, 0, 0, 0, 0, 5, 4, 6, 3, 0, 0, 0, 0, 0, 0, 0, 0, 0, 0, 0, 0, 0, 9, 0, 5, 4, 0, 0, 0, 0, 3, 0]);

suc = [
   {2, 3, 4},
   {13, 6, 15},
   {8, 11, 5},
   {24, 18, 12},
   {27, 7},
   {30},
   {10},
   {9},
   {20},
   {16},
   {17, 31},
   {22},
   {16, 19, 14},
   {30},
   {25, 20, 23},
   {26},
   {18, 29},
   {30},
   {28, 22},
   {21},
   {26},
   {31},
   {27},
   {25},
   {28},
   {28},
   {29},
   {29, 31},
   {32},
   {32},
   {32},
   {  } ];

deadline = array2d(1..32, 1..3, [8, 3, 1, 9, 1, 0, 13, 2, 0, 14, 0, 2, 16, 5, 0, 19, 4, 2, 20, 0, 2, 25, 4, 0, 32, 5, 3, 34, 3, 4, 34, 3, 5, 37, 2, 2, 41, 1, 4, 47, 3, 4, 53, 0, 3, 57, 0, 1, 57, 0, 0, 60, 4, 4, 63, 0, 4, 74, 4, 5, 75, 4, 1, 80, 2, 1, 85, 2, 4, 88, 1, 0, 90, 0, 2, 90, 5, 2, 90, 5, 5, 96, 2, 5, 98, 2, 0, 111, 3, 3, 131, 4, 4, 135, 3, 2]);
