n_res = 4;
rc = [ 17, 15, 17, 17 ];
n_tasks = 32;
d = [0, 10, 2, 8, 5, 8, 8, 1, 3, 1, 9, 10, 1, 6, 9, 7, 3, 9, 9, 2, 5, 2, 8, 2, 6, 10, 9, 2, 3, 4, 4, 0];
rr = array2d(1..4, 1..32, [0, 6, 5, 2, 2, 3, 5, 2, 6, 9, 8, 9, 5, 1, 10, 4, 1, 3, 9, 3, 3, 6, 1, 9, 1, 9, 4, 7, 2, 1, 5, 0, 0, 9, 6, 7, 1, 1, 2, 3, 10, 1, 6, 1, 3, 9, 6, 1, 5, 4, 1, 5, 7, 8, 10, 3, 10, 6, 3, 6, 9, 5, 2, 0, 0, 7, 6, 6, 4, 9, 3, 9, 3, 1, 1, 8, 1, 5, 5, 9, 2, 5, 1, 10, 8, 9, 2, 4, 2, 6, 2, 5, 4, 2, 10, 0, 0, 10, 5, 2, 8, 7, 6, 3, 2, 9, 5, 7, 10, 5, 2, 6, 8, 5, 8, 3, 9, 3, 3, 9, 10, 3, 2, 6, 2, 3, 1, 0]);

suc = [
   {2, 3, 4},
   {19, 5, 15},
   {26, 11, 6},
   {9, 21, 14},
   {8, 20, 7},
   {10, 18, 22},
   {12},
   {11},
   {30},
   {16, 31},
   {13},
   {17, 22},
   {23},
   {25},
   {24, 17},
   {27},
   {28, 31},
   {30},
   {21},
   {27},
   {26},
   {23},
   {24, 29},
   {28},
   {28},
   {27},
   {29},
   {30},
   {32},
   {32},
   {32},
   {  } ];

deadline = array2d(1..32, 1..3, [11, 0, 0, 16, 1, 1, 27, 5, 3, 27, 3, 2, 31, 4, 1, 32, 4, 5, 35, 1, 1, 36, 4, 2, 37, 0, 4, 46, 5, 5, 47, 4, 5, 53, 5, 3, 53, 1, 1, 56, 4, 1, 57, 4, 3, 62, 2, 3, 65, 1, 0, 69, 1, 4, 70, 1, 2, 77, 3, 4, 86, 1, 3, 94, 4, 4, 104, 0, 3, 104, 1, 1, 106, 0, 4, 111, 0, 1, 116, 1, 2, 118, 5, 3, 118, 1, 2, 119, 3, 4, 125, 4, 3, 127, 0, 3]);
