n_res = 4;
rc = [ 24, 23, 25, 33 ];
n_tasks = 32;
d = [0, 2, 5, 6, 4, 2, 9, 9, 4, 8, 7, 10, 1, 1, 1, 5, 2, 5, 5, 9, 10, 1, 5, 4, 10, 5, 9, 10, 2, 10, 3, 0];
rr = array2d(1..4, 1..32, [0, 1, 0, 8, 8, 3, 5, 4, 8, 0, 1, 2, 10, 1, 4, 0, 4, 0, 2, 0, 0, 9, 4, 5, 9, 1, 7, 7, 1, 4, 0, 0, 0, 2, 5, 10, 3, 1, 0, 0, 0, 0, 6, 10, 8, 3, 0, 9, 3, 10, 7, 5, 8, 0, 8, 7, 0, 8, 3, 0, 3, 0, 4, 0, 0, 4, 9, 10, 0, 8, 5, 0, 8, 0, 6, 3, 2, 6, 9, 6, 9, 9, 9, 4, 0, 0, 3, 3, 0, 0, 4, 0, 0, 3, 5, 0, 0, 0, 10, 0, 8, 5, 10, 3, 10, 5, 6, 8, 8, 1, 9, 9, 10, 0, 0, 1, 8, 6, 8, 5, 1, 7, 7, 3, 10, 7, 1, 0]);

suc = [
   {2, 3, 4},
   {10, 11, 28},
   {16, 9, 15},
   {5, 6, 7},
   {8},
   {18, 27},
   {18, 14},
   {19, 12, 13},
   {10},
   {22},
   {25},
   {30},
   {20},
   {31},
   {24, 21},
   {17, 27, 30},
   {18},
   {21},
   {29},
   {23},
   {26},
   {23},
   {26},
   {25},
   {26, 27, 30},
   {29},
   {31},
   {31},
   {32},
   {32},
   {32},
   {  } ];

deadline = array2d(1..32, 1..3, [4, 1, 2, 5, 0, 4, 15, 1, 4, 15, 2, 5, 17, 2, 3, 17, 4, 2, 18, 0, 0, 20, 5, 5, 21, 3, 1, 21, 5, 0, 24, 3, 5, 24, 3, 1, 31, 3, 4, 31, 5, 5, 38, 2, 0, 40, 4, 1, 41, 3, 4, 46, 3, 0, 50, 3, 5, 52, 3, 4, 56, 3, 4, 58, 5, 5, 60, 5, 0, 66, 5, 2, 67, 5, 0, 72, 2, 5, 74, 1, 4, 78, 1, 3, 87, 3, 5, 88, 3, 4, 94, 5, 4, 99, 1, 4]);
