n_res = 4;
rc = [ 28, 10, 9, 8 ];
n_tasks = 32;
d = [0, 8, 5, 8, 9, 1, 6, 10, 10, 7, 10, 2, 10, 3, 8, 1, 5, 7, 1, 3, 5, 6, 10, 2, 8, 5, 1, 2, 4, 7, 8, 0];
rr = array2d(1..4, 1..32, [0, 0, 0, 0, 0, 0, 0, 10, 0, 0, 8, 0, 0, 0, 0, 5, 0, 0, 0, 0, 0, 10, 2, 5, 6, 0, 2, 0, 0, 0, 0, 0, 0, 5, 2, 3, 0, 0, 0, 0, 0, 3, 0, 0, 0, 5, 0, 0, 0, 0, 0, 0, 8, 0, 0, 0, 0, 0, 0, 9, 0, 0, 0, 0, 0, 0, 0, 0, 2, 1, 0, 0, 0, 0, 0, 3, 0, 0, 4, 0, 9, 3, 7, 0, 0, 0, 0, 0, 0, 0, 0, 0, 6, 5, 0, 0, 0, 0, 0, 0, 0, 0, 1, 0, 7, 0, 0, 0, 2, 0, 0, 0, 0, 0, 0, 4, 0, 0, 0, 0, 0, 4, 0, 0, 0, 0, 1, 0]);

suc = [
   {2, 3, 4},
   {8, 25, 11},
   {9, 27, 5},
   {10, 12, 6},
   {15, 22, 7},
   {17, 23},
   {18, 29, 13},
   {26},
   {20, 30, 15},
   {18, 20, 21},
   {12, 13},
   {19, 14},
   {16, 19},
   {24},
   {18, 29},
   {17, 26, 23},
   {20, 30},
   {19},
   {23},
   {31},
   {29},
   {24, 25},
   {24, 28},
   {31},
   {26},
   {28, 30},
   {28},
   {31},
   {32},
   {32},
   {32},
   {  } ];

deadline = array2d(1..32, 1..3, [3, 3, 0, 8, 5, 3, 14, 1, 3, 18, 3, 5, 18, 5, 1, 21, 4, 5, 22, 5, 0, 23, 0, 3, 24, 1, 1, 25, 1, 3, 29, 3, 1, 36, 5, 1, 42, 3, 1, 47, 1, 0, 47, 2, 5, 55, 2, 3, 64, 2, 2, 65, 4, 2, 78, 5, 0, 79, 4, 5, 82, 3, 3, 85, 2, 3, 91, 1, 3, 94, 0, 4, 95, 3, 0, 106, 4, 5, 110, 4, 0, 112, 4, 4, 113, 5, 0, 123, 5, 5, 125, 4, 5, 127, 0, 4]);
