n_res = 4;
rc = [ 15, 11, 12, 18 ];
n_tasks = 32;
d = [0, 1, 2, 2, 2, 1, 2, 10, 8, 5, 4, 1, 3, 10, 1, 6, 4, 7, 10, 10, 10, 9, 10, 4, 2, 7, 4, 4, 5, 10, 9, 0];
rr = array2d(1..4, 1..32, [0, 0, 0, 0, 0, 0, 0, 0, 0, 0, 0, 3, 0, 7, 10, 0, 0, 0, 0, 5, 0, 2, 0, 0, 3, 0, 10, 0, 0, 8, 0, 0, 0, 0, 1, 0, 2, 8, 1, 0, 0, 0, 0, 0, 2, 0, 0, 0, 0, 0, 3, 0, 6, 0, 0, 1, 0, 0, 0, 0, 0, 0, 0, 0, 0, 3, 0, 10, 0, 0, 0, 6, 1, 0, 3, 0, 0, 0, 0, 10, 0, 0, 0, 0, 0, 0, 4, 0, 0, 0, 0, 7, 0, 0, 0, 0, 0, 0, 0, 0, 0, 0, 0, 0, 0, 3, 0, 0, 0, 0, 0, 0, 4, 10, 0, 0, 0, 0, 0, 0, 0, 4, 0, 0, 7, 0, 6, 0]);

suc = [
   {2, 3, 4},
   {5, 6, 7},
   {25, 30},
   {9, 10, 21},
   {18},
   {17},
   {8},
   {16, 29},
   {11, 13},
   {17},
   {24, 12, 14},
   {27, 15},
   {18},
   {20, 28, 23},
   {17},
   {19, 31},
   {26},
   {19, 31},
   {26, 22},
   {31},
   {26},
   {27},
   {27},
   {29},
   {29},
   {28},
   {30},
   {30},
   {32},
   {32},
   {32},
   {  } ];

deadline = array2d(1..32, 1..3, [3, 1, 2, 13, 1, 1, 23, 3, 0, 25, 1, 2, 25, 0, 4, 35, 4, 3, 37, 1, 2, 40, 5, 0, 44, 0, 5, 48, 5, 3, 48, 1, 4, 48, 1, 3, 50, 2, 4, 65, 0, 2, 68, 1, 2, 71, 1, 5, 80, 3, 2, 80, 4, 2, 81, 2, 4, 84, 5, 2, 86, 1, 3, 96, 4, 1, 97, 4, 4, 102, 0, 2, 103, 5, 0, 103, 2, 1, 104, 5, 2, 116, 0, 5, 127, 4, 1, 127, 5, 0, 128, 2, 5, 129, 2, 5]);
