n_res = 4;
rc = [ 20, 20, 21, 18 ];
n_tasks = 32;
d = [0, 10, 9, 4, 8, 1, 5, 8, 1, 7, 9, 6, 4, 10, 2, 9, 5, 1, 6, 10, 6, 9, 2, 5, 10, 8, 10, 5, 2, 6, 1, 0];
rr = array2d(1..4, 1..32, [0, 10, 10, 2, 4, 6, 10, 3, 6, 2, 0, 9, 6, 10, 4, 0, 0, 6, 5, 0, 0, 9, 0, 1, 9, 0, 0, 10, 4, 5, 2, 0, 0, 10, 9, 9, 9, 9, 2, 3, 7, 1, 0, 9, 8, 3, 0, 3, 1, 0, 0, 6, 0, 3, 6, 5, 9, 0, 9, 2, 0, 1, 5, 0, 0, 10, 2, 0, 7, 5, 9, 8, 5, 2, 9, 2, 2, 0, 2, 6, 8, 0, 4, 6, 3, 10, 8, 5, 6, 1, 8, 4, 9, 0, 0, 0, 0, 0, 0, 0, 0, 1, 0, 0, 2, 7, 5, 4, 8, 9, 1, 1, 6, 0, 3, 3, 8, 10, 7, 3, 4, 6, 3, 0, 9, 1, 0, 0]);

suc = [
   {2, 3, 4},
   {17, 11, 15},
   {5, 6, 7},
   {10, 13, 14},
   {8, 12, 28},
   {10, 19, 14},
   {10, 26, 20},
   {9, 11},
   {16, 25, 13},
   {12, 28},
   {18, 19, 21},
   {17, 18, 22},
   {24, 27, 15},
   {28, 20, 21},
   {26, 23},
   {17, 18, 21},
   {31},
   {24, 27, 23},
   {25, 20, 23},
   {24, 22},
   {22},
   {27, 31},
   {29, 30},
   {29},
   {26, 29},
   {31},
   {30},
   {30},
   {32},
   {32},
   {32},
   {  } ];

deadline = array2d(1..32, 1..3, [2, 0, 2, 8, 0, 5, 11, 1, 1, 15, 0, 1, 16, 4, 5, 16, 3, 5, 18, 1, 5, 31, 3, 4, 32, 0, 3, 36, 0, 0, 47, 1, 1, 56, 2, 0, 63, 5, 4, 68, 1, 1, 71, 2, 3, 71, 5, 3, 76, 4, 1, 92, 5, 2, 93, 4, 3, 100, 2, 1, 109, 3, 3, 117, 1, 5, 127, 2, 3, 128, 2, 5, 132, 5, 2, 134, 0, 5, 141, 4, 5, 144, 2, 0, 159, 5, 4, 176, 4, 3, 182, 3, 1, 186, 3, 0]);
