n_res = 4;
rc = [ 23, 35, 22, 24 ];
n_tasks = 32;
d = [0, 10, 1, 8, 7, 10, 4, 2, 9, 9, 1, 4, 8, 7, 1, 2, 7, 3, 10, 2, 2, 6, 7, 5, 7, 7, 2, 8, 8, 4, 9, 0];
rr = array2d(1..4, 1..32, [0, 2, 0, 6, 0, 0, 0, 3, 4, 10, 5, 6, 3, 7, 9, 0, 6, 7, 0, 8, 8, 3, 1, 2, 2, 4, 5, 5, 4, 0, 0, 0, 0, 9, 0, 7, 9, 2, 5, 6, 10, 0, 6, 5, 9, 0, 5, 0, 10, 10, 2, 7, 10, 10, 0, 3, 0, 4, 9, 6, 4, 4, 7, 0, 0, 0, 8, 4, 2, 6, 7, 0, 0, 2, 8, 0, 5, 0, 1, 9, 9, 10, 4, 1, 6, 0, 6, 5, 7, 0, 4, 0, 6, 7, 9, 0, 0, 0, 6, 6, 10, 0, 1, 0, 1, 1, 10, 0, 1, 8, 0, 0, 6, 9, 5, 8, 10, 8, 10, 3, 8, 5, 3, 2, 3, 0, 2, 0]);

suc = [
   {2, 3, 4},
   {10, 21, 15},
   {19, 6, 7},
   {9, 12, 5},
   {16, 24, 18},
   {8, 14, 23},
   {17, 18, 11},
   {16, 10, 15},
   {10, 19, 21},
   {25, 18, 29},
   {12, 14, 15},
   {21, 13, 23},
   {16},
   {20, 22},
   {20, 22},
   {26, 20},
   {24, 28, 31},
   {28, 31},
   {24, 22, 23},
   {25},
   {27, 30},
   {26, 29, 30},
   {25, 26, 28},
   {29},
   {27},
   {27},
   {31},
   {30},
   {32},
   {32},
   {32},
   {  } ];

deadline = array2d(1..32, 1..3, [1, 2, 0, 2, 2, 3, 5, 0, 1, 7, 5, 0, 8, 1, 0, 13, 3, 3, 14, 2, 1, 15, 1, 2, 20, 2, 3, 32, 5, 1, 32, 1, 3, 35, 5, 5, 50, 3, 3, 52, 3, 2, 63, 0, 2, 65, 4, 1, 65, 5, 0, 67, 0, 2, 73, 0, 4, 74, 4, 2, 78, 3, 0, 84, 2, 3, 86, 0, 3, 96, 1, 3, 101, 5, 4, 101, 2, 5, 103, 2, 5, 105, 0, 4, 108, 4, 0, 110, 2, 4, 119, 0, 4, 129, 1, 3]);
