n_res = 4;
rc = [ 12, 12, 12, 12 ];
n_tasks = 32;
d = [0, 10, 8, 10, 2, 9, 9, 2, 9, 10, 10, 8, 9, 9, 3, 6, 6, 10, 9, 2, 4, 10, 1, 9, 5, 2, 8, 8, 1, 8, 1, 0];
rr = array2d(1..4, 1..32, [0, 9, 9, 4, 4, 5, 0, 1, 0, 0, 3, 0, 0, 0, 0, 1, 7, 9, 0, 0, 0, 0, 3, 4, 0, 0, 0, 1, 4, 4, 0, 0, 0, 0, 4, 6, 0, 0, 10, 0, 0, 5, 3, 9, 5, 0, 0, 0, 0, 5, 0, 0, 0, 5, 2, 0, 0, 0, 7, 3, 2, 7, 10, 0, 0, 0, 10, 10, 0, 0, 6, 6, 4, 0, 0, 0, 6, 8, 8, 0, 6, 0, 10, 5, 0, 0, 1, 0, 5, 0, 0, 3, 0, 2, 4, 0, 0, 0, 0, 0, 0, 5, 0, 0, 7, 0, 0, 1, 0, 0, 0, 1, 2, 0, 4, 6, 5, 10, 4, 3, 5, 3, 0, 0, 0, 6, 7, 0]);

suc = [
   {2, 3, 4},
   {5, 6, 15},
   {18, 13, 7},
   {26, 14, 15},
   {8, 11, 13},
   {18, 10, 11},
   {9, 11, 14},
   {18, 19, 20},
   {12, 15},
   {17, 13, 22},
   {27, 20, 28},
   {16, 19, 22},
   {21, 23},
   {25, 23},
   {16},
   {17, 27},
   {24, 21, 30},
   {27, 28},
   {24, 26, 21},
   {22, 23},
   {25, 28},
   {24, 25, 26},
   {30, 31},
   {31},
   {29},
   {29},
   {30},
   {29, 31},
   {32},
   {32},
   {32},
   {  } ];

deadline = array2d(1..32, 1..3, [7, 1, 4, 21, 1, 0, 28, 3, 1, 33, 2, 3, 36, 3, 5, 43, 0, 3, 45, 0, 0, 52, 5, 4, 57, 3, 2, 63, 2, 1, 66, 3, 5, 69, 5, 4, 75, 1, 5, 76, 1, 2, 78, 0, 4, 82, 4, 2, 86, 1, 3, 90, 4, 4, 96, 5, 3, 100, 2, 0, 101, 4, 2, 102, 4, 4, 103, 0, 5, 104, 0, 5, 105, 5, 0, 106, 0, 2, 112, 0, 5, 114, 4, 1, 126, 3, 2, 131, 5, 3, 137, 2, 5, 147, 2, 1]);
