n_res = 4;
rc = [ 15, 18, 17, 16 ];
n_tasks = 32;
d = [0, 5, 6, 4, 3, 3, 10, 9, 2, 1, 4, 5, 7, 10, 5, 2, 2, 6, 4, 9, 9, 2, 4, 3, 2, 3, 9, 6, 6, 2, 4, 0];
rr = array2d(1..4, 1..32, [0, 8, 9, 6, 5, 9, 3, 6, 3, 2, 4, 3, 6, 8, 5, 8, 2, 7, 8, 3, 3, 9, 7, 3, 3, 8, 9, 1, 1, 9, 9, 0, 0, 2, 8, 3, 6, 5, 5, 10, 4, 3, 6, 2, 6, 9, 8, 9, 8, 10, 6, 5, 7, 2, 6, 9, 6, 1, 9, 1, 10, 7, 5, 0, 0, 2, 3, 10, 3, 9, 4, 8, 5, 2, 2, 5, 4, 2, 5, 4, 4, 9, 6, 6, 5, 4, 9, 1, 1, 8, 5, 1, 1, 10, 3, 0, 0, 10, 8, 3, 9, 3, 1, 4, 6, 3, 6, 7, 6, 4, 1, 8, 6, 3, 1, 6, 5, 9, 1, 1, 6, 5, 2, 5, 3, 9, 6, 0]);

suc = [
   {2, 3, 4},
   {11, 20, 5},
   {17, 19, 6},
   {8, 10, 12},
   {9, 15, 7},
   {9, 7},
   {13},
   {18, 14},
   {24},
   {14},
   {22},
   {16},
   {29},
   {31},
   {26},
   {18, 26, 21},
   {24, 27, 29},
   {28},
   {22},
   {27, 23},
   {23},
   {25},
   {31},
   {26},
   {31},
   {28},
   {30},
   {30},
   {32},
   {32},
   {32},
   {  } ];

deadline = array2d(1..32, 1..3, [1, 5, 1, 2, 0, 3, 3, 4, 3, 7, 4, 2, 9, 1, 5, 9, 0, 3, 11, 1, 2, 15, 3, 1, 20, 3, 4, 21, 2, 1, 24, 1, 2, 24, 4, 5, 25, 1, 2, 25, 0, 3, 27, 1, 4, 27, 2, 1, 39, 0, 5, 39, 1, 3, 41, 4, 5, 43, 2, 1, 45, 2, 0, 47, 3, 1, 51, 1, 0, 51, 3, 3, 61, 2, 4, 62, 1, 0, 64, 2, 4, 65, 0, 2, 70, 2, 4, 70, 3, 5, 70, 3, 0, 79, 1, 5]);
