n_res = 4;
rc = [ 12, 14, 16, 15 ];
n_tasks = 32;
d = [0, 6, 10, 10, 5, 8, 3, 8, 10, 6, 7, 8, 5, 2, 6, 6, 9, 10, 4, 6, 10, 7, 7, 9, 3, 6, 5, 3, 10, 3, 10, 0];
rr = array2d(1..4, 1..32, [0, 0, 10, 8, 0, 1, 6, 8, 6, 0, 0, 8, 8, 6, 2, 0, 0, 0, 3, 3, 5, 6, 0, 7, 1, 1, 1, 0, 9, 5, 0, 0, 0, 9, 1, 2, 7, 6, 2, 7, 8, 7, 2, 10, 5, 0, 7, 2, 3, 6, 5, 2, 4, 1, 0, 8, 9, 0, 5, 1, 9, 5, 0, 0, 0, 8, 7, 0, 8, 0, 0, 6, 2, 6, 10, 10, 10, 7, 4, 6, 5, 0, 3, 4, 3, 5, 3, 3, 10, 0, 10, 10, 0, 7, 0, 0, 0, 7, 0, 6, 0, 3, 1, 6, 5, 3, 10, 10, 0, 0, 0, 8, 0, 6, 6, 2, 9, 8, 8, 6, 0, 8, 7, 5, 1, 0, 5, 0]);

suc = [
   {2, 3, 4},
   {17, 10, 14},
   {9, 19, 6},
   {8, 9, 5},
   {17, 11, 7},
   {25, 13},
   {13, 23},
   {10, 11, 12},
   {17, 21, 15},
   {19, 21, 15},
   {16, 22, 23},
   {29, 14},
   {21, 14, 15},
   {24, 20},
   {18, 27, 29},
   {24},
   {20, 29, 23},
   {20, 28},
   {25, 28, 22},
   {22},
   {24},
   {26, 31},
   {25, 27},
   {26, 27, 28},
   {26},
   {30},
   {30, 31},
   {30, 31},
   {32},
   {32},
   {32},
   {  } ];

deadline = array2d(1..32, 1..3, [8, 2, 4, 19, 0, 1, 22, 5, 1, 26, 3, 1, 30, 3, 3, 36, 1, 4, 39, 0, 5, 43, 0, 5, 49, 2, 5, 51, 3, 4, 54, 4, 3, 61, 4, 3, 63, 3, 4, 64, 4, 0, 69, 0, 4, 69, 5, 4, 73, 5, 4, 77, 1, 1, 80, 1, 5, 85, 2, 4, 89, 0, 5, 99, 5, 4, 107, 1, 2, 115, 5, 2, 126, 2, 5, 130, 5, 1, 138, 0, 3, 139, 4, 3, 141, 2, 3, 143, 3, 3, 143, 3, 2, 154, 4, 3]);
