n_res = 4;
rc = [ 27, 35, 25, 24 ];
n_tasks = 32;
d = [0, 5, 2, 9, 3, 2, 6, 5, 7, 1, 2, 7, 10, 7, 8, 1, 9, 9, 2, 4, 10, 10, 9, 6, 7, 8, 9, 8, 6, 9, 9, 0];
rr = array2d(1..4, 1..32, [0, 5, 7, 7, 6, 9, 4, 1, 5, 5, 6, 4, 2, 2, 10, 2, 6, 7, 7, 7, 6, 6, 1, 6, 6, 1, 6, 8, 5, 7, 6, 0, 0, 4, 3, 1, 7, 2, 9, 3, 7, 1, 9, 9, 8, 8, 3, 2, 10, 10, 7, 10, 8, 2, 8, 7, 10, 3, 3, 2, 5, 5, 9, 0, 0, 5, 3, 2, 4, 7, 7, 5, 3, 4, 2, 2, 10, 8, 2, 10, 9, 8, 7, 3, 5, 7, 7, 10, 4, 2, 4, 9, 8, 3, 1, 0, 0, 2, 10, 5, 6, 2, 4, 2, 1, 2, 3, 1, 9, 1, 5, 9, 10, 4, 3, 8, 2, 10, 1, 6, 8, 5, 6, 9, 3, 8, 7, 0]);

suc = [
   {2, 3, 4},
   {9, 6, 7},
   {18, 12, 13},
   {16, 12, 5},
   {25, 27, 22},
   {8, 10, 11},
   {18, 10, 11},
   {22, 14, 15},
   {16, 13, 15},
   {16, 26, 29},
   {24, 28, 30},
   {19, 14, 15},
   {19, 21, 23},
   {17, 23},
   {29, 21, 30},
   {31},
   {24, 20},
   {20, 21, 23},
   {24, 20, 22},
   {25, 27},
   {26},
   {30},
   {25, 26},
   {27, 29},
   {28},
   {28},
   {31},
   {31},
   {32},
   {32},
   {32},
   {  } ];

deadline = array2d(1..32, 1..3, [6, 5, 3, 7, 5, 2, 9, 2, 1, 11, 4, 4, 14, 4, 4, 17, 2, 4, 19, 2, 1, 32, 2, 3, 34, 1, 4, 36, 5, 0, 37, 1, 1, 38, 5, 4, 52, 5, 2, 54, 0, 3, 69, 2, 5, 72, 5, 5, 74, 0, 0, 76, 3, 0, 77, 2, 2, 78, 3, 4, 87, 0, 0, 92, 2, 4, 97, 1, 4, 100, 5, 1, 100, 2, 4, 102, 4, 0, 110, 2, 5, 113, 3, 1, 130, 0, 0, 131, 5, 2, 146, 3, 4, 149, 1, 1]);
