n_res = 4;
rc = [ 16, 22, 21, 16 ];
n_tasks = 32;
d = [0, 6, 6, 10, 1, 7, 10, 5, 6, 4, 8, 8, 10, 3, 6, 3, 7, 4, 4, 3, 5, 3, 1, 3, 9, 3, 3, 8, 9, 7, 9, 0];
rr = array2d(1..4, 1..32, [0, 5, 0, 0, 10, 4, 0, 3, 0, 7, 0, 9, 6, 6, 0, 3, 6, 0, 7, 0, 0, 0, 5, 0, 0, 0, 7, 0, 0, 0, 0, 0, 0, 0, 0, 8, 7, 0, 0, 7, 10, 0, 1, 0, 10, 0, 10, 9, 0, 0, 0, 0, 5, 1, 8, 8, 1, 0, 0, 0, 0, 0, 8, 0, 0, 0, 0, 4, 0, 0, 6, 10, 8, 3, 0, 0, 0, 4, 10, 0, 3, 2, 0, 5, 7, 1, 10, 7, 5, 0, 2, 4, 2, 0, 7, 0, 0, 8, 9, 0, 0, 7, 6, 0, 0, 0, 5, 9, 0, 6, 7, 0, 0, 0, 0, 0, 4, 8, 2, 0, 10, 1, 0, 10, 0, 4, 0, 0]);

suc = [
   {2, 3, 4},
   {16, 19, 13},
   {11, 30},
   {29, 5, 14},
   {10, 6},
   {8, 9, 7},
   {18, 15},
   {17, 21},
   {22, 15},
   {16, 12, 13},
   {24, 25, 29},
   {21},
   {18, 21},
   {23},
   {16, 27, 20},
   {31},
   {19},
   {27, 20, 30},
   {26, 27, 20},
   {24, 25},
   {22},
   {25, 23},
   {24, 26},
   {31},
   {28},
   {30},
   {28},
   {31},
   {32},
   {32},
   {32},
   {  } ];

deadline = array2d(1..32, 1..3, [3, 0, 1, 3, 0, 2, 8, 0, 1, 9, 5, 4, 11, 2, 0, 13, 3, 1, 24, 3, 2, 24, 1, 2, 27, 2, 0, 37, 1, 4, 38, 5, 3, 44, 0, 4, 63, 2, 1, 69, 0, 2, 73, 2, 5, 76, 1, 2, 86, 5, 2, 103, 5, 2, 107, 5, 2, 112, 0, 5, 122, 4, 0, 125, 1, 2, 131, 2, 4, 132, 3, 4, 132, 0, 0, 132, 1, 3, 133, 5, 5, 138, 1, 5, 145, 1, 5, 151, 3, 3, 151, 4, 5, 152, 1, 5]);
