n_res = 4;
rc = [ 15, 15, 15, 17 ];
n_tasks = 32;
d = [0, 6, 7, 8, 6, 2, 2, 3, 8, 6, 6, 2, 7, 4, 6, 7, 2, 6, 2, 10, 5, 6, 9, 4, 4, 9, 9, 8, 7, 10, 6, 0];
rr = array2d(1..4, 1..32, [0, 7, 3, 8, 4, 4, 4, 1, 8, 7, 7, 2, 2, 2, 2, 4, 9, 5, 4, 7, 4, 4, 3, 3, 4, 7, 8, 10, 4, 7, 2, 0, 0, 4, 4, 5, 4, 4, 10, 5, 10, 7, 2, 4, 4, 2, 8, 3, 7, 9, 2, 10, 2, 2, 2, 1, 7, 7, 6, 5, 6, 2, 1, 0, 0, 8, 7, 10, 8, 4, 8, 10, 9, 1, 1, 5, 6, 4, 3, 1, 2, 7, 1, 3, 8, 5, 3, 1, 7, 1, 3, 1, 10, 1, 3, 0, 0, 9, 5, 3, 5, 9, 7, 7, 9, 9, 6, 9, 5, 8, 1, 2, 9, 9, 3, 7, 3, 7, 7, 8, 2, 9, 6, 2, 5, 8, 3, 0]);

suc = [
   {2, 3, 4},
   {9, 5, 7},
   {11, 28, 13},
   {9, 6, 17},
   {8, 13, 6},
   {27, 25, 19},
   {24, 10},
   {16, 10, 15},
   {28, 21, 30},
   {27, 22, 23},
   {16, 17, 12},
   {18, 26, 15},
   {16, 26, 14},
   {18, 15},
   {19, 20},
   {18, 19, 20},
   {24, 20},
   {27, 21, 22},
   {24},
   {21, 22},
   {31},
   {25},
   {25, 26, 28},
   {29},
   {29, 30},
   {29},
   {30, 31},
   {31},
   {32},
   {32},
   {32},
   {  } ];

deadline = array2d(1..32, 1..3, [1, 3, 4, 6, 5, 5, 26, 0, 0, 35, 0, 5, 37, 3, 5, 41, 0, 1, 50, 5, 3, 58, 4, 3, 60, 2, 0, 63, 5, 3, 66, 0, 1, 67, 3, 5, 70, 0, 5, 74, 0, 0, 74, 1, 1, 76, 3, 0, 78, 0, 4, 81, 0, 1, 88, 2, 4, 89, 2, 2, 93, 5, 0, 94, 2, 1, 100, 5, 5, 103, 5, 4, 105, 4, 5, 107, 4, 2, 112, 5, 1, 117, 4, 4, 135, 4, 0, 139, 0, 5, 143, 5, 1, 144, 0, 2]);
