n_res = 4;
rc = [ 12, 14, 13, 22 ];
n_tasks = 32;
d = [0, 1, 7, 9, 6, 8, 7, 9, 10, 8, 4, 8, 9, 8, 3, 4, 1, 8, 1, 10, 9, 6, 3, 9, 4, 8, 1, 2, 4, 5, 8, 0];
rr = array2d(1..4, 1..32, [0, 0, 0, 6, 0, 7, 0, 0, 2, 0, 0, 0, 0, 0, 7, 0, 0, 0, 0, 3, 0, 0, 0, 0, 0, 0, 6, 0, 0, 0, 10, 0, 0, 0, 0, 0, 0, 0, 7, 5, 0, 10, 0, 0, 0, 0, 0, 0, 0, 4, 8, 0, 0, 0, 0, 0, 0, 0, 0, 5, 1, 0, 0, 0, 0, 0, 3, 0, 0, 0, 0, 0, 0, 0, 5, 3, 10, 0, 0, 0, 0, 0, 0, 0, 1, 8, 9, 0, 0, 2, 0, 0, 0, 0, 0, 0, 0, 10, 0, 0, 7, 0, 0, 0, 0, 0, 0, 0, 0, 10, 0, 1, 9, 0, 0, 0, 0, 0, 0, 8, 9, 0, 0, 0, 0, 7, 0, 0]);

suc = [
   {2, 3, 4},
   {12, 5, 6},
   {17, 7},
   {8, 25, 15},
   {8},
   {18},
   {16, 10, 27},
   {9, 11, 13},
   {26, 29},
   {13},
   {18, 21, 30},
   {24, 14},
   {20},
   {19},
   {18},
   {21, 22, 23},
   {31},
   {19},
   {22},
   {30},
   {31},
   {28},
   {31},
   {28},
   {28},
   {30},
   {29},
   {29},
   {32},
   {32},
   {32},
   {  } ];

deadline = array2d(1..32, 1..3, [1, 0, 2, 3, 0, 0, 5, 1, 2, 9, 3, 4, 10, 3, 3, 11, 0, 2, 17, 1, 1, 23, 2, 5, 23, 5, 1, 25, 2, 3, 25, 1, 1, 28, 3, 2, 33, 5, 5, 34, 0, 0, 37, 5, 2, 41, 4, 5, 41, 1, 3, 43, 4, 2, 46, 5, 2, 50, 2, 0, 59, 5, 2, 60, 5, 0, 66, 4, 1, 68, 1, 1, 70, 4, 1, 75, 3, 4, 83, 2, 3, 95, 1, 1, 100, 1, 1, 106, 5, 5, 108, 1, 0, 113, 2, 5]);
