n_res = 4;
rc = [ 12, 15, 18, 17 ];
n_tasks = 32;
d = [0, 6, 9, 5, 7, 5, 9, 9, 9, 1, 1, 6, 5, 3, 3, 2, 5, 4, 8, 8, 2, 2, 3, 6, 9, 4, 2, 2, 3, 2, 3, 0];
rr = array2d(1..4, 1..32, [0, 0, 9, 0, 0, 0, 0, 0, 0, 4, 0, 0, 0, 0, 0, 0, 0, 0, 0, 0, 0, 0, 0, 0, 0, 0, 0, 2, 2, 0, 0, 0, 0, 0, 0, 0, 0, 3, 6, 0, 0, 0, 0, 3, 9, 8, 0, 7, 0, 0, 0, 0, 3, 0, 0, 0, 0, 0, 2, 0, 0, 0, 0, 0, 0, 2, 0, 2, 0, 0, 0, 0, 0, 0, 0, 0, 0, 0, 0, 0, 5, 0, 0, 10, 0, 4, 3, 0, 9, 0, 0, 0, 0, 0, 9, 0, 0, 0, 0, 0, 6, 0, 0, 9, 6, 0, 6, 0, 0, 0, 2, 0, 0, 8, 1, 0, 0, 0, 0, 4, 0, 4, 0, 0, 0, 6, 0, 0]);

suc = [
   {2, 3, 4},
   {18, 12, 6},
   {26, 23},
   {10, 5, 30},
   {19, 21, 7},
   {8, 9, 14},
   {18, 15},
   {11, 22},
   {13},
   {23},
   {16},
   {17, 27},
   {16},
   {17, 28},
   {28},
   {25, 29},
   {24},
   {23},
   {20},
   {24},
   {26},
   {30},
   {27, 28},
   {31},
   {31},
   {29},
   {29},
   {31},
   {32},
   {32},
   {32},
   {  } ];

deadline = array2d(1..32, 1..3, [5, 4, 3, 13, 0, 3, 18, 4, 3, 19, 1, 5, 24, 2, 0, 25, 2, 1, 39, 5, 0, 40, 2, 5, 42, 5, 0, 49, 5, 5, 50, 0, 0, 51, 2, 1, 55, 5, 0, 60, 3, 3, 63, 0, 3, 65, 4, 1, 67, 4, 2, 70, 5, 2, 72, 5, 2, 73, 3, 2, 76, 4, 2, 78, 1, 5, 79, 2, 3, 82, 5, 5, 82, 3, 4, 87, 0, 5, 87, 1, 5, 91, 4, 3, 92, 3, 2, 94, 5, 3, 95, 1, 2, 97, 0, 5]);
