n_res = 4;
rc = [ 24, 30, 25, 25 ];
n_tasks = 32;
d = [0, 6, 8, 5, 9, 7, 8, 10, 6, 1, 10, 6, 3, 6, 8, 2, 8, 6, 9, 6, 9, 10, 3, 4, 10, 4, 9, 9, 3, 9, 1, 0];
rr = array2d(1..4, 1..32, [0, 5, 6, 7, 9, 9, 7, 4, 7, 9, 7, 4, 6, 2, 2, 4, 3, 6, 8, 3, 1, 4, 1, 4, 8, 2, 9, 5, 4, 5, 9, 0, 0, 7, 9, 10, 9, 8, 9, 9, 9, 2, 1, 7, 6, 5, 4, 4, 10, 7, 10, 8, 8, 3, 1, 9, 2, 10, 9, 8, 9, 7, 7, 0, 0, 7, 5, 5, 10, 4, 2, 2, 10, 2, 8, 9, 1, 6, 1, 1, 4, 3, 6, 6, 5, 4, 10, 8, 1, 2, 10, 6, 8, 7, 3, 0, 0, 2, 6, 9, 9, 5, 5, 9, 1, 6, 3, 6, 5, 3, 10, 8, 10, 7, 1, 9, 5, 4, 3, 1, 7, 8, 8, 9, 2, 9, 3, 0]);

suc = [
   {2, 3, 4},
   {8, 5, 14},
   {12, 6},
   {21},
   {15, 23, 7},
   {9, 22},
   {10, 18},
   {18, 20},
   {11},
   {17, 26, 27},
   {13},
   {25},
   {16, 25},
   {16},
   {24, 19},
   {28},
   {21},
   {24, 28},
   {22},
   {29},
   {30},
   {30, 31},
   {25},
   {27, 31},
   {27},
   {28},
   {29},
   {31},
   {32},
   {32},
   {32},
   {  } ];

deadline = array2d(1..32, 1..3, [1, 3, 0, 7, 2, 1, 11, 1, 4, 17, 4, 1, 19, 2, 4, 23, 0, 5, 26, 0, 0, 27, 4, 1, 31, 2, 2, 34, 1, 0, 35, 1, 4, 37, 2, 4, 51, 0, 3, 54, 4, 3, 61, 5, 1, 62, 5, 5, 66, 5, 1, 74, 0, 1, 78, 2, 1, 84, 4, 0, 85, 4, 0, 90, 4, 3, 94, 0, 5, 111, 1, 4, 111, 2, 5, 113, 1, 1, 117, 3, 2, 120, 3, 0, 124, 5, 0, 126, 2, 2, 129, 1, 5, 136, 1, 5]);
