n_res = 4;
rc = [ 13, 23, 13, 25 ];
n_tasks = 32;
d = [0, 3, 3, 8, 6, 8, 8, 5, 4, 8, 9, 3, 5, 10, 3, 4, 9, 7, 8, 10, 4, 6, 1, 3, 5, 9, 6, 8, 4, 5, 1, 0];
rr = array2d(1..4, 1..32, [0, 2, 0, 0, 0, 2, 0, 4, 0, 0, 0, 2, 10, 0, 8, 0, 4, 0, 0, 0, 2, 0, 0, 9, 0, 0, 2, 0, 0, 0, 0, 0, 0, 0, 0, 7, 10, 0, 10, 10, 8, 0, 8, 0, 0, 1, 3, 2, 0, 0, 1, 1, 0, 7, 2, 2, 0, 0, 0, 10, 9, 0, 0, 0, 0, 5, 2, 6, 0, 0, 3, 1, 0, 5, 4, 10, 8, 0, 2, 0, 3, 0, 0, 0, 0, 10, 7, 0, 0, 0, 0, 6, 0, 4, 9, 0, 0, 5, 2, 4, 4, 7, 5, 0, 9, 0, 0, 0, 8, 0, 0, 0, 8, 4, 0, 4, 3, 1, 0, 3, 7, 8, 0, 0, 6, 5, 3, 0]);

suc = [
   {2, 3, 4},
   {9},
   {15, 6, 7},
   {12, 5},
   {8, 10},
   {24, 20},
   {20, 13},
   {19, 28, 29},
   {27, 14},
   {11},
   {16, 21, 22},
   {18},
   {16},
   {24, 17},
   {25},
   {18},
   {18, 26},
   {31},
   {24, 26, 22},
   {21},
   {29},
   {23},
   {30},
   {30},
   {29},
   {31},
   {31},
   {30},
   {32},
   {32},
   {32},
   {  } ];

deadline = array2d(1..32, 1..3, [2, 1, 2, 6, 4, 4, 6, 2, 1, 8, 3, 4, 9, 5, 3, 10, 1, 2, 11, 2, 2, 14, 5, 5, 16, 1, 5, 19, 1, 2, 21, 0, 0, 30, 5, 1, 43, 2, 3, 47, 1, 2, 48, 3, 0, 49, 3, 3, 52, 3, 4, 54, 3, 3, 57, 1, 5, 57, 1, 0, 63, 4, 5, 77, 5, 4, 78, 0, 1, 79, 5, 2, 83, 2, 2, 87, 5, 3, 88, 0, 5, 91, 3, 3, 92, 1, 2, 94, 2, 0, 98, 1, 4, 104, 3, 3]);
