n_res = 4;
rc = [ 9, 16, 12, 12 ];
n_tasks = 32;
d = [0, 8, 9, 2, 5, 8, 2, 6, 1, 3, 6, 7, 8, 8, 7, 5, 7, 1, 4, 8, 5, 6, 3, 5, 6, 1, 10, 7, 3, 4, 4, 0];
rr = array2d(1..4, 1..32, [0, 0, 2, 0, 7, 4, 0, 0, 4, 0, 2, 0, 4, 0, 6, 0, 0, 3, 0, 4, 0, 6, 0, 0, 4, 0, 3, 0, 8, 0, 0, 0, 0, 6, 4, 5, 0, 9, 6, 3, 0, 10, 0, 0, 8, 5, 8, 1, 10, 9, 0, 5, 0, 0, 0, 6, 0, 0, 0, 4, 0, 1, 8, 0, 0, 0, 8, 0, 0, 0, 0, 5, 0, 0, 9, 6, 9, 2, 5, 5, 0, 0, 0, 8, 1, 3, 3, 3, 1, 0, 4, 9, 0, 1, 0, 0, 0, 0, 0, 0, 0, 0, 1, 2, 9, 0, 10, 1, 6, 0, 0, 2, 0, 0, 5, 8, 0, 8, 2, 1, 0, 8, 0, 0, 0, 0, 0, 0]);

suc = [
   {2, 3, 4},
   {7},
   {9, 5, 14},
   {8, 11, 6},
   {10, 15},
   {25, 12, 22},
   {20, 14, 22},
   {17},
   {24, 13, 23},
   {19, 20},
   {24, 26},
   {18},
   {29},
   {16},
   {16, 22, 23},
   {24, 25},
   {25, 19, 21},
   {20},
   {26, 27},
   {27, 21},
   {26, 28, 23},
   {30},
   {31},
   {27},
   {28},
   {30, 31},
   {28},
   {29, 30, 31},
   {32},
   {32},
   {32},
   {  } ];

deadline = array2d(1..32, 1..3, [4, 0, 1, 6, 1, 1, 12, 4, 5, 15, 1, 0, 18, 5, 4, 20, 5, 3, 21, 3, 1, 22, 4, 4, 35, 2, 0, 36, 0, 1, 37, 5, 5, 42, 2, 0, 44, 3, 4, 48, 2, 4, 54, 2, 1, 57, 1, 2, 67, 2, 3, 71, 4, 2, 77, 0, 3, 78, 3, 4, 79, 1, 4, 85, 1, 0, 87, 2, 4, 94, 0, 2, 95, 5, 0, 101, 3, 2, 104, 1, 0, 108, 0, 3, 112, 1, 4, 116, 0, 1, 117, 2, 4, 122, 3, 5]);
