n_res = 4;
rc = [ 16, 17, 15, 16 ];
n_tasks = 32;
d = [0, 3, 8, 7, 9, 4, 9, 6, 8, 8, 10, 10, 5, 1, 2, 3, 1, 3, 8, 3, 9, 2, 2, 6, 3, 1, 10, 9, 1, 2, 1, 0];
rr = array2d(1..4, 1..32, [0, 1, 8, 0, 0, 0, 4, 0, 0, 10, 0, 0, 0, 0, 0, 0, 0, 0, 0, 7, 0, 0, 0, 0, 0, 6, 2, 7, 0, 0, 0, 0, 0, 0, 0, 0, 0, 0, 0, 0, 0, 0, 0, 0, 0, 0, 4, 0, 0, 7, 0, 0, 9, 0, 5, 0, 0, 0, 0, 0, 0, 8, 0, 0, 0, 0, 0, 0, 2, 7, 0, 9, 0, 0, 1, 0, 2, 0, 0, 9, 0, 0, 0, 0, 0, 0, 0, 0, 3, 0, 0, 0, 0, 0, 0, 0, 0, 0, 0, 3, 0, 0, 0, 0, 5, 0, 0, 7, 0, 8, 0, 0, 1, 0, 6, 0, 0, 9, 0, 8, 0, 0, 0, 0, 1, 0, 8, 0]);

suc = [
   {2, 3, 4},
   {12, 5},
   {26, 14},
   {10, 11, 28},
   {8, 20, 6},
   {9, 25, 7},
   {16, 21, 15},
   {13, 14, 23},
   {18, 21, 13},
   {17, 19},
   {20, 13},
   {23},
   {22},
   {16, 25, 22},
   {29},
   {31},
   {27, 30},
   {22},
   {24, 25, 21},
   {24, 27},
   {26, 30},
   {24},
   {26, 28},
   {31},
   {27, 30},
   {31},
   {29},
   {29},
   {32},
   {32},
   {32},
   {  } ];

deadline = array2d(1..32, 1..3, [2, 1, 2, 2, 2, 3, 4, 0, 3, 7, 2, 1, 7, 5, 3, 17, 4, 2, 21, 0, 1, 25, 3, 1, 27, 3, 2, 28, 1, 4, 30, 2, 4, 30, 2, 3, 37, 3, 3, 40, 1, 2, 46, 2, 4, 49, 4, 2, 49, 2, 4, 51, 1, 4, 53, 5, 0, 57, 2, 1, 59, 2, 3, 59, 1, 4, 61, 3, 0, 62, 4, 3, 62, 5, 0, 66, 4, 1, 80, 4, 2, 80, 1, 0, 83, 1, 3, 84, 2, 5, 89, 3, 2, 92, 4, 1]);
