n_res = 4;
rc = [ 42, 39, 37, 46 ];
n_tasks = 32;
d = [0, 4, 1, 8, 8, 6, 2, 10, 1, 1, 5, 8, 6, 6, 4, 7, 3, 1, 7, 5, 2, 5, 8, 1, 3, 10, 4, 9, 4, 6, 9, 0];
rr = array2d(1..4, 1..32, [0, 4, 3, 5, 10, 5, 9, 1, 9, 4, 2, 5, 3, 9, 2, 3, 2, 8, 5, 5, 3, 6, 8, 8, 1, 3, 10, 7, 2, 8, 1, 0, 0, 5, 4, 6, 2, 8, 9, 2, 2, 5, 2, 1, 1, 6, 5, 6, 4, 7, 1, 9, 6, 5, 8, 8, 6, 3, 5, 3, 4, 7, 8, 0, 0, 6, 7, 4, 2, 5, 1, 1, 3, 8, 4, 3, 4, 2, 2, 3, 9, 1, 10, 8, 10, 7, 10, 5, 6, 2, 10, 6, 3, 2, 1, 0, 0, 2, 6, 5, 2, 6, 8, 3, 5, 1, 10, 3, 6, 10, 6, 8, 4, 6, 3, 4, 3, 5, 6, 1, 3, 2, 2, 7, 5, 3, 3, 0]);

suc = [
   {2, 3, 4},
   {5, 7},
   {12, 5, 6},
   {20, 13},
   {29},
   {11, 15},
   {8, 9, 10},
   {29, 30, 23},
   {14},
   {21},
   {16, 28},
   {24, 17, 31},
   {16},
   {19, 23},
   {22},
   {25, 18},
   {19, 21},
   {27},
   {22},
   {29},
   {25},
   {28},
   {26},
   {28},
   {30},
   {27},
   {31},
   {30},
   {32},
   {32},
   {32},
   {  } ];

deadline = array2d(1..32, 1..3, [1, 1, 2, 2, 5, 3, 7, 4, 2, 8, 2, 4, 9, 5, 5, 14, 2, 5, 23, 2, 4, 33, 0, 5, 33, 1, 2, 35, 1, 3, 39, 2, 4, 39, 0, 1, 42, 1, 5, 43, 0, 4, 44, 4, 4, 45, 4, 3, 46, 1, 5, 46, 5, 2, 50, 2, 2, 53, 1, 4, 54, 1, 1, 56, 4, 1, 57, 5, 2, 61, 2, 1, 64, 1, 4, 71, 1, 3, 88, 4, 1, 92, 0, 2, 93, 1, 0, 99, 1, 0, 105, 5, 0, 117, 4, 2]);
