n_res = 4;
rc = [ 27, 23, 27, 23 ];
n_tasks = 32;
d = [0, 8, 7, 1, 10, 6, 5, 1, 1, 7, 9, 8, 10, 10, 10, 9, 1, 4, 1, 2, 8, 2, 3, 9, 5, 3, 2, 1, 2, 1, 1, 0];
rr = array2d(1..4, 1..32, [0, 4, 2, 9, 2, 7, 5, 7, 6, 6, 5, 9, 8, 4, 2, 1, 8, 4, 5, 6, 5, 10, 2, 5, 8, 9, 1, 8, 7, 9, 1, 0, 0, 5, 3, 7, 10, 3, 4, 10, 2, 8, 2, 8, 6, 3, 1, 4, 3, 5, 7, 8, 4, 6, 6, 3, 10, 2, 6, 10, 1, 6, 2, 0, 0, 7, 4, 3, 6, 8, 6, 10, 4, 8, 1, 1, 5, 3, 7, 8, 5, 8, 5, 8, 8, 1, 5, 9, 7, 10, 6, 3, 1, 3, 4, 0, 0, 5, 3, 10, 8, 1, 3, 4, 2, 10, 7, 4, 1, 9, 3, 1, 10, 2, 7, 3, 10, 7, 8, 10, 2, 6, 8, 7, 4, 1, 2, 0]);

suc = [
   {2, 3, 4},
   {19, 20},
   {9, 5, 15},
   {31, 13, 7},
   {10, 26, 6},
   {8, 19, 14},
   {20, 29},
   {24, 18, 28},
   {16, 11, 12},
   {17, 20},
   {18, 19, 13},
   {26},
   {14},
   {27},
   {17},
   {18, 28, 21},
   {29, 22, 31},
   {23},
   {25, 30},
   {28, 22},
   {25, 26, 22},
   {27},
   {31},
   {25},
   {29},
   {27},
   {30},
   {30},
   {32},
   {32},
   {32},
   {  } ];

deadline = array2d(1..32, 1..3, [3, 3, 1, 3, 0, 5, 6, 1, 4, 12, 4, 3, 16, 1, 5, 16, 3, 2, 20, 2, 4, 25, 4, 1, 26, 5, 5, 28, 5, 4, 36, 3, 4, 40, 4, 1, 45, 1, 5, 47, 5, 4, 47, 2, 0, 51, 5, 2, 51, 0, 0, 54, 4, 2, 58, 3, 2, 61, 2, 5, 63, 2, 5, 71, 2, 2, 73, 3, 0, 77, 1, 4, 80, 4, 1, 81, 5, 1, 84, 2, 1, 89, 4, 1, 90, 3, 1, 92, 4, 2, 94, 2, 5, 95, 1, 0]);
