n_res = 4;
rc = [ 14, 13, 13, 12 ];
n_tasks = 32;
d = [0, 6, 4, 9, 5, 10, 10, 1, 1, 7, 2, 7, 6, 1, 10, 9, 4, 6, 10, 2, 5, 4, 7, 6, 4, 10, 4, 4, 3, 10, 8, 0];
rr = array2d(1..4, 1..32, [0, 0, 0, 0, 1, 0, 0, 6, 10, 9, 0, 0, 3, 8, 0, 0, 0, 0, 0, 0, 0, 0, 0, 0, 0, 0, 7, 0, 5, 0, 0, 0, 0, 3, 3, 0, 0, 4, 3, 0, 0, 0, 0, 7, 0, 0, 0, 0, 8, 0, 2, 3, 3, 0, 0, 4, 0, 0, 0, 6, 0, 0, 1, 0, 0, 0, 0, 7, 0, 0, 0, 0, 0, 0, 0, 0, 0, 0, 0, 0, 0, 9, 0, 0, 0, 8, 2, 0, 0, 0, 0, 0, 0, 9, 0, 0, 0, 0, 0, 0, 0, 0, 0, 0, 0, 0, 2, 0, 0, 0, 3, 7, 0, 0, 0, 0, 0, 0, 0, 0, 8, 4, 0, 0, 0, 0, 0, 0]);

suc = [
   {2, 3, 4},
   {18, 27, 12},
   {10, 6},
   {5, 22, 7},
   {14, 30},
   {8, 24, 19},
   {9, 11, 23},
   {26},
   {20, 13, 31},
   {15},
   {25},
   {21},
   {17},
   {16, 17},
   {23},
   {20},
   {25},
   {24},
   {21},
   {25},
   {22},
   {29, 30},
   {28},
   {26, 31},
   {29},
   {29},
   {31},
   {30},
   {32},
   {32},
   {32},
   {  } ];

deadline = array2d(1..32, 1..3, [1, 2, 5, 5, 3, 3, 6, 3, 3, 6, 4, 2, 8, 4, 4, 10, 3, 3, 16, 1, 5, 21, 5, 1, 22, 0, 3, 36, 0, 5, 41, 1, 2, 41, 1, 3, 46, 5, 4, 47, 0, 3, 47, 5, 4, 48, 3, 4, 50, 0, 4, 54, 4, 4, 55, 4, 4, 59, 2, 1, 59, 0, 4, 70, 0, 5, 71, 0, 1, 76, 0, 0, 78, 4, 1, 85, 2, 4, 86, 0, 2, 92, 2, 0, 93, 1, 2, 98, 1, 0, 99, 4, 0, 103, 5, 3]);
