n_res = 4;
rc = [ 15, 21, 21, 22 ];
n_tasks = 32;
d = [0, 6, 1, 2, 9, 8, 5, 5, 6, 4, 8, 4, 10, 9, 2, 7, 6, 1, 9, 10, 7, 10, 10, 9, 3, 5, 5, 7, 8, 8, 10, 0];
rr = array2d(1..4, 1..32, [0, 0, 0, 9, 0, 0, 0, 0, 0, 8, 0, 0, 0, 0, 0, 8, 0, 0, 8, 0, 1, 0, 0, 0, 0, 0, 2, 6, 5, 5, 7, 0, 0, 0, 8, 2, 3, 0, 3, 7, 0, 9, 10, 0, 2, 0, 0, 0, 6, 0, 0, 10, 3, 0, 0, 3, 0, 10, 0, 0, 0, 5, 0, 0, 0, 8, 6, 0, 0, 0, 0, 5, 0, 1, 0, 0, 5, 9, 0, 1, 7, 8, 0, 0, 0, 8, 4, 0, 6, 0, 8, 10, 0, 10, 3, 0, 0, 1, 5, 5, 3, 1, 9, 0, 7, 3, 3, 8, 0, 0, 4, 2, 6, 0, 9, 0, 8, 1, 10, 0, 0, 7, 10, 1, 0, 0, 2, 0]);

suc = [
   {2, 3, 4},
   {8, 5, 23},
   {8, 17, 14},
   {9, 13, 6},
   {20, 21, 7},
   {11, 20, 7},
   {14},
   {16, 10, 12},
   {24, 25, 26},
   {13, 22},
   {16, 18, 28},
   {25, 18, 15},
   {27},
   {18, 22},
   {30},
   {25, 19},
   {19},
   {19},
   {27, 30},
   {24},
   {24, 22},
   {27},
   {31},
   {28, 31},
   {30},
   {28, 31},
   {29},
   {29},
   {32},
   {32},
   {32},
   {  } ];

deadline = array2d(1..32, 1..3, [4, 3, 0, 10, 2, 5, 14, 3, 2, 23, 5, 3, 25, 4, 2, 30, 1, 2, 30, 0, 0, 32, 3, 1, 35, 4, 3, 45, 3, 0, 52, 4, 2, 53, 3, 1, 54, 4, 5, 55, 5, 3, 64, 5, 1, 68, 2, 5, 71, 0, 4, 73, 4, 1, 80, 2, 1, 85, 2, 0, 86, 4, 5, 92, 4, 1, 100, 0, 1, 101, 0, 5, 107, 3, 3, 108, 0, 1, 109, 3, 1, 109, 5, 0, 114, 2, 2, 120, 0, 3, 122, 2, 1, 128, 4, 3]);
