n_res = 4;
rc = [ 30, 25, 27, 24 ];
n_tasks = 32;
d = [0, 8, 2, 6, 10, 1, 8, 6, 8, 8, 1, 1, 4, 3, 4, 5, 7, 6, 5, 6, 10, 8, 8, 2, 8, 4, 2, 10, 6, 9, 7, 0];
rr = array2d(1..4, 1..32, [0, 9, 7, 8, 10, 5, 5, 3, 9, 7, 7, 6, 1, 5, 7, 2, 8, 1, 6, 1, 7, 5, 4, 1, 1, 7, 8, 6, 5, 7, 10, 0, 0, 1, 10, 6, 7, 3, 7, 5, 1, 6, 4, 4, 5, 4, 5, 8, 8, 5, 8, 10, 9, 2, 5, 10, 8, 6, 1, 1, 8, 10, 3, 0, 0, 8, 5, 10, 1, 8, 7, 8, 1, 7, 6, 8, 8, 6, 3, 6, 8, 8, 2, 2, 7, 8, 8, 5, 4, 7, 8, 4, 9, 3, 3, 0, 0, 9, 2, 10, 4, 7, 3, 7, 9, 10, 2, 10, 2, 3, 8, 4, 9, 10, 5, 2, 2, 3, 5, 9, 9, 9, 10, 5, 8, 6, 2, 0]);

suc = [
   {2, 3, 4},
   {16, 18, 19},
   {13, 6, 15},
   {28, 5, 7},
   {8, 12},
   {9, 12, 23},
   {17, 14},
   {16, 18},
   {10, 11},
   {17},
   {29},
   {26, 18, 19},
   {27, 28, 31},
   {22, 15},
   {30, 23},
   {30, 23},
   {24, 19, 21},
   {25, 20},
   {25},
   {24},
   {26},
   {25, 26},
   {24},
   {31},
   {27},
   {27, 30, 31},
   {29},
   {29},
   {32},
   {32},
   {32},
   {  } ];

deadline = array2d(1..32, 1..3, [6, 5, 3, 10, 3, 3, 12, 0, 3, 14, 2, 2, 22, 2, 4, 26, 2, 2, 27, 1, 4, 29, 2, 3, 32, 5, 4, 40, 2, 2, 41, 3, 4, 42, 1, 2, 48, 3, 3, 48, 1, 2, 50, 0, 2, 57, 3, 2, 59, 3, 2, 61, 1, 2, 68, 5, 0, 69, 2, 0, 77, 2, 0, 78, 0, 0, 85, 5, 2, 89, 3, 0, 90, 2, 2, 94, 5, 2, 106, 1, 4, 110, 1, 2, 113, 0, 0, 114, 2, 3, 118, 4, 2, 120, 2, 0]);
