n_res = 4;
rc = [ 12, 12, 13, 12 ];
n_tasks = 32;
d = [0, 3, 2, 8, 4, 3, 4, 1, 5, 3, 4, 2, 8, 10, 3, 9, 2, 2, 7, 10, 6, 4, 9, 10, 8, 3, 2, 5, 9, 8, 4, 0];
rr = array2d(1..4, 1..32, [0, 0, 10, 0, 2, 0, 0, 9, 0, 4, 2, 5, 0, 5, 0, 2, 0, 1, 1, 0, 0, 0, 0, 6, 0, 0, 3, 0, 8, 10, 4, 0, 0, 0, 0, 7, 0, 0, 5, 0, 0, 0, 0, 3, 10, 9, 4, 3, 0, 0, 0, 0, 0, 1, 5, 0, 0, 0, 5, 4, 2, 10, 0, 0, 0, 0, 0, 7, 9, 8, 0, 0, 3, 8, 4, 2, 1, 0, 0, 0, 0, 0, 0, 10, 6, 5, 3, 0, 2, 0, 1, 0, 0, 10, 9, 0, 0, 3, 0, 0, 6, 0, 0, 0, 0, 0, 4, 2, 0, 9, 5, 0, 3, 0, 4, 0, 1, 3, 4, 2, 1, 8, 10, 5, 0, 7, 0, 0]);

suc = [
   {2, 3, 4},
   {16, 10, 15},
   {16, 11, 7},
   {5, 6, 30},
   {18, 19, 14},
   {8, 12, 15},
   {9, 13, 17},
   {9, 20, 17},
   {24, 25, 14},
   {19, 20, 14},
   {13, 22, 23},
   {26, 20, 21},
   {18, 30, 15},
   {22},
   {27, 19, 31},
   {23},
   {18, 21, 22},
   {24, 28},
   {26, 21},
   {25, 28, 31},
   {24},
   {26, 27},
   {25, 30, 31},
   {29},
   {27},
   {28},
   {29},
   {29},
   {32},
   {32},
   {32},
   {  } ];

deadline = array2d(1..32, 1..3, [2, 5, 5, 9, 0, 1, 9, 1, 3, 11, 2, 0, 11, 5, 5, 20, 5, 4, 21, 2, 4, 26, 1, 3, 30, 3, 2, 38, 4, 0, 45, 4, 0, 48, 3, 1, 57, 2, 2, 58, 0, 4, 66, 2, 0, 72, 3, 5, 74, 1, 1, 79, 3, 2, 79, 3, 4, 83, 0, 4, 86, 0, 1, 89, 3, 2, 90, 2, 0, 90, 3, 5, 98, 4, 2, 102, 2, 4, 102, 0, 4, 103, 4, 2, 111, 1, 4, 117, 4, 3, 117, 5, 4, 120, 2, 2]);
