n_res = 4;
rc = [ 41, 39, 27, 30 ];
n_tasks = 32;
d = [0, 9, 7, 8, 6, 4, 2, 2, 4, 8, 6, 5, 2, 6, 1, 2, 5, 3, 6, 10, 9, 5, 9, 7, 10, 4, 7, 9, 3, 6, 4, 0];
rr = array2d(1..4, 1..32, [0, 10, 8, 8, 1, 7, 9, 9, 9, 0, 0, 1, 10, 6, 0, 5, 2, 0, 7, 10, 1, 10, 2, 9, 8, 8, 2, 0, 8, 4, 5, 0, 0, 7, 0, 0, 9, 0, 0, 2, 3, 10, 1, 3, 10, 0, 5, 5, 6, 9, 8, 7, 3, 3, 2, 5, 5, 4, 7, 0, 10, 1, 0, 0, 0, 0, 1, 5, 0, 10, 10, 10, 10, 6, 0, 0, 1, 7, 5, 0, 4, 7, 9, 4, 0, 1, 3, 9, 0, 0, 0, 5, 3, 4, 0, 0, 0, 7, 7, 4, 5, 6, 5, 8, 2, 5, 5, 4, 9, 0, 8, 4, 4, 0, 9, 0, 0, 2, 2, 0, 3, 3, 5, 1, 0, 0, 8, 0]);

suc = [
   {2, 3, 4},
   {17, 6, 7},
   {12, 20, 15},
   {5, 6},
   {26},
   {10, 13},
   {8, 29, 30},
   {9, 11, 22},
   {14},
   {16, 18, 15},
   {24, 14},
   {19, 21},
   {19, 20, 14},
   {26, 23},
   {27, 25, 19},
   {22},
   {21, 23},
   {26, 28, 22},
   {24, 23},
   {30},
   {25},
   {24, 27},
   {31},
   {31},
   {28, 29},
   {27},
   {31},
   {30},
   {32},
   {32},
   {32},
   {  } ];

deadline = array2d(1..32, 1..3, [5, 0, 2, 7, 4, 2, 9, 5, 4, 10, 4, 5, 13, 1, 3, 14, 4, 3, 24, 3, 3, 25, 0, 5, 29, 2, 1, 31, 5, 2, 33, 0, 0, 38, 2, 5, 40, 4, 1, 44, 1, 1, 46, 1, 4, 48, 1, 0, 56, 5, 2, 60, 2, 5, 69, 4, 3, 72, 0, 1, 72, 3, 4, 74, 0, 3, 77, 3, 4, 79, 1, 1, 87, 5, 4, 89, 3, 5, 99, 5, 3, 100, 3, 2, 101, 5, 5, 104, 4, 5, 107, 4, 4, 115, 3, 0]);
