n_res = 4;
rc = [ 17, 20, 23, 18 ];
n_tasks = 32;
d = [0, 10, 2, 10, 9, 9, 9, 9, 4, 6, 1, 1, 10, 5, 5, 1, 4, 1, 6, 10, 2, 5, 8, 10, 10, 5, 3, 4, 8, 4, 8, 0];
rr = array2d(1..4, 1..32, [0, 5, 0, 2, 6, 4, 3, 9, 0, 10, 5, 9, 1, 4, 6, 0, 2, 9, 1, 0, 7, 0, 8, 6, 0, 6, 9, 2, 5, 3, 2, 0, 0, 3, 1, 0, 7, 0, 5, 8, 10, 10, 4, 0, 1, 5, 0, 4, 9, 0, 0, 8, 8, 8, 3, 5, 2, 0, 10, 2, 4, 8, 5, 0, 0, 6, 0, 6, 6, 0, 10, 10, 8, 8, 6, 5, 3, 5, 1, 1, 0, 5, 5, 9, 5, 8, 0, 2, 4, 0, 7, 0, 10, 5, 6, 0, 0, 9, 8, 6, 3, 0, 0, 7, 1, 8, 3, 9, 10, 0, 7, 5, 10, 1, 0, 4, 0, 10, 2, 6, 0, 6, 0, 0, 0, 0, 8, 0]);

suc = [
   {2, 3, 4},
   {18, 12, 22},
   {8, 9, 5},
   {19, 11, 6},
   {23, 14, 7},
   {10, 18, 12},
   {10, 13, 15},
   {16, 20, 23},
   {25, 13, 14},
   {16, 17, 29},
   {17, 28, 23},
   {25, 21},
   {17, 19, 20},
   {16, 21},
   {18, 19, 22},
   {24, 26},
   {26},
   {25, 27},
   {27, 28, 30},
   {21, 22},
   {31},
   {24},
   {24, 26, 29},
   {30},
   {28, 29, 30},
   {27},
   {31},
   {31},
   {32},
   {32},
   {32},
   {  } ];

deadline = array2d(1..32, 1..3, [8, 1, 5, 10, 0, 5, 20, 0, 0, 29, 4, 3, 33, 5, 1, 33, 5, 3, 36, 3, 5, 39, 1, 2, 40, 5, 0, 43, 0, 0, 62, 5, 3, 64, 4, 3, 72, 1, 4, 72, 3, 1, 73, 5, 1, 76, 3, 3, 83, 5, 1, 89, 2, 0, 93, 4, 4, 94, 2, 5, 95, 4, 0, 96, 5, 4, 101, 3, 1, 102, 5, 3, 104, 0, 5, 104, 1, 4, 107, 0, 5, 118, 1, 1, 126, 2, 3, 128, 0, 2, 138, 5, 3, 139, 3, 5]);
