n_res = 4;
rc = [ 14, 16, 17, 10 ];
n_tasks = 32;
d = [0, 8, 2, 9, 5, 6, 3, 3, 6, 2, 5, 2, 4, 5, 8, 10, 7, 8, 3, 5, 10, 7, 5, 7, 8, 10, 2, 5, 5, 3, 2, 0];
rr = array2d(1..4, 1..32, [0, 8, 2, 3, 2, 3, 10, 3, 10, 3, 4, 3, 1, 0, 6, 6, 0, 7, 0, 9, 5, 8, 0, 8, 0, 2, 5, 4, 6, 10, 5, 0, 0, 3, 10, 0, 2, 0, 10, 10, 1, 10, 0, 1, 4, 9, 3, 0, 8, 9, 3, 0, 7, 5, 0, 9, 4, 3, 4, 0, 6, 9, 5, 0, 0, 3, 0, 10, 0, 9, 0, 9, 6, 9, 1, 9, 5, 3, 8, 9, 10, 2, 0, 3, 0, 5, 9, 9, 0, 0, 7, 1, 2, 7, 4, 0, 0, 8, 5, 7, 0, 0, 6, 0, 0, 0, 5, 0, 0, 8, 0, 5, 7, 5, 4, 6, 3, 1, 0, 2, 6, 3, 0, 4, 5, 1, 6, 0]);

suc = [
   {2, 3, 4},
   {5, 15},
   {9, 11, 6},
   {8, 10, 13},
   {17, 11, 6},
   {8, 10, 7},
   {12, 14, 22},
   {18, 27, 12},
   {23, 22, 15},
   {18, 14, 23},
   {25, 26, 19},
   {20, 30},
   {16, 28, 15},
   {24, 19},
   {21, 30, 31},
   {25, 19, 20},
   {24, 18, 20},
   {26, 22},
   {27, 21},
   {21, 23},
   {29},
   {28},
   {26},
   {25, 27, 28},
   {30},
   {29, 31},
   {29},
   {31},
   {32},
   {32},
   {32},
   {  } ];

deadline = array2d(1..32, 1..3, [4, 5, 5, 8, 4, 3, 14, 3, 1, 19, 1, 3, 21, 0, 5, 22, 0, 4, 26, 4, 0, 35, 2, 2, 37, 4, 3, 37, 4, 1, 41, 3, 3, 42, 1, 5, 46, 2, 0, 46, 2, 4, 49, 0, 4, 53, 0, 1, 55, 4, 5, 55, 3, 4, 61, 2, 3, 62, 0, 5, 71, 0, 5, 78, 0, 3, 79, 0, 1, 93, 2, 2, 99, 0, 4, 102, 2, 2, 103, 0, 0, 105, 0, 4, 110, 2, 4, 112, 0, 4, 116, 0, 3, 116, 4, 4]);
