n_res = 4;
rc = [ 16, 7, 12, 19 ];
n_tasks = 32;
d = [0, 9, 4, 2, 10, 1, 1, 5, 8, 3, 9, 9, 5, 6, 4, 7, 6, 4, 10, 5, 8, 2, 8, 3, 7, 7, 4, 9, 9, 7, 5, 0];
rr = array2d(1..4, 1..32, [0, 0, 0, 5, 0, 0, 3, 0, 10, 0, 0, 0, 5, 0, 4, 0, 0, 6, 0, 0, 0, 0, 1, 0, 0, 0, 0, 0, 0, 0, 0, 0, 0, 0, 5, 0, 0, 0, 0, 0, 0, 0, 0, 0, 0, 0, 0, 6, 0, 0, 0, 0, 0, 2, 0, 1, 5, 0, 0, 0, 0, 0, 0, 0, 0, 0, 0, 0, 0, 0, 0, 5, 0, 0, 0, 0, 0, 0, 0, 0, 0, 0, 7, 3, 1, 0, 0, 0, 0, 0, 7, 0, 6, 9, 2, 0, 0, 8, 0, 0, 8, 10, 0, 0, 0, 2, 3, 5, 0, 10, 0, 0, 7, 0, 0, 0, 0, 0, 0, 0, 0, 3, 0, 9, 0, 0, 0, 0]);

suc = [
   {2, 3, 4},
   {8, 9, 6},
   {24, 7},
   {5},
   {14, 31},
   {13},
   {10, 12},
   {19, 11},
   {28, 14},
   {16, 21, 15},
   {27},
   {26},
   {18, 26, 20},
   {16, 17, 22},
   {25, 22},
   {25},
   {25},
   {22},
   {28},
   {28},
   {30},
   {29, 23},
   {30},
   {31},
   {26},
   {27},
   {29},
   {29},
   {32},
   {32},
   {32},
   {  } ];

deadline = array2d(1..32, 1..3, [3, 0, 4, 10, 5, 4, 10, 2, 3, 12, 4, 0, 15, 3, 4, 27, 4, 3, 28, 2, 4, 32, 1, 4, 37, 5, 3, 37, 5, 5, 43, 5, 3, 46, 0, 1, 46, 2, 2, 53, 0, 0, 63, 1, 3, 65, 5, 5, 65, 1, 1, 73, 2, 0, 75, 0, 5, 77, 3, 4, 77, 2, 2, 81, 5, 2, 94, 3, 2, 96, 3, 2, 100, 0, 4, 105, 5, 2, 111, 5, 5, 117, 5, 0, 130, 3, 1, 135, 1, 2, 140, 1, 1, 142, 1, 3]);
