n_res = 4;
rc = [ 14, 12, 13, 13 ];
n_tasks = 32;
d = [0, 9, 5, 6, 1, 9, 9, 3, 10, 5, 5, 1, 2, 7, 1, 6, 1, 8, 2, 1, 5, 9, 2, 6, 9, 2, 1, 3, 6, 7, 10, 0];
rr = array2d(1..4, 1..32, [0, 4, 6, 5, 8, 2, 3, 5, 0, 6, 6, 0, 0, 0, 9, 9, 2, 10, 6, 0, 0, 0, 10, 0, 2, 0, 0, 0, 0, 1, 0, 0, 0, 0, 0, 0, 0, 0, 0, 0, 9, 5, 7, 8, 5, 0, 7, 5, 0, 7, 2, 10, 0, 0, 0, 0, 0, 2, 9, 0, 0, 3, 9, 0, 0, 0, 2, 10, 0, 0, 0, 2, 9, 0, 0, 9, 8, 0, 8, 2, 0, 0, 0, 8, 0, 8, 0, 5, 8, 1, 0, 8, 10, 6, 0, 0, 0, 0, 0, 1, 3, 8, 6, 3, 0, 0, 2, 0, 0, 7, 0, 0, 7, 0, 0, 0, 9, 0, 0, 2, 2, 3, 0, 0, 0, 8, 4, 0]);

suc = [
   {2, 3, 4},
   {21, 5, 7},
   {8, 9, 10},
   {21, 15},
   {12, 13, 6},
   {16, 11, 29},
   {11, 20, 13},
   {21, 14},
   {23},
   {11},
   {15},
   {14, 15},
   {18},
   {17, 26, 25},
   {17, 19, 30},
   {19, 20, 28},
   {31},
   {27, 22, 23},
   {24},
   {26},
   {29},
   {24, 26},
   {24, 28, 29},
   {31},
   {27},
   {30, 31},
   {28},
   {30},
   {32},
   {32},
   {32},
   {  } ];

deadline = array2d(1..32, 1..3, [3, 2, 1, 3, 2, 0, 5, 4, 3, 7, 0, 3, 9, 0, 3, 11, 1, 4, 26, 5, 1, 32, 0, 1, 34, 4, 3, 48, 1, 4, 51, 0, 4, 56, 5, 0, 59, 0, 2, 60, 2, 5, 64, 5, 2, 76, 0, 4, 80, 5, 5, 80, 1, 3, 82, 4, 4, 91, 1, 3, 94, 5, 1, 96, 5, 3, 103, 4, 0, 107, 2, 4, 111, 0, 4, 112, 3, 2, 117, 4, 5, 121, 1, 1, 122, 1, 3, 125, 2, 4, 127, 0, 5, 129, 5, 4]);
