n_res = 4;
rc = [ 12, 24, 19, 19 ];
n_tasks = 32;
d = [0, 1, 5, 7, 10, 1, 5, 1, 5, 9, 3, 7, 4, 2, 7, 6, 7, 8, 8, 8, 4, 5, 3, 5, 10, 3, 4, 3, 1, 3, 1, 0];
rr = array2d(1..4, 1..32, [0, 2, 2, 6, 0, 0, 0, 6, 0, 0, 1, 2, 0, 7, 4, 0, 3, 10, 3, 0, 0, 0, 0, 0, 0, 4, 7, 0, 0, 0, 0, 0, 0, 0, 8, 7, 0, 8, 5, 0, 3, 0, 9, 10, 0, 10, 7, 7, 10, 0, 0, 4, 1, 0, 2, 1, 0, 0, 0, 1, 2, 0, 7, 0, 0, 9, 3, 0, 1, 0, 0, 0, 1, 0, 7, 0, 3, 0, 3, 9, 7, 10, 0, 6, 1, 4, 0, 10, 3, 1, 0, 3, 0, 6, 0, 0, 0, 0, 0, 0, 0, 0, 0, 6, 0, 10, 0, 8, 0, 0, 1, 0, 10, 10, 6, 0, 6, 0, 7, 0, 2, 3, 0, 0, 0, 6, 0, 0]);

suc = [
   {2, 3, 4},
   {11},
   {15, 5, 7},
   {8, 9, 6},
   {17, 19},
   {24, 10, 13},
   {16, 17, 12},
   {18, 13, 23},
   {24, 11, 22},
   {26, 30},
   {14},
   {29, 13},
   {21},
   {19, 21},
   {16},
   {18, 28},
   {18, 20},
   {21, 22},
   {25},
   {28, 22, 23},
   {26},
   {27},
   {27, 31},
   {25, 26},
   {27, 28},
   {31},
   {29, 30},
   {29},
   {32},
   {32},
   {32},
   {  } ];

deadline = array2d(1..32, 1..3, [5, 1, 1, 6, 4, 3, 7, 1, 5, 8, 4, 3, 11, 2, 4, 11, 5, 1, 13, 5, 4, 20, 4, 3, 33, 0, 0, 35, 1, 1, 36, 1, 5, 36, 2, 4, 37, 1, 3, 41, 2, 5, 47, 0, 1, 47, 5, 3, 51, 0, 3, 55, 2, 5, 56, 3, 1, 62, 1, 4, 68, 3, 1, 69, 3, 1, 73, 1, 4, 79, 0, 5, 80, 3, 1, 81, 4, 2, 84, 4, 4, 88, 4, 4, 90, 0, 4, 94, 5, 2, 94, 5, 5, 104, 1, 3]);
