n_res = 4;
rc = [ 14, 9, 10, 22 ];
n_tasks = 32;
d = [0, 3, 1, 7, 1, 9, 9, 6, 5, 8, 10, 9, 1, 10, 5, 10, 10, 5, 8, 8, 2, 1, 8, 7, 2, 7, 6, 8, 2, 2, 4, 0];
rr = array2d(1..4, 1..32, [0, 9, 0, 0, 0, 0, 0, 5, 0, 9, 0, 4, 0, 5, 5, 0, 0, 5, 0, 7, 1, 0, 0, 0, 4, 1, 6, 0, 0, 0, 0, 0, 0, 0, 0, 0, 0, 0, 0, 0, 6, 0, 8, 0, 2, 0, 0, 5, 0, 0, 0, 0, 0, 2, 0, 0, 0, 0, 0, 0, 0, 6, 0, 0, 0, 0, 0, 0, 0, 0, 0, 0, 0, 0, 0, 0, 0, 0, 0, 0, 0, 0, 8, 0, 0, 0, 0, 0, 0, 0, 0, 3, 2, 0, 0, 0, 0, 0, 10, 7, 2, 2, 1, 0, 0, 0, 0, 0, 0, 0, 0, 0, 7, 0, 0, 0, 0, 0, 10, 10, 0, 0, 0, 0, 0, 0, 2, 0]);

suc = [
   {2, 3, 4},
   {8, 6, 14},
   {21, 7},
   {9, 5, 6},
   {18, 28, 15},
   {10, 20, 7},
   {17, 13, 15},
   {16, 12, 13},
   {11, 15},
   {21, 11, 13},
   {17, 18, 22},
   {18, 20, 21},
   {25, 22},
   {16, 25, 22},
   {24, 19, 23},
   {27, 31, 23},
   {19, 28, 30},
   {31},
   {26, 29},
   {24, 26, 27},
   {24, 25, 26},
   {23},
   {30},
   {30},
   {27, 28},
   {31},
   {29},
   {29},
   {32},
   {32},
   {32},
   {  } ];

deadline = array2d(1..32, 1..3, [10, 3, 5, 14, 4, 5, 21, 1, 0, 23, 3, 5, 27, 4, 4, 32, 0, 4, 34, 1, 5, 35, 5, 0, 39, 1, 0, 41, 1, 2, 49, 0, 5, 50, 2, 2, 60, 3, 2, 61, 4, 1, 65, 4, 1, 66, 2, 0, 76, 2, 3, 77, 0, 1, 81, 4, 0, 88, 2, 0, 93, 0, 0, 96, 1, 3, 104, 2, 0, 105, 4, 3, 112, 1, 2, 115, 3, 5, 115, 5, 0, 117, 2, 3, 128, 0, 3, 142, 2, 3, 151, 2, 0, 153, 5, 1]);
