n_res = 4;
rc = [ 25, 29, 37, 39 ];
n_tasks = 32;
d = [0, 10, 2, 5, 7, 2, 7, 9, 6, 3, 9, 9, 4, 10, 5, 6, 5, 5, 7, 10, 6, 5, 4, 9, 1, 2, 2, 10, 8, 4, 3, 0];
rr = array2d(1..4, 1..32, [0, 0, 6, 0, 2, 10, 0, 3, 7, 0, 0, 4, 7, 0, 1, 0, 2, 0, 10, 0, 4, 9, 1, 3, 8, 4, 3, 9, 10, 0, 0, 0, 0, 6, 0, 8, 0, 5, 0, 5, 3, 9, 10, 0, 0, 0, 4, 4, 0, 4, 0, 7, 0, 3, 9, 4, 0, 2, 5, 9, 9, 8, 4, 0, 0, 4, 6, 9, 7, 5, 3, 4, 8, 10, 1, 1, 6, 7, 0, 2, 5, 7, 3, 0, 10, 6, 0, 0, 8, 2, 7, 8, 5, 8, 2, 0, 0, 0, 0, 5, 3, 10, 3, 8, 0, 1, 10, 7, 1, 5, 2, 6, 10, 1, 5, 8, 8, 0, 1, 8, 6, 10, 10, 10, 4, 5, 10, 0]);

suc = [
   {2, 3, 4},
   {21, 20, 5},
   {10, 6, 7},
   {27, 15},
   {11, 28, 22},
   {8, 25, 12},
   {13, 14},
   {9, 18, 17},
   {30},
   {23},
   {26},
   {17, 15},
   {16, 19, 29},
   {22},
   {24},
   {23},
   {31},
   {28},
   {26},
   {23},
   {28},
   {30},
   {25},
   {29},
   {31},
   {30},
   {29},
   {31},
   {32},
   {32},
   {32},
   {  } ];

deadline = array2d(1..32, 1..3, [2, 3, 1, 2, 4, 1, 5, 2, 0, 14, 1, 1, 15, 2, 0, 18, 2, 2, 19, 1, 1, 26, 1, 5, 28, 3, 3, 35, 5, 5, 40, 4, 5, 42, 3, 0, 44, 5, 1, 45, 5, 1, 45, 0, 0, 46, 2, 1, 48, 4, 3, 50, 2, 0, 50, 3, 1, 53, 2, 4, 54, 1, 1, 59, 4, 1, 62, 1, 4, 62, 3, 2, 63, 2, 3, 66, 3, 1, 70, 5, 3, 74, 2, 2, 76, 1, 1, 77, 1, 0, 81, 4, 2, 85, 2, 3]);
