n_res = 4;
rc = [ 8, 13, 11, 10 ];
n_tasks = 32;
d = [0, 2, 3, 6, 8, 3, 2, 2, 1, 8, 4, 3, 2, 7, 6, 8, 5, 6, 8, 5, 2, 1, 3, 6, 5, 10, 8, 5, 5, 8, 6, 0];
rr = array2d(1..4, 1..32, [0, 0, 0, 0, 8, 0, 0, 0, 0, 0, 0, 0, 0, 4, 0, 0, 0, 0, 0, 0, 0, 8, 0, 0, 0, 0, 0, 0, 0, 5, 0, 0, 0, 10, 3, 0, 0, 6, 8, 9, 5, 10, 5, 0, 1, 0, 0, 0, 0, 0, 0, 8, 0, 0, 0, 0, 1, 0, 4, 0, 0, 0, 0, 0, 0, 0, 0, 9, 0, 0, 0, 0, 0, 0, 0, 0, 0, 0, 5, 8, 1, 0, 7, 0, 8, 0, 0, 0, 0, 0, 0, 1, 8, 0, 0, 0, 0, 0, 0, 0, 0, 0, 0, 0, 0, 0, 0, 5, 0, 0, 0, 0, 0, 9, 0, 0, 0, 0, 1, 4, 0, 9, 0, 0, 0, 0, 6, 0]);

suc = [
   {2, 3, 4},
   {13, 5, 7},
   {24, 18, 6},
   {19},
   {8, 9, 10},
   {11, 13, 22},
   {14},
   {29},
   {25, 15},
   {12},
   {14},
   {16},
   {26, 23},
   {30},
   {19},
   {17, 21, 22},
   {26, 20},
   {28},
   {29},
   {25},
   {26},
   {27, 29, 23},
   {28},
   {31},
   {28},
   {27},
   {30},
   {31},
   {32},
   {32},
   {32},
   {  } ];

deadline = array2d(1..32, 1..3, [1, 0, 5, 10, 3, 3, 16, 5, 3, 31, 2, 2, 41, 3, 1, 44, 0, 5, 47, 3, 0, 49, 4, 1, 59, 3, 0, 60, 4, 5, 61, 5, 4, 61, 0, 2, 65, 2, 2, 74, 1, 1, 76, 3, 4, 78, 1, 2, 78, 0, 4, 79, 1, 3, 81, 3, 5, 89, 2, 0, 91, 1, 1, 92, 3, 1, 103, 3, 5, 108, 1, 4, 118, 1, 0, 119, 2, 4, 121, 1, 3, 121, 4, 4, 129, 2, 0, 133, 0, 3, 134, 4, 0, 143, 4, 3]);
