n_res = 4;
rc = [ 21, 19, 26, 19 ];
n_tasks = 32;
d = [0, 1, 7, 6, 5, 8, 7, 5, 9, 9, 3, 6, 10, 7, 9, 6, 6, 7, 3, 7, 9, 8, 5, 1, 9, 6, 2, 10, 3, 4, 9, 0];
rr = array2d(1..4, 1..32, [0, 3, 10, 4, 5, 1, 4, 10, 5, 2, 8, 6, 2, 7, 8, 8, 7, 3, 2, 4, 6, 2, 2, 7, 6, 2, 9, 6, 8, 5, 9, 0, 0, 7, 8, 3, 3, 2, 3, 8, 6, 8, 1, 6, 2, 1, 3, 9, 4, 1, 5, 6, 3, 8, 2, 5, 7, 2, 9, 5, 6, 5, 3, 0, 0, 8, 8, 10, 3, 5, 5, 7, 10, 3, 8, 1, 7, 6, 2, 5, 3, 2, 8, 10, 5, 3, 2, 10, 2, 4, 9, 9, 2, 5, 6, 0, 0, 2, 3, 8, 4, 2, 7, 6, 1, 7, 7, 4, 7, 3, 3, 6, 9, 3, 5, 4, 7, 1, 3, 10, 1, 10, 6, 5, 8, 4, 4, 0]);

suc = [
   {2, 3, 4},
   {9, 11, 7},
   {8, 5, 6},
   {16, 14, 22},
   {25, 21, 22},
   {24, 12},
   {10, 14, 15},
   {27, 14, 15},
   {12, 23},
   {16, 12, 20},
   {17, 13},
   {27, 31},
   {18, 19, 23},
   {17, 20, 21},
   {16, 17, 20},
   {18, 19},
   {25, 18, 26},
   {30},
   {28, 21},
   {24, 23},
   {24, 29},
   {26, 27},
   {25, 28},
   {26},
   {29, 31},
   {30, 31},
   {28, 30},
   {29},
   {32},
   {32},
   {32},
   {  } ];

deadline = array2d(1..32, 1..3, [2, 5, 3, 26, 4, 3, 38, 0, 2, 42, 4, 4, 47, 1, 3, 50, 4, 4, 52, 3, 5, 54, 4, 4, 58, 1, 2, 61, 3, 4, 66, 2, 0, 67, 2, 2, 74, 0, 2, 74, 4, 4, 75, 1, 2, 76, 3, 3, 86, 1, 3, 88, 2, 3, 88, 4, 4, 90, 1, 2, 92, 3, 2, 100, 2, 2, 102, 4, 1, 106, 4, 1, 109, 3, 0, 109, 1, 4, 117, 0, 3, 119, 4, 5, 122, 4, 5, 124, 0, 3, 124, 4, 4, 131, 4, 0]);
