n_res = 4;
rc = [ 36, 26, 28, 36 ];
n_tasks = 32;
d = [0, 5, 3, 6, 2, 2, 9, 8, 8, 10, 7, 4, 1, 5, 8, 5, 4, 6, 4, 5, 10, 8, 7, 6, 7, 3, 7, 9, 2, 7, 8, 0];
rr = array2d(1..4, 1..32, [0, 5, 7, 5, 3, 0, 4, 3, 8, 0, 4, 8, 10, 0, 7, 2, 10, 1, 6, 1, 10, 7, 5, 10, 5, 7, 6, 10, 8, 1, 5, 0, 0, 0, 8, 3, 3, 4, 8, 0, 1, 6, 0, 0, 0, 10, 0, 0, 7, 9, 2, 9, 6, 1, 4, 2, 9, 2, 0, 4, 5, 2, 10, 0, 0, 8, 0, 2, 0, 0, 8, 0, 3, 10, 6, 9, 7, 0, 8, 0, 0, 0, 0, 6, 4, 7, 10, 7, 0, 1, 4, 0, 0, 0, 8, 0, 0, 6, 9, 1, 8, 3, 8, 8, 0, 3, 4, 10, 2, 6, 2, 0, 3, 6, 7, 6, 2, 5, 2, 0, 8, 3, 6, 0, 0, 10, 3, 0]);

suc = [
   {2, 3, 4},
   {24, 12, 5},
   {8, 6, 15},
   {13},
   {19},
   {9, 23, 7},
   {16, 25, 10},
   {27, 25, 19},
   {11},
   {20, 14},
   {19, 21},
   {17, 31},
   {20, 15},
   {26},
   {16, 27, 23},
   {28, 22},
   {18},
   {28, 22},
   {20, 22},
   {30},
   {24, 26, 27},
   {29},
   {24, 26},
   {25},
   {28, 29},
   {30, 31},
   {29, 31},
   {30},
   {32},
   {32},
   {32},
   {  } ];

deadline = array2d(1..32, 1..3, [9, 5, 3, 14, 3, 5, 27, 5, 4, 32, 2, 4, 40, 2, 2, 49, 2, 4, 52, 0, 3, 54, 0, 0, 57, 0, 3, 59, 3, 4, 60, 2, 1, 61, 2, 1, 64, 4, 4, 67, 3, 3, 68, 4, 2, 71, 3, 2, 73, 0, 4, 82, 1, 4, 86, 2, 2, 94, 4, 2, 97, 2, 5, 100, 1, 4, 103, 0, 0, 106, 3, 3, 108, 5, 1, 112, 1, 0, 125, 1, 0, 129, 2, 4, 130, 1, 5, 133, 2, 3, 140, 5, 0, 145, 3, 1]);
