n_res = 4;
rc = [ 41, 23, 32, 32 ];
n_tasks = 32;
d = [0, 1, 3, 5, 4, 2, 5, 10, 8, 4, 9, 6, 4, 9, 2, 3, 8, 5, 5, 9, 7, 6, 10, 9, 8, 1, 9, 3, 9, 2, 7, 0];
rr = array2d(1..4, 1..32, [0, 10, 8, 6, 10, 10, 4, 8, 8, 1, 10, 7, 0, 6, 5, 4, 5, 0, 7, 4, 6, 7, 0, 3, 1, 9, 1, 9, 10, 4, 6, 0, 0, 3, 6, 0, 0, 9, 2, 7, 10, 3, 0, 0, 1, 9, 7, 0, 0, 9, 0, 0, 2, 0, 10, 0, 3, 6, 0, 2, 3, 6, 4, 0, 0, 7, 8, 3, 0, 9, 6, 3, 4, 5, 0, 0, 6, 0, 1, 0, 8, 6, 10, 10, 9, 6, 0, 2, 7, 0, 1, 7, 1, 0, 0, 0, 0, 10, 2, 0, 8, 10, 2, 0, 4, 0, 2, 0, 8, 0, 2, 2, 3, 6, 8, 4, 1, 1, 6, 9, 9, 0, 9, 9, 9, 5, 1, 0]);

suc = [
   {2, 3, 4},
   {12, 6},
   {9, 29, 5},
   {24, 20, 7},
   {8, 25},
   {19, 13, 30},
   {11, 22},
   {10, 26, 20},
   {21},
   {14, 23},
   {16, 18, 19},
   {24, 13},
   {17, 22, 15},
   {17, 19, 15},
   {16, 21},
   {31},
   {27, 21},
   {25, 26, 23},
   {28},
   {22, 30},
   {31},
   {23},
   {28},
   {25, 27},
   {30},
   {27},
   {28},
   {31},
   {32},
   {32},
   {32},
   {  } ];

deadline = array2d(1..32, 1..3, [2, 2, 3, 5, 2, 0, 9, 1, 5, 16, 4, 0, 28, 5, 1, 29, 2, 0, 30, 2, 1, 32, 0, 0, 33, 0, 5, 36, 0, 1, 37, 1, 2, 40, 1, 4, 42, 3, 0, 51, 5, 1, 55, 3, 2, 57, 5, 4, 66, 3, 0, 67, 5, 1, 73, 5, 3, 76, 2, 4, 86, 2, 4, 86, 2, 2, 87, 3, 2, 95, 5, 1, 107, 4, 4, 112, 5, 5, 115, 3, 1, 124, 0, 5, 126, 3, 1, 136, 3, 5, 140, 3, 3, 141, 1, 3]);
