n_res = 4;
rc = [ 20, 19, 23, 23 ];
n_tasks = 32;
d = [0, 9, 5, 9, 10, 8, 1, 10, 6, 3, 9, 10, 4, 2, 4, 10, 9, 9, 10, 1, 7, 9, 5, 5, 3, 8, 4, 2, 1, 7, 8, 0];
rr = array2d(1..4, 1..32, [0, 3, 0, 7, 4, 8, 9, 3, 4, 0, 4, 2, 6, 4, 0, 3, 6, 5, 0, 5, 7, 5, 4, 5, 0, 7, 0, 3, 0, 2, 0, 0, 0, 7, 2, 5, 6, 4, 7, 0, 0, 7, 0, 0, 0, 10, 0, 6, 9, 2, 9, 4, 0, 5, 0, 0, 8, 10, 7, 0, 9, 2, 7, 0, 0, 0, 10, 7, 10, 7, 1, 2, 3, 4, 4, 5, 5, 9, 4, 4, 0, 3, 0, 4, 6, 2, 9, 0, 0, 9, 8, 1, 2, 3, 2, 0, 0, 10, 6, 0, 8, 8, 3, 4, 8, 0, 8, 2, 3, 5, 7, 0, 7, 4, 0, 2, 4, 1, 9, 7, 3, 0, 10, 0, 7, 8, 5, 0]);

suc = [
   {2, 3, 4},
   {10, 11, 5},
   {18, 13, 7},
   {16, 9, 6},
   {15},
   {8, 17, 12},
   {22},
   {14},
   {22},
   {29, 14, 31},
   {21},
   {30},
   {16, 25},
   {25},
   {19},
   {26, 20},
   {23},
   {22},
   {21, 23},
   {24},
   {28},
   {25, 29},
   {30},
   {28, 31},
   {26},
   {27},
   {28},
   {30},
   {32},
   {32},
   {32},
   {  } ];

deadline = array2d(1..32, 1..3, [6, 1, 0, 7, 1, 2, 14, 1, 4, 14, 0, 4, 16, 2, 4, 29, 4, 2, 34, 0, 3, 34, 3, 5, 36, 3, 0, 50, 0, 0, 51, 3, 1, 60, 4, 3, 61, 3, 1, 67, 4, 3, 71, 4, 0, 74, 5, 2, 79, 0, 0, 79, 3, 1, 79, 5, 3, 85, 0, 0, 87, 5, 2, 92, 2, 1, 99, 5, 1, 102, 4, 4, 103, 4, 3, 103, 1, 5, 109, 0, 5, 117, 2, 5, 119, 0, 2, 122, 2, 2, 127, 1, 3, 129, 0, 3]);
