n_res = 4;
rc = [ 12, 14, 12, 12 ];
n_tasks = 32;
d = [0, 2, 5, 4, 6, 9, 8, 1, 9, 5, 10, 9, 6, 7, 1, 5, 1, 4, 10, 4, 3, 8, 7, 2, 7, 7, 8, 2, 4, 8, 1, 0];
rr = array2d(1..4, 1..32, [0, 0, 0, 0, 0, 0, 0, 2, 0, 0, 0, 0, 2, 0, 10, 0, 0, 0, 2, 5, 8, 0, 0, 2, 0, 8, 0, 0, 0, 0, 0, 0, 0, 0, 0, 0, 0, 2, 3, 0, 0, 0, 9, 0, 0, 0, 0, 6, 0, 9, 0, 0, 0, 0, 0, 0, 0, 0, 4, 0, 0, 0, 8, 0, 0, 0, 0, 7, 0, 0, 0, 0, 2, 0, 0, 9, 0, 7, 0, 0, 0, 0, 0, 0, 0, 5, 0, 0, 0, 0, 0, 3, 1, 0, 0, 0, 0, 9, 1, 0, 8, 0, 0, 0, 0, 6, 0, 0, 0, 0, 0, 0, 5, 0, 0, 0, 0, 0, 1, 0, 10, 0, 0, 0, 0, 10, 0, 0]);

suc = [
   {2, 3, 4},
   {18, 19, 7},
   {10, 5, 6},
   {8, 10, 21},
   {16, 9, 7},
   {11, 13, 15},
   {13, 30, 31},
   {16, 12, 13},
   {19, 25, 11},
   {24, 25, 14},
   {28, 21, 14},
   {17, 20},
   {14, 23},
   {29},
   {16, 17, 21},
   {26, 27, 23},
   {18},
   {24, 25, 22},
   {20, 22, 31},
   {24, 23},
   {27, 22},
   {29},
   {29},
   {26, 28},
   {26, 27, 28},
   {30},
   {31},
   {30},
   {32},
   {32},
   {32},
   {  } ];

deadline = array2d(1..32, 1..3, [5, 4, 2, 7, 4, 2, 9, 0, 1, 9, 0, 5, 17, 3, 2, 19, 1, 1, 20, 0, 5, 20, 5, 4, 21, 4, 5, 23, 0, 5, 36, 0, 4, 56, 2, 1, 63, 1, 4, 65, 1, 2, 70, 4, 5, 79, 3, 5, 80, 5, 3, 81, 3, 3, 82, 0, 0, 82, 2, 3, 84, 0, 2, 90, 0, 1, 93, 5, 5, 94, 0, 2, 95, 3, 0, 98, 1, 4, 108, 2, 0, 115, 3, 2, 122, 0, 0, 123, 1, 4, 125, 4, 4, 126, 2, 5]);
