n_res = 4;
rc = [ 12, 15, 14, 14 ];
n_tasks = 32;
d = [0, 10, 3, 10, 4, 10, 10, 3, 3, 8, 8, 7, 1, 10, 7, 3, 10, 4, 4, 10, 7, 10, 10, 4, 2, 1, 7, 2, 2, 10, 5, 0];
rr = array2d(1..4, 1..32, [0, 0, 0, 0, 0, 0, 0, 0, 0, 0, 0, 9, 0, 0, 0, 10, 3, 3, 0, 0, 0, 0, 8, 0, 0, 0, 6, 0, 0, 0, 0, 0, 0, 10, 0, 0, 0, 9, 0, 0, 0, 4, 0, 0, 0, 0, 0, 0, 0, 0, 10, 0, 0, 0, 0, 0, 0, 0, 0, 3, 0, 0, 0, 0, 0, 0, 6, 0, 0, 0, 4, 0, 9, 0, 6, 0, 0, 0, 0, 0, 0, 0, 0, 6, 0, 0, 0, 6, 2, 10, 0, 0, 9, 9, 0, 0, 0, 0, 0, 4, 8, 0, 0, 8, 0, 0, 0, 0, 4, 4, 8, 0, 0, 0, 0, 0, 7, 1, 0, 0, 0, 0, 0, 0, 0, 0, 10, 0]);

suc = [
   {2, 3, 4},
   {8, 24, 28},
   {13, 6, 15},
   {8, 5, 7},
   {9, 13, 14},
   {16, 19, 22},
   {10, 11, 12},
   {18, 26, 13},
   {16, 18, 28},
   {22, 15},
   {17, 22},
   {17, 18, 25},
   {16, 31},
   {25, 27, 20},
   {17, 19, 23},
   {21},
   {24, 20, 31},
   {31, 21, 23},
   {24, 20, 21},
   {28},
   {27},
   {25, 27, 23},
   {29, 30},
   {26, 29},
   {26},
   {30},
   {30},
   {29},
   {32},
   {32},
   {32},
   {  } ];

deadline = array2d(1..32, 1..3, [3, 4, 5, 9, 0, 4, 9, 2, 5, 22, 0, 2, 23, 2, 1, 36, 0, 0, 43, 4, 2, 46, 0, 5, 51, 0, 5, 51, 5, 3, 56, 3, 2, 60, 0, 0, 61, 3, 5, 62, 1, 1, 64, 1, 3, 65, 1, 4, 69, 4, 2, 70, 4, 3, 76, 0, 4, 76, 4, 0, 78, 0, 1, 93, 2, 3, 98, 5, 1, 103, 0, 4, 108, 3, 5, 122, 4, 5, 137, 5, 4, 140, 1, 4, 147, 0, 2, 148, 2, 2, 154, 2, 4, 155, 1, 3]);
