n_res = 4;
rc = [ 32, 26, 31, 31 ];
n_tasks = 32;
d = [0, 1, 6, 9, 6, 2, 5, 7, 2, 7, 4, 5, 3, 7, 8, 7, 5, 1, 5, 6, 9, 6, 2, 9, 6, 7, 9, 8, 7, 4, 9, 0];
rr = array2d(1..4, 1..32, [0, 6, 2, 4, 7, 6, 7, 10, 3, 1, 7, 8, 10, 4, 4, 6, 4, 9, 10, 3, 5, 1, 8, 9, 6, 5, 5, 6, 8, 9, 8, 0, 0, 5, 9, 5, 6, 7, 1, 5, 5, 6, 1, 4, 2, 3, 10, 7, 5, 2, 3, 5, 8, 8, 10, 9, 1, 4, 3, 10, 6, 1, 4, 0, 0, 3, 9, 9, 8, 4, 4, 8, 4, 6, 5, 5, 9, 8, 2, 8, 9, 5, 10, 6, 8, 4, 5, 5, 9, 9, 4, 4, 8, 1, 3, 0, 0, 5, 5, 8, 6, 5, 1, 5, 10, 8, 2, 4, 10, 10, 10, 8, 5, 9, 9, 2, 7, 7, 3, 7, 5, 10, 6, 7, 4, 2, 6, 0]);

suc = [
   {2, 3, 4},
   {8, 14, 15},
   {11, 5, 6},
   {11, 13, 7},
   {9, 18, 26},
   {8, 10, 7},
   {30, 31},
   {16, 19, 20},
   {19, 20, 31},
   {16, 17, 22},
   {12, 14, 22},
   {16, 23, 15},
   {25, 19, 15},
   {17, 21, 25},
   {17, 20},
   {27, 29},
   {24, 18, 26},
   {27},
   {24, 21, 22},
   {21, 30},
   {29},
   {28},
   {24, 25, 26},
   {28},
   {29},
   {27, 31},
   {28},
   {30},
   {32},
   {32},
   {32},
   {  } ];

deadline = array2d(1..32, 1..3, [2, 5, 1, 5, 1, 2, 21, 0, 2, 24, 4, 5, 40, 5, 0, 42, 2, 3, 46, 0, 0, 48, 5, 2, 49, 0, 3, 50, 3, 1, 56, 1, 2, 56, 1, 2, 57, 5, 4, 57, 1, 5, 59, 3, 2, 62, 2, 5, 71, 3, 1, 73, 0, 5, 75, 0, 2, 76, 0, 3, 76, 4, 0, 86, 2, 4, 98, 4, 3, 101, 5, 0, 103, 0, 4, 104, 1, 1, 109, 4, 1, 114, 2, 5, 118, 2, 3, 126, 0, 3, 129, 5, 5, 131, 1, 0]);
