n_res = 4;
rc = [ 13, 16, 13, 13 ];
n_tasks = 32;
d = [0, 9, 5, 8, 1, 4, 10, 1, 1, 7, 3, 9, 3, 2, 7, 6, 6, 1, 4, 2, 10, 8, 10, 7, 9, 8, 3, 4, 2, 5, 8, 0];
rr = array2d(1..4, 1..32, [0, 8, 6, 9, 7, 7, 7, 0, 2, 4, 1, 0, 8, 9, 0, 7, 8, 10, 1, 6, 10, 0, 0, 1, 0, 7, 9, 0, 0, 10, 5, 0, 0, 0, 10, 6, 3, 3, 6, 1, 0, 0, 2, 9, 6, 9, 0, 0, 10, 6, 0, 9, 10, 6, 4, 10, 8, 8, 8, 3, 2, 4, 3, 0, 0, 3, 8, 1, 6, 3, 3, 0, 4, 8, 10, 8, 0, 4, 6, 7, 1, 3, 2, 3, 7, 10, 5, 0, 6, 0, 4, 3, 0, 10, 1, 0, 0, 9, 0, 6, 7, 0, 6, 0, 0, 0, 9, 5, 2, 0, 4, 5, 6, 5, 3, 10, 10, 0, 0, 5, 0, 2, 2, 1, 0, 6, 8, 0]);

suc = [
   {2, 3, 4},
   {11, 5, 7},
   {19, 10, 18},
   {8, 13, 6},
   {10, 12, 20},
   {27, 20, 23},
   {9, 10, 20},
   {17, 22, 15},
   {14, 30},
   {16, 27, 15},
   {18, 12, 13},
   {16, 22, 15},
   {27, 29, 14},
   {24, 26, 19},
   {24, 28, 23},
   {17, 26, 21},
   {25, 28, 29},
   {24, 21, 30},
   {21},
   {25, 26, 22},
   {23},
   {29},
   {25},
   {31},
   {31},
   {31},
   {28},
   {30},
   {32},
   {32},
   {32},
   {  } ];

deadline = array2d(1..32, 1..3, [21, 3, 3, 26, 0, 5, 26, 5, 5, 31, 5, 5, 44, 3, 0, 47, 5, 4, 50, 0, 5, 53, 3, 1, 57, 5, 3, 62, 2, 5, 64, 0, 2, 74, 0, 5, 79, 0, 4, 83, 2, 1, 96, 4, 0, 104, 3, 5, 105, 2, 0, 107, 2, 1, 109, 4, 4, 118, 3, 0, 132, 2, 3, 140, 3, 3, 151, 5, 0, 151, 3, 5, 151, 2, 5, 155, 3, 5, 157, 3, 4, 161, 2, 5, 167, 0, 4, 169, 4, 1, 170, 3, 0, 171, 0, 5]);
