n_res = 4;
rc = [ 34, 41, 46, 37 ];
n_tasks = 32;
d = [0, 7, 3, 6, 3, 3, 3, 10, 1, 5, 4, 5, 5, 8, 9, 5, 8, 10, 10, 10, 2, 3, 9, 5, 1, 8, 6, 7, 1, 3, 3, 0];
rr = array2d(1..4, 1..32, [0, 1, 6, 4, 5, 7, 10, 6, 3, 3, 8, 7, 4, 5, 3, 5, 1, 6, 2, 6, 2, 3, 5, 2, 6, 9, 7, 2, 8, 6, 3, 0, 0, 10, 5, 5, 7, 10, 6, 9, 5, 4, 4, 7, 5, 5, 5, 5, 10, 2, 4, 2, 2, 9, 10, 4, 9, 4, 1, 8, 4, 6, 8, 0, 0, 9, 5, 4, 3, 5, 7, 9, 3, 5, 8, 9, 9, 5, 7, 2, 8, 8, 9, 5, 8, 9, 1, 2, 3, 6, 6, 1, 7, 2, 10, 0, 0, 9, 10, 1, 6, 8, 2, 2, 4, 6, 8, 2, 8, 5, 4, 6, 8, 5, 1, 6, 1, 8, 3, 3, 9, 1, 3, 3, 2, 3, 4, 0]);

suc = [
   {2, 3, 4},
   {11, 6, 7},
   {8, 10, 5},
   {17, 12, 13},
   {16},
   {9, 14},
   {12},
   {24},
   {20, 28},
   {25, 19},
   {27},
   {23},
   {23},
   {22, 15},
   {18, 21},
   {20, 22},
   {18},
   {26},
   {30},
   {27},
   {28},
   {25},
   {25, 31},
   {29, 31},
   {28},
   {30},
   {29, 31},
   {30},
   {32},
   {32},
   {32},
   {  } ];

deadline = array2d(1..32, 1..3, [7, 0, 1, 10, 2, 0, 15, 3, 1, 16, 1, 1, 16, 1, 5, 20, 2, 5, 24, 2, 4, 33, 5, 5, 33, 2, 2, 47, 3, 2, 48, 5, 3, 49, 4, 0, 49, 1, 4, 51, 5, 0, 57, 5, 1, 63, 0, 1, 68, 3, 5, 74, 4, 3, 78, 3, 3, 79, 0, 0, 80, 0, 2, 85, 4, 5, 85, 1, 1, 86, 2, 3, 86, 3, 5, 94, 1, 4, 97, 2, 5, 99, 0, 2, 100, 1, 2, 111, 5, 1, 115, 1, 4, 118, 2, 0]);
