n_res = 4;
rc = [ 17, 16, 15, 17 ];
n_tasks = 32;
d = [0, 1, 9, 10, 4, 8, 2, 4, 7, 4, 10, 1, 7, 3, 6, 3, 9, 4, 1, 1, 5, 6, 2, 1, 3, 4, 10, 10, 7, 4, 9, 0];
rr = array2d(1..4, 1..32, [0, 1, 5, 3, 9, 10, 6, 3, 10, 6, 10, 10, 2, 4, 10, 8, 6, 9, 3, 6, 7, 5, 8, 7, 10, 5, 7, 10, 2, 4, 8, 0, 0, 6, 5, 3, 1, 7, 10, 8, 6, 3, 9, 10, 4, 8, 6, 10, 8, 8, 7, 7, 7, 4, 3, 4, 1, 7, 1, 9, 5, 3, 2, 0, 0, 4, 4, 4, 5, 2, 4, 10, 3, 6, 8, 8, 3, 10, 5, 1, 5, 10, 5, 5, 10, 9, 9, 1, 7, 6, 7, 8, 5, 2, 7, 0, 0, 10, 5, 8, 3, 6, 2, 4, 2, 7, 10, 8, 8, 5, 10, 3, 10, 1, 3, 3, 9, 8, 9, 3, 8, 3, 3, 8, 1, 7, 9, 0]);

suc = [
   {2, 3, 4},
   {10, 27, 6},
   {11, 6},
   {8, 5, 7},
   {25, 13, 23},
   {19, 22, 15},
   {11, 12, 14},
   {9, 12, 15},
   {16, 17, 13},
   {17, 15},
   {16, 27, 23},
   {21, 22},
   {18, 27, 28},
   {18, 22},
   {24, 18, 26},
   {19, 20},
   {19, 20},
   {29, 30, 31},
   {21},
   {24, 21},
   {25},
   {25, 23},
   {24, 26, 28},
   {30},
   {26, 28},
   {31},
   {29, 30},
   {29, 31},
   {32},
   {32},
   {32},
   {  } ];

deadline = array2d(1..32, 1..3, [2, 2, 0, 8, 4, 0, 12, 3, 5, 14, 5, 5, 20, 1, 4, 21, 4, 1, 24, 2, 3, 26, 3, 0, 29, 2, 2, 31, 1, 4, 31, 3, 1, 33, 2, 2, 43, 2, 5, 45, 4, 0, 51, 2, 0, 59, 3, 1, 65, 2, 2, 68, 4, 0, 68, 2, 1, 72, 1, 3, 83, 3, 0, 90, 4, 3, 92, 0, 0, 100, 5, 1, 104, 2, 3, 120, 5, 2, 122, 2, 2, 126, 2, 4, 126, 0, 3, 129, 4, 3, 133, 4, 0, 135, 3, 3]);
