n_res = 4;
rc = [ 24, 25, 28, 23 ];
n_tasks = 32;
d = [0, 2, 2, 8, 1, 6, 10, 5, 1, 3, 4, 10, 8, 1, 8, 6, 1, 8, 7, 5, 1, 3, 5, 4, 3, 4, 4, 2, 3, 4, 6, 0];
rr = array2d(1..4, 1..32, [0, 10, 1, 3, 9, 3, 0, 0, 8, 5, 9, 10, 0, 2, 3, 6, 10, 2, 2, 4, 9, 5, 0, 3, 3, 0, 0, 1, 0, 7, 4, 0, 0, 6, 2, 6, 8, 0, 2, 0, 8, 0, 1, 4, 3, 1, 9, 5, 0, 8, 0, 6, 8, 10, 7, 10, 8, 10, 0, 6, 1, 6, 0, 0, 0, 4, 7, 2, 5, 0, 0, 4, 0, 0, 10, 4, 1, 1, 0, 9, 1, 8, 5, 0, 3, 0, 7, 9, 9, 5, 3, 3, 0, 3, 8, 0, 0, 0, 0, 1, 5, 7, 1, 2, 6, 0, 8, 6, 2, 0, 2, 3, 5, 9, 0, 2, 0, 9, 7, 0, 2, 6, 5, 4, 4, 1, 5, 0]);

suc = [
   {2, 3, 4},
   {9, 11, 12},
   {10, 30, 7},
   {10, 5, 23},
   {24, 6, 22},
   {29, 21},
   {8, 25, 20},
   {9, 14},
   {28, 23},
   {16, 17, 13},
   {25, 27, 22},
   {19, 21, 30},
   {18, 31, 15},
   {17, 31},
   {24, 22},
   {27, 19},
   {18},
   {27},
   {24, 25},
   {21},
   {31},
   {26},
   {29},
   {26},
   {26},
   {28},
   {28},
   {29},
   {32},
   {32},
   {32},
   {  } ];

deadline = array2d(1..32, 1..3, [7, 5, 2, 9, 0, 5, 10, 0, 1, 18, 2, 0, 18, 2, 4, 20, 3, 1, 20, 1, 0, 24, 0, 1, 25, 1, 0, 27, 1, 1, 28, 5, 2, 34, 2, 2, 35, 3, 4, 36, 5, 3, 36, 3, 1, 38, 3, 5, 40, 1, 2, 45, 0, 3, 45, 3, 0, 46, 5, 4, 49, 4, 3, 52, 1, 5, 53, 1, 0, 55, 2, 4, 55, 5, 5, 57, 2, 3, 65, 4, 0, 70, 4, 0, 75, 2, 2, 77, 3, 5, 95, 0, 5, 98, 5, 3]);
