n_res = 4;
rc = [ 23, 16, 16, 16 ];
n_tasks = 32;
d = [0, 9, 9, 2, 2, 1, 2, 10, 5, 3, 4, 3, 6, 6, 2, 6, 6, 4, 5, 1, 3, 9, 3, 7, 3, 1, 2, 2, 7, 7, 1, 0];
rr = array2d(1..4, 1..32, [0, 2, 0, 0, 6, 0, 0, 5, 1, 0, 5, 0, 1, 0, 10, 0, 0, 0, 10, 6, 0, 6, 10, 8, 0, 0, 0, 3, 2, 0, 8, 0, 0, 0, 10, 5, 3, 0, 0, 0, 0, 3, 7, 0, 0, 2, 0, 2, 1, 0, 0, 3, 0, 0, 0, 0, 2, 10, 0, 9, 6, 0, 9, 0, 0, 0, 4, 0, 9, 7, 6, 0, 0, 9, 0, 2, 0, 0, 0, 0, 4, 10, 0, 0, 0, 2, 6, 0, 0, 2, 2, 0, 0, 8, 3, 0, 0, 0, 0, 0, 0, 0, 2, 4, 6, 0, 9, 0, 0, 0, 4, 1, 10, 3, 0, 1, 1, 0, 8, 2, 4, 0, 1, 10, 8, 9, 5, 0]);

suc = [
   {2, 3, 4},
   {17, 13, 15},
   {8, 5, 6},
   {9, 11, 7},
   {17, 18, 15},
   {24, 15},
   {16, 14, 22},
   {10, 18},
   {18, 20, 13},
   {24, 12, 20},
   {16, 26, 12},
   {19, 28, 21},
   {16, 19, 14},
   {21, 23},
   {25, 27, 31},
   {24, 27, 29},
   {26, 19, 20},
   {21, 22, 23},
   {22},
   {25, 31},
   {30},
   {25},
   {26, 27},
   {31},
   {29, 30},
   {28, 29},
   {28},
   {30},
   {32},
   {32},
   {32},
   {  } ];

deadline = array2d(1..32, 1..3, [1, 1, 4, 16, 4, 1, 16, 1, 4, 18, 3, 0, 22, 3, 5, 32, 3, 5, 33, 5, 4, 35, 0, 0, 40, 5, 3, 41, 4, 4, 59, 5, 5, 59, 4, 3, 60, 3, 5, 62, 3, 5, 63, 4, 5, 65, 0, 3, 69, 5, 4, 73, 0, 0, 74, 2, 5, 74, 0, 3, 75, 1, 0, 76, 0, 2, 78, 1, 1, 92, 1, 2, 93, 1, 0, 95, 4, 1, 97, 4, 0, 110, 1, 5, 112, 5, 0, 117, 4, 5, 118, 1, 3, 120, 4, 1]);
