n_res = 4;
rc = [ 10, 10, 15, 14 ];
n_tasks = 32;
d = [0, 9, 3, 1, 7, 4, 3, 6, 6, 3, 8, 6, 1, 9, 6, 3, 2, 5, 3, 4, 7, 3, 6, 6, 7, 9, 8, 10, 4, 2, 6, 0];
rr = array2d(1..4, 1..32, [0, 0, 9, 0, 0, 0, 0, 0, 0, 0, 3, 0, 0, 0, 10, 5, 4, 0, 0, 0, 0, 0, 0, 0, 0, 0, 0, 0, 1, 0, 8, 0, 0, 4, 0, 4, 6, 0, 0, 0, 0, 0, 0, 0, 0, 0, 0, 0, 0, 0, 0, 0, 0, 6, 0, 0, 4, 5, 7, 0, 0, 0, 0, 0, 0, 0, 0, 0, 0, 8, 1, 5, 9, 10, 0, 0, 0, 2, 0, 0, 0, 4, 0, 7, 0, 0, 0, 0, 0, 0, 0, 0, 0, 7, 0, 0, 0, 0, 0, 0, 0, 0, 0, 0, 0, 0, 0, 2, 8, 0, 0, 0, 0, 0, 10, 0, 3, 0, 1, 9, 0, 0, 0, 6, 0, 0, 0, 0]);

suc = [
   {2, 3, 4},
   {8, 18, 21},
   {9, 5, 15},
   {23, 6, 7},
   {27, 19},
   {18, 31, 15},
   {31},
   {22},
   {10, 12, 21},
   {11, 14, 22},
   {13},
   {29},
   {17, 20, 25},
   {16, 25, 26},
   {25, 27},
   {19},
   {19, 28, 23},
   {26, 27, 22},
   {24, 30},
   {24, 26},
   {23},
   {28},
   {24},
   {31},
   {29},
   {30},
   {28, 29},
   {30},
   {32},
   {32},
   {32},
   {  } ];

deadline = array2d(1..32, 1..3, [1, 0, 2, 1, 3, 3, 6, 2, 0, 8, 1, 4, 12, 4, 4, 12, 3, 2, 14, 4, 4, 17, 0, 5, 25, 0, 0, 33, 1, 2, 33, 0, 2, 34, 2, 1, 36, 1, 0, 37, 4, 0, 37, 0, 5, 46, 0, 4, 48, 5, 5, 50, 3, 5, 52, 4, 2, 59, 3, 5, 70, 5, 4, 75, 0, 1, 76, 2, 4, 78, 1, 1, 82, 4, 4, 90, 1, 3, 91, 5, 1, 91, 3, 0, 92, 4, 1, 92, 5, 2, 97, 5, 0, 99, 5, 2]);
