n_res = 4;
rc = [ 16, 23, 17, 21 ];
n_tasks = 32;
d = [0, 7, 10, 1, 1, 7, 3, 2, 8, 4, 1, 4, 8, 2, 4, 10, 5, 1, 4, 4, 7, 2, 4, 8, 9, 1, 8, 10, 6, 6, 7, 0];
rr = array2d(1..4, 1..32, [0, 2, 0, 8, 6, 4, 10, 4, 5, 5, 0, 3, 0, 0, 2, 9, 5, 4, 8, 3, 8, 4, 9, 0, 0, 6, 0, 10, 0, 8, 0, 0, 0, 0, 7, 1, 2, 3, 6, 8, 8, 6, 8, 5, 3, 6, 1, 7, 0, 0, 0, 10, 1, 0, 10, 1, 9, 8, 9, 4, 6, 5, 2, 0, 0, 2, 0, 0, 4, 6, 0, 3, 6, 2, 9, 1, 1, 2, 9, 6, 6, 2, 1, 3, 6, 5, 7, 1, 0, 3, 9, 4, 0, 0, 0, 0, 0, 1, 7, 10, 10, 1, 9, 1, 0, 0, 0, 4, 8, 4, 4, 10, 1, 0, 10, 4, 4, 0, 0, 2, 1, 0, 3, 6, 0, 10, 10, 0]);

suc = [
   {2, 3, 4},
   {16, 9, 18},
   {8, 5, 6},
   {16, 12, 7},
   {18, 11, 21},
   {10, 20, 13},
   {10, 11, 14},
   {11, 28},
   {19, 14},
   {17, 26, 15},
   {24, 29, 31},
   {17, 22, 15},
   {16, 19, 14},
   {25, 30, 15},
   {23},
   {17, 21},
   {24, 27, 23},
   {22, 23},
   {25, 26, 27},
   {21},
   {25, 27, 22},
   {24, 26, 31},
   {28},
   {30},
   {28},
   {30},
   {29, 31},
   {29},
   {32},
   {32},
   {32},
   {  } ];

deadline = array2d(1..32, 1..3, [8, 3, 0, 9, 3, 5, 11, 0, 5, 20, 1, 1, 22, 1, 3, 33, 3, 4, 33, 0, 2, 40, 2, 3, 42, 2, 2, 43, 4, 2, 46, 5, 3, 52, 5, 3, 58, 4, 4, 63, 3, 1, 64, 5, 3, 67, 1, 1, 77, 3, 4, 77, 3, 3, 81, 5, 3, 82, 5, 0, 103, 2, 5, 104, 1, 2, 128, 4, 5, 129, 4, 0, 131, 3, 3, 138, 5, 0, 139, 0, 1, 146, 2, 0, 151, 5, 1, 155, 1, 1, 161, 2, 2, 167, 1, 3]);
