n_res = 4;
rc = [ 10, 14, 23, 11 ];
n_tasks = 32;
d = [0, 4, 5, 6, 3, 3, 3, 5, 7, 1, 10, 1, 8, 7, 9, 8, 7, 6, 1, 3, 10, 5, 10, 8, 1, 4, 5, 2, 8, 7, 8, 0];
rr = array2d(1..4, 1..32, [0, 0, 6, 0, 0, 0, 0, 3, 0, 0, 2, 0, 0, 0, 0, 0, 5, 0, 6, 0, 9, 0, 0, 0, 0, 0, 0, 0, 5, 0, 0, 0, 0, 9, 0, 0, 0, 8, 0, 0, 0, 6, 0, 0, 0, 0, 0, 0, 0, 4, 0, 5, 0, 0, 6, 0, 0, 0, 6, 9, 0, 0, 0, 0, 0, 0, 0, 4, 10, 0, 0, 0, 0, 0, 0, 7, 6, 6, 6, 10, 0, 0, 0, 0, 0, 0, 0, 8, 0, 0, 0, 0, 0, 0, 0, 0, 0, 0, 0, 0, 0, 0, 8, 0, 2, 0, 0, 0, 0, 0, 0, 0, 0, 0, 0, 0, 0, 1, 0, 0, 5, 7, 0, 0, 0, 10, 3, 0]);

suc = [
   {2, 3, 4},
   {30},
   {11, 5, 7},
   {12, 15},
   {8, 17, 6},
   {27},
   {10, 29},
   {9, 13, 23},
   {19},
   {25},
   {20},
   {24, 17},
   {24, 14},
   {16, 18},
   {21},
   {27},
   {27, 22},
   {20, 31},
   {26},
   {28, 21},
   {26, 22},
   {29},
   {26},
   {25},
   {31},
   {30},
   {28},
   {29},
   {32},
   {32},
   {32},
   {  } ];

deadline = array2d(1..32, 1..3, [3, 0, 3, 7, 0, 2, 20, 3, 1, 21, 0, 1, 23, 5, 0, 27, 1, 5, 28, 3, 1, 31, 1, 5, 31, 1, 1, 35, 5, 2, 43, 3, 3, 45, 1, 3, 48, 2, 4, 54, 1, 3, 59, 1, 2, 59, 1, 5, 60, 1, 4, 61, 3, 5, 73, 0, 4, 78, 5, 2, 86, 1, 5, 87, 3, 5, 92, 5, 4, 94, 3, 5, 103, 3, 1, 107, 3, 5, 108, 4, 3, 110, 4, 3, 129, 1, 2, 133, 1, 3, 138, 4, 2, 142, 3, 0]);
