n_res = 4;
rc = [ 24, 26, 23, 30 ];
n_tasks = 32;
d = [0, 5, 4, 2, 7, 6, 8, 7, 7, 5, 2, 6, 1, 6, 1, 8, 3, 10, 4, 7, 9, 5, 8, 9, 10, 5, 3, 4, 5, 2, 5, 0];
rr = array2d(1..4, 1..32, [0, 4, 1, 4, 6, 7, 8, 9, 1, 4, 1, 3, 4, 9, 9, 6, 5, 6, 7, 4, 6, 7, 4, 7, 9, 8, 7, 6, 6, 7, 10, 0, 0, 10, 8, 4, 8, 4, 7, 9, 2, 6, 9, 9, 6, 10, 5, 6, 4, 6, 4, 10, 8, 1, 8, 3, 1, 10, 5, 2, 7, 5, 5, 0, 0, 5, 2, 9, 1, 7, 4, 2, 8, 6, 1, 2, 8, 5, 10, 3, 2, 9, 9, 6, 2, 3, 5, 9, 6, 3, 1, 2, 8, 10, 1, 0, 0, 9, 1, 8, 10, 5, 5, 2, 9, 9, 1, 6, 6, 6, 9, 6, 3, 8, 3, 8, 10, 2, 8, 5, 7, 8, 2, 10, 4, 9, 8, 0]);

suc = [
   {2, 3, 4},
   {16, 23, 7},
   {9, 6},
   {10, 11, 5},
   {25, 14},
   {28, 23},
   {8, 12},
   {13, 14, 15},
   {16},
   {17},
   {18},
   {30},
   {24, 17},
   {20, 22},
   {29, 30},
   {19},
   {27, 21},
   {19, 22},
   {26},
   {31},
   {22},
   {28},
   {27},
   {26},
   {27},
   {28},
   {30},
   {31},
   {32},
   {32},
   {32},
   {  } ];

deadline = array2d(1..32, 1..3, [7, 3, 3, 8, 4, 3, 12, 3, 1, 20, 1, 3, 21, 0, 2, 22, 2, 5, 28, 4, 3, 29, 0, 3, 32, 3, 0, 34, 0, 3, 34, 3, 2, 35, 2, 3, 37, 0, 0, 52, 4, 0, 63, 3, 3, 65, 4, 0, 66, 5, 1, 69, 3, 3, 75, 5, 4, 77, 2, 4, 79, 0, 0, 82, 1, 5, 83, 4, 4, 86, 0, 1, 86, 5, 3, 90, 0, 5, 92, 1, 0, 94, 5, 0, 94, 2, 3, 101, 0, 4, 105, 3, 1, 115, 2, 3]);
