n_res = 4;
rc = [ 15, 17, 12, 14 ];
n_tasks = 32;
d = [0, 1, 3, 8, 1, 4, 4, 3, 7, 9, 2, 8, 6, 2, 8, 9, 2, 10, 8, 7, 5, 5, 8, 8, 1, 10, 5, 10, 3, 8, 10, 0];
rr = array2d(1..4, 1..32, [0, 7, 0, 9, 4, 2, 9, 10, 0, 8, 2, 0, 0, 8, 0, 0, 5, 0, 10, 0, 5, 0, 0, 6, 3, 8, 6, 4, 0, 0, 0, 0, 0, 0, 3, 0, 0, 0, 0, 5, 0, 0, 0, 10, 9, 6, 6, 7, 0, 0, 0, 4, 6, 8, 9, 0, 0, 0, 0, 7, 1, 0, 0, 0, 0, 2, 3, 3, 7, 0, 0, 10, 0, 0, 2, 6, 2, 3, 0, 0, 4, 0, 0, 3, 0, 10, 3, 0, 1, 0, 0, 3, 0, 7, 2, 0, 0, 0, 6, 4, 7, 0, 8, 0, 5, 0, 0, 0, 0, 0, 1, 10, 0, 6, 0, 8, 0, 0, 1, 10, 5, 0, 4, 10, 0, 0, 0, 0]);

suc = [
   {2, 3, 4},
   {19, 29},
   {10, 20, 7},
   {16, 5, 6},
   {8, 11, 13},
   {12, 14},
   {15},
   {9},
   {22},
   {24, 21},
   {17},
   {17},
   {25, 27, 23},
   {26},
   {25, 23},
   {18, 28, 30},
   {31},
   {27, 29},
   {25},
   {28},
   {26},
   {23},
   {29},
   {30},
   {26},
   {28},
   {31},
   {31},
   {32},
   {32},
   {32},
   {  } ];

deadline = array2d(1..32, 1..3, [7, 1, 3, 11, 5, 1, 18, 5, 5, 21, 2, 0, 33, 2, 4, 34, 2, 3, 35, 4, 3, 37, 0, 2, 37, 2, 3, 40, 5, 4, 44, 0, 2, 53, 5, 1, 60, 3, 3, 65, 2, 1, 67, 5, 5, 67, 2, 3, 68, 5, 0, 69, 1, 0, 71, 5, 1, 75, 5, 2, 80, 2, 4, 87, 2, 5, 95, 5, 5, 98, 4, 5, 101, 3, 2, 101, 4, 0, 102, 2, 3, 108, 0, 3, 108, 1, 4, 108, 0, 4, 113, 0, 2, 117, 1, 0]);
