n_res = 4;
rc = [ 18, 13, 16, 14 ];
n_tasks = 32;
d = [0, 2, 8, 7, 8, 3, 5, 9, 7, 8, 8, 4, 10, 5, 7, 10, 3, 1, 1, 7, 8, 4, 1, 1, 2, 2, 4, 8, 1, 2, 3, 0];
rr = array2d(1..4, 1..32, [0, 7, 0, 1, 8, 6, 3, 0, 7, 10, 6, 6, 8, 4, 4, 8, 10, 2, 0, 4, 9, 10, 0, 9, 7, 0, 7, 4, 2, 3, 0, 0, 0, 3, 6, 4, 0, 2, 5, 0, 7, 10, 4, 6, 6, 0, 0, 8, 0, 6, 8, 4, 0, 3, 0, 0, 0, 2, 6, 0, 9, 0, 2, 0, 0, 5, 0, 8, 10, 0, 0, 10, 10, 8, 0, 7, 6, 10, 2, 5, 4, 5, 8, 7, 6, 7, 7, 0, 8, 5, 7, 9, 4, 1, 0, 0, 0, 0, 3, 5, 0, 7, 4, 3, 4, 0, 1, 4, 0, 7, 0, 2, 8, 5, 10, 4, 9, 0, 9, 3, 7, 7, 8, 2, 10, 4, 1, 0]);

suc = [
   {2, 3, 4},
   {8, 11, 6},
   {5, 14, 7},
   {16, 17, 11},
   {12, 23},
   {24, 26},
   {20, 22},
   {9, 10, 17},
   {24, 13},
   {16, 24, 15},
   {15},
   {20, 22, 31},
   {23},
   {25},
   {21, 22},
   {18, 29, 23},
   {26},
   {19, 21},
   {30},
   {25, 29},
   {27},
   {28},
   {25, 31},
   {27, 28},
   {30},
   {27, 28},
   {30, 31},
   {29},
   {32},
   {32},
   {32},
   {  } ];

deadline = array2d(1..32, 1..3, [1, 5, 4, 6, 2, 5, 7, 0, 0, 9, 1, 5, 12, 0, 0, 13, 0, 4, 16, 5, 2, 19, 5, 5, 19, 2, 2, 25, 2, 3, 26, 5, 4, 29, 4, 0, 29, 4, 4, 30, 2, 5, 42, 3, 5, 44, 2, 5, 55, 5, 1, 58, 5, 4, 59, 4, 0, 62, 3, 4, 72, 5, 1, 72, 0, 5, 73, 3, 1, 73, 5, 0, 77, 4, 1, 82, 5, 0, 88, 3, 1, 89, 1, 1, 90, 2, 3, 107, 5, 1, 107, 2, 3, 110, 4, 3]);
