n_res = 4;
rc = [ 24, 18, 27, 17 ];
n_tasks = 32;
d = [0, 6, 6, 3, 5, 7, 3, 9, 8, 9, 7, 6, 9, 10, 9, 5, 8, 10, 9, 2, 10, 6, 2, 1, 3, 2, 3, 1, 9, 5, 2, 0];
rr = array2d(1..4, 1..32, [0, 0, 6, 0, 0, 8, 0, 6, 10, 0, 0, 5, 10, 0, 0, 0, 2, 0, 0, 8, 10, 3, 1, 0, 0, 10, 0, 6, 0, 1, 3, 0, 0, 0, 0, 3, 0, 5, 0, 0, 4, 0, 3, 1, 0, 0, 7, 8, 0, 0, 0, 0, 9, 0, 0, 9, 0, 10, 0, 6, 1, 0, 0, 0, 0, 5, 6, 0, 4, 0, 9, 4, 0, 0, 0, 6, 0, 10, 5, 3, 10, 3, 7, 8, 8, 4, 4, 3, 6, 0, 10, 6, 0, 8, 0, 0, 0, 0, 3, 0, 0, 2, 3, 0, 0, 4, 5, 0, 7, 0, 0, 0, 6, 0, 0, 5, 0, 1, 0, 0, 10, 5, 7, 0, 0, 0, 10, 0]);

suc = [
   {2, 3, 4},
   {10, 13},
   {5, 6, 7},
   {9, 12, 21},
   {19, 11, 20},
   {10, 20, 14},
   {8, 16},
   {10, 19, 21},
   {16, 18, 19},
   {18},
   {17, 12, 13},
   {16, 18, 30},
   {30, 22, 15},
   {17, 22, 15},
   {31, 21, 23},
   {26, 27},
   {24, 25},
   {24, 22, 23},
   {24, 25, 23},
   {25, 28},
   {26, 28},
   {27, 31},
   {26, 27, 28},
   {31},
   {30},
   {29},
   {29},
   {29},
   {32},
   {32},
   {32},
   {  } ];

deadline = array2d(1..32, 1..3, [7, 3, 1, 12, 0, 1, 19, 4, 5, 23, 5, 2, 31, 1, 2, 38, 4, 3, 54, 4, 0, 60, 3, 4, 64, 5, 3, 75, 1, 2, 75, 4, 2, 76, 0, 4, 76, 0, 5, 77, 5, 4, 82, 1, 5, 83, 4, 3, 86, 5, 0, 100, 5, 1, 101, 5, 1, 106, 4, 0, 110, 5, 2, 111, 1, 2, 112, 4, 4, 113, 2, 5, 116, 1, 5, 116, 4, 2, 118, 0, 3, 121, 5, 2, 122, 3, 5, 133, 2, 5, 138, 3, 0, 141, 2, 2]);
