n_res = 4;
rc = [ 16, 14, 15, 13 ];
n_tasks = 32;
d = [0, 10, 10, 10, 5, 6, 5, 10, 1, 2, 1, 5, 7, 10, 1, 9, 6, 7, 1, 3, 3, 5, 6, 4, 4, 8, 10, 10, 10, 7, 4, 0];
rr = array2d(1..4, 1..32, [0, 9, 3, 6, 5, 1, 2, 9, 4, 2, 6, 9, 9, 6, 1, 3, 10, 2, 7, 8, 9, 5, 8, 2, 2, 7, 6, 5, 8, 2, 10, 0, 0, 9, 9, 5, 1, 7, 7, 9, 6, 7, 5, 3, 3, 2, 7, 8, 7, 10, 4, 7, 6, 9, 2, 1, 7, 1, 10, 2, 10, 2, 4, 0, 0, 8, 5, 5, 6, 6, 7, 3, 1, 9, 9, 10, 7, 7, 5, 4, 3, 3, 5, 1, 7, 7, 2, 8, 5, 5, 7, 1, 1, 10, 9, 0, 0, 4, 10, 9, 7, 6, 3, 2, 9, 3, 2, 4, 8, 3, 8, 10, 1, 4, 4, 5, 7, 7, 4, 5, 2, 6, 5, 6, 10, 2, 1, 0]);

suc = [
   {2, 3, 4},
   {13, 7},
   {26, 20, 14},
   {8, 17, 5},
   {9, 6, 30},
   {21, 14, 7},
   {16, 24},
   {24, 10, 14},
   {22},
   {11, 28},
   {12, 21, 15},
   {19},
   {16, 23},
   {16, 23},
   {18},
   {28, 29},
   {25},
   {25},
   {25, 26, 29},
   {24, 21},
   {22},
   {27, 23},
   {29, 31},
   {27, 28},
   {27, 30},
   {30},
   {31},
   {31},
   {32},
   {32},
   {32},
   {  } ];

deadline = array2d(1..32, 1..3, [16, 1, 5, 22, 1, 3, 42, 1, 1, 48, 4, 5, 49, 0, 0, 51, 4, 2, 53, 0, 4, 56, 1, 0, 62, 3, 0, 66, 3, 5, 66, 4, 5, 67, 2, 4, 70, 1, 2, 72, 3, 0, 72, 3, 5, 74, 5, 4, 75, 5, 3, 77, 2, 2, 95, 3, 5, 97, 3, 0, 104, 5, 2, 106, 0, 4, 106, 2, 4, 109, 1, 1, 111, 4, 4, 117, 4, 5, 119, 3, 5, 125, 1, 1, 127, 4, 5, 128, 1, 3, 130, 0, 3, 134, 5, 3]);
