n_res = 4;
rc = [ 15, 12, 13, 14 ];
n_tasks = 32;
d = [0, 10, 6, 10, 8, 6, 4, 5, 5, 9, 9, 10, 9, 9, 5, 9, 9, 5, 4, 7, 4, 5, 6, 5, 8, 2, 7, 4, 5, 8, 7, 0];
rr = array2d(1..4, 1..32, [0, 0, 10, 9, 4, 2, 2, 0, 0, 9, 8, 0, 0, 0, 8, 6, 7, 9, 0, 2, 0, 0, 0, 0, 2, 5, 2, 0, 5, 8, 0, 0, 0, 7, 0, 2, 0, 0, 6, 0, 10, 0, 0, 3, 9, 0, 0, 0, 0, 0, 2, 4, 4, 0, 2, 0, 9, 1, 0, 5, 0, 10, 0, 0, 0, 0, 4, 2, 5, 3, 8, 3, 0, 0, 6, 0, 0, 0, 6, 5, 2, 0, 0, 1, 7, 0, 0, 10, 3, 3, 0, 0, 0, 6, 4, 0, 0, 0, 0, 0, 0, 4, 0, 0, 3, 8, 0, 0, 0, 5, 9, 10, 3, 1, 1, 0, 0, 3, 0, 5, 0, 0, 8, 0, 0, 0, 5, 0]);

suc = [
   {2, 3, 4},
   {17, 19, 7},
   {9, 12},
   {11, 5, 6},
   {24, 18, 28},
   {8},
   {10, 13},
   {20, 23, 15},
   {14, 31},
   {29},
   {24},
   {19, 22},
   {25, 27},
   {16, 21},
   {27},
   {26},
   {26},
   {30},
   {21, 23},
   {24},
   {29},
   {29},
   {28},
   {26},
   {30},
   {30},
   {31},
   {31},
   {32},
   {32},
   {32},
   {  } ];

deadline = array2d(1..32, 1..3, [3, 2, 0, 6, 3, 5, 10, 5, 4, 12, 1, 4, 17, 2, 4, 20, 2, 4, 21, 1, 2, 22, 5, 3, 23, 5, 1, 27, 0, 2, 30, 5, 3, 30, 2, 0, 38, 3, 2, 41, 0, 4, 43, 1, 3, 49, 5, 2, 52, 1, 5, 54, 4, 4, 61, 4, 5, 61, 3, 4, 68, 5, 4, 71, 5, 4, 74, 1, 2, 75, 2, 2, 78, 0, 0, 83, 2, 0, 85, 3, 1, 85, 3, 2, 86, 2, 5, 95, 3, 0, 101, 0, 1, 107, 1, 2]);
