n_res = 4;
rc = [ 23, 20, 23, 21 ];
n_tasks = 32;
d = [0, 5, 4, 6, 4, 7, 6, 10, 3, 6, 7, 6, 7, 8, 4, 1, 2, 2, 10, 8, 6, 6, 3, 7, 8, 8, 6, 2, 10, 10, 6, 0];
rr = array2d(1..4, 1..32, [0, 7, 2, 3, 10, 0, 0, 0, 0, 4, 5, 8, 0, 0, 0, 8, 0, 7, 1, 5, 6, 0, 5, 0, 0, 0, 8, 0, 3, 10, 0, 0, 0, 0, 0, 0, 2, 6, 0, 0, 10, 0, 0, 5, 1, 1, 0, 0, 3, 8, 0, 0, 0, 10, 0, 10, 0, 0, 1, 0, 10, 0, 9, 0, 0, 6, 0, 0, 0, 0, 9, 2, 0, 9, 5, 5, 0, 0, 6, 0, 5, 6, 2, 3, 2, 6, 1, 0, 0, 10, 1, 7, 7, 0, 0, 0, 0, 9, 0, 0, 10, 8, 9, 0, 0, 1, 0, 0, 0, 0, 0, 4, 0, 0, 0, 0, 0, 3, 0, 10, 2, 8, 4, 7, 0, 4, 3, 0]);

suc = [
   {2, 3, 4},
   {11, 5, 14},
   {8, 10, 6},
   {9, 17, 25},
   {15, 6, 7},
   {9, 27, 17},
   {8, 16, 19},
   {24, 22},
   {24, 26, 29},
   {17, 12, 14},
   {18, 20, 15},
   {16, 18, 13},
   {20, 30, 23},
   {18, 15},
   {19, 21},
   {20, 21},
   {24, 31},
   {19, 29, 23},
   {28},
   {25, 26, 27},
   {26, 22, 30},
   {27, 28, 23},
   {25},
   {30},
   {31},
   {28},
   {29},
   {31},
   {32},
   {32},
   {32},
   {  } ];

deadline = array2d(1..32, 1..3, [10, 3, 3, 11, 0, 2, 12, 4, 3, 16, 4, 2, 22, 3, 1, 24, 1, 0, 26, 0, 4, 35, 3, 5, 36, 0, 2, 43, 0, 3, 45, 5, 5, 45, 1, 1, 46, 1, 3, 50, 0, 1, 53, 3, 1, 59, 1, 1, 64, 0, 2, 65, 5, 0, 78, 0, 1, 78, 5, 0, 80, 2, 1, 94, 1, 5, 95, 1, 0, 98, 0, 2, 98, 5, 0, 99, 4, 2, 101, 1, 0, 105, 3, 2, 106, 4, 4, 108, 5, 4, 112, 4, 5, 114, 0, 2]);
