n_res = 4;
rc = [ 45, 30, 37, 33 ];
n_tasks = 32;
d = [0, 10, 10, 9, 6, 9, 3, 4, 4, 7, 6, 10, 4, 3, 1, 7, 10, 1, 1, 4, 6, 8, 8, 4, 1, 9, 10, 2, 8, 9, 3, 0];
rr = array2d(1..4, 1..32, [0, 6, 1, 2, 7, 6, 9, 1, 8, 8, 8, 1, 10, 4, 1, 9, 5, 9, 5, 1, 9, 10, 10, 7, 1, 8, 3, 7, 5, 5, 4, 0, 0, 2, 1, 9, 4, 9, 3, 4, 5, 4, 1, 5, 10, 4, 4, 10, 1, 9, 5, 4, 10, 4, 1, 4, 2, 2, 2, 3, 9, 7, 5, 0, 0, 10, 3, 3, 3, 8, 2, 7, 2, 6, 4, 8, 1, 5, 7, 9, 5, 4, 8, 8, 3, 1, 7, 6, 9, 10, 5, 6, 6, 3, 10, 0, 0, 9, 9, 5, 3, 9, 8, 2, 6, 6, 1, 9, 7, 3, 5, 9, 5, 6, 3, 2, 5, 9, 5, 8, 1, 7, 8, 5, 7, 8, 1, 0]);

suc = [
   {2, 3, 4},
   {5, 6, 15},
   {8, 7},
   {9, 17, 7},
   {25, 27, 21},
   {11, 12, 13},
   {19, 21, 14},
   {17, 18, 21},
   {10, 11, 14},
   {12},
   {16},
   {16, 18},
   {17, 27},
   {26, 22, 23},
   {31},
   {24, 23},
   {25},
   {20, 23},
   {20},
   {24, 26},
   {29},
   {24, 25},
   {31},
   {31},
   {28, 29},
   {27},
   {28, 29},
   {30},
   {32},
   {32},
   {32},
   {  } ];

deadline = array2d(1..32, 1..3, [14, 1, 2, 29, 2, 3, 32, 5, 2, 35, 3, 2, 36, 0, 5, 40, 3, 1, 49, 0, 0, 53, 5, 5, 57, 5, 3, 57, 2, 3, 67, 1, 0, 69, 4, 0, 83, 5, 3, 84, 0, 1, 89, 4, 2, 93, 4, 0, 94, 2, 0, 99, 3, 2, 99, 5, 0, 101, 1, 1, 103, 1, 5, 104, 0, 0, 106, 0, 5, 116, 5, 0, 116, 1, 3, 120, 4, 0, 120, 4, 3, 121, 4, 1, 122, 3, 5, 127, 2, 1, 133, 0, 2, 140, 3, 0]);
