n_res = 4;
rc = [ 15, 17, 17, 17 ];
n_tasks = 32;
d = [0, 6, 1, 8, 8, 9, 8, 6, 5, 1, 8, 4, 3, 1, 3, 1, 6, 1, 7, 10, 4, 2, 10, 2, 6, 2, 3, 7, 2, 2, 1, 0];
rr = array2d(1..4, 1..32, [0, 8, 5, 1, 6, 1, 3, 9, 3, 9, 1, 2, 2, 3, 5, 3, 10, 2, 3, 8, 10, 3, 3, 3, 9, 10, 4, 8, 8, 9, 9, 0, 0, 4, 1, 4, 2, 2, 5, 4, 3, 5, 10, 3, 1, 9, 2, 10, 8, 1, 9, 4, 1, 5, 2, 1, 2, 1, 9, 4, 10, 7, 3, 0, 0, 7, 5, 1, 1, 8, 1, 9, 3, 3, 4, 7, 10, 1, 6, 10, 4, 4, 4, 3, 7, 5, 8, 3, 2, 10, 4, 10, 7, 8, 6, 0, 0, 7, 1, 3, 9, 6, 7, 6, 4, 1, 6, 10, 6, 3, 6, 8, 8, 5, 7, 5, 7, 7, 9, 7, 9, 1, 1, 1, 3, 1, 6, 0]);

suc = [
   {2, 3, 4},
   {27, 5, 23},
   {16, 12, 7},
   {8, 9},
   {10, 6},
   {25, 13, 7},
   {20},
   {14},
   {11, 22, 23},
   {18, 29, 15},
   {31},
   {19},
   {31},
   {17, 26},
   {20, 21},
   {21},
   {28},
   {24},
   {25},
   {26},
   {25},
   {27, 29},
   {31},
   {28},
   {26},
   {28},
   {30},
   {30},
   {32},
   {32},
   {32},
   {  } ];

deadline = array2d(1..32, 1..3, [2, 4, 4, 10, 2, 1, 10, 1, 5, 15, 3, 1, 15, 1, 1, 17, 3, 1, 26, 3, 3, 28, 0, 0, 40, 4, 0, 42, 2, 1, 44, 5, 0, 44, 0, 3, 46, 2, 2, 49, 3, 4, 53, 5, 4, 54, 1, 4, 61, 1, 2, 62, 5, 4, 67, 2, 2, 68, 1, 0, 73, 5, 3, 74, 4, 0, 75, 2, 5, 75, 5, 4, 80, 0, 5, 88, 2, 1, 101, 3, 0, 107, 3, 0, 117, 0, 0, 119, 1, 5, 119, 1, 5, 123, 1, 1]);
