n_res = 4;
rc = [ 15, 16, 16, 15 ];
n_tasks = 32;
d = [0, 9, 4, 9, 8, 4, 2, 4, 2, 4, 7, 5, 10, 5, 2, 9, 10, 3, 9, 10, 6, 8, 9, 1, 1, 6, 9, 6, 3, 10, 2, 0];
rr = array2d(1..4, 1..32, [0, 1, 5, 2, 6, 2, 7, 9, 8, 1, 9, 5, 5, 4, 4, 5, 8, 1, 3, 8, 7, 1, 6, 10, 6, 7, 10, 7, 2, 2, 5, 0, 0, 6, 2, 3, 4, 6, 7, 6, 5, 4, 9, 5, 7, 7, 2, 6, 8, 9, 3, 10, 4, 3, 4, 7, 7, 4, 9, 8, 1, 5, 5, 0, 0, 2, 10, 3, 7, 8, 5, 9, 2, 1, 8, 3, 3, 6, 2, 9, 5, 3, 7, 6, 4, 1, 8, 10, 1, 8, 6, 3, 9, 6, 2, 0, 0, 3, 6, 9, 1, 9, 6, 10, 6, 10, 9, 5, 2, 4, 10, 9, 5, 7, 3, 10, 4, 7, 1, 4, 7, 10, 10, 1, 7, 1, 8, 0]);

suc = [
   {2, 3, 4},
   {19, 30, 7},
   {12, 6},
   {9, 20, 5},
   {17, 10, 23},
   {20, 13, 14},
   {8},
   {25, 11, 15},
   {24, 14, 15},
   {16, 18, 29},
   {16, 20, 21},
   {26, 30},
   {27},
   {17},
   {21, 22, 23},
   {24, 22},
   {31},
   {24, 21, 22},
   {25, 26, 29},
   {29},
   {31},
   {26},
   {28},
   {27},
   {28},
   {27},
   {28},
   {31},
   {32},
   {32},
   {32},
   {  } ];

deadline = array2d(1..32, 1..3, [7, 2, 4, 11, 1, 3, 12, 3, 2, 15, 4, 4, 16, 1, 1, 23, 2, 5, 25, 3, 2, 26, 2, 2, 27, 0, 5, 29, 5, 0, 33, 5, 4, 35, 3, 3, 46, 4, 2, 52, 1, 1, 64, 3, 5, 64, 3, 2, 65, 0, 4, 89, 2, 2, 90, 3, 3, 92, 3, 5, 94, 5, 3, 94, 5, 5, 104, 4, 3, 110, 2, 5, 110, 2, 1, 122, 0, 4, 127, 4, 3, 127, 5, 4, 130, 3, 0, 130, 4, 5, 140, 4, 1, 149, 5, 5]);
