n_res = 4;
rc = [ 24, 14, 17, 11 ];
n_tasks = 32;
d = [0, 4, 8, 10, 8, 4, 9, 2, 2, 2, 3, 4, 8, 1, 4, 1, 9, 10, 6, 5, 3, 6, 10, 1, 2, 3, 6, 3, 4, 8, 3, 0];
rr = array2d(1..4, 1..32, [0, 0, 0, 0, 0, 0, 9, 0, 2, 0, 0, 0, 6, 9, 10, 10, 0, 0, 0, 3, 0, 2, 0, 5, 0, 0, 9, 0, 0, 0, 0, 0, 0, 10, 0, 4, 0, 0, 0, 0, 0, 0, 2, 7, 0, 0, 0, 0, 0, 3, 6, 0, 0, 0, 0, 0, 0, 0, 0, 10, 0, 0, 0, 0, 0, 0, 0, 0, 3, 2, 0, 9, 0, 8, 0, 0, 0, 0, 0, 0, 2, 0, 0, 0, 0, 0, 10, 0, 0, 7, 0, 0, 0, 10, 1, 0, 0, 0, 5, 0, 0, 0, 0, 0, 0, 0, 0, 0, 0, 0, 0, 0, 0, 0, 0, 0, 6, 0, 0, 0, 3, 0, 0, 0, 7, 0, 0, 0]);

suc = [
   {2, 3, 4},
   {8, 5, 6},
   {10, 22, 15},
   {23, 7},
   {11},
   {9, 11, 12},
   {26},
   {16, 24, 18},
   {28},
   {19},
   {26},
   {13, 14},
   {17, 30},
   {19},
   {28},
   {29, 21},
   {22},
   {27, 20},
   {25},
   {28},
   {26},
   {31},
   {31},
   {25, 31},
   {27, 29},
   {27},
   {30},
   {29},
   {32},
   {32},
   {32},
   {  } ];

deadline = array2d(1..32, 1..3, [2, 2, 5, 6, 2, 2, 8, 0, 0, 10, 4, 3, 12, 4, 1, 16, 0, 5, 20, 0, 4, 28, 2, 1, 29, 0, 0, 32, 0, 2, 33, 4, 1, 35, 2, 2, 37, 1, 3, 38, 0, 3, 38, 3, 3, 38, 0, 1, 46, 3, 5, 49, 4, 5, 52, 2, 2, 55, 1, 0, 64, 2, 3, 64, 0, 4, 64, 3, 2, 67, 3, 4, 70, 0, 2, 78, 5, 4, 79, 3, 5, 84, 0, 3, 84, 2, 3, 88, 0, 1, 91, 4, 2, 93, 2, 1]);
