n_res = 4;
rc = [ 11, 10, 10, 10 ];
n_tasks = 32;
d = [0, 7, 10, 5, 7, 8, 1, 9, 6, 2, 6, 6, 8, 5, 4, 8, 4, 8, 10, 7, 6, 3, 6, 8, 9, 4, 2, 3, 10, 2, 6, 0];
rr = array2d(1..4, 1..32, [0, 0, 0, 0, 0, 0, 6, 1, 0, 0, 0, 10, 8, 0, 0, 1, 0, 0, 0, 0, 0, 0, 0, 3, 0, 0, 0, 0, 0, 0, 0, 0, 0, 0, 0, 4, 3, 0, 0, 0, 0, 0, 7, 0, 0, 7, 9, 0, 0, 0, 0, 0, 0, 0, 6, 0, 0, 7, 0, 0, 0, 0, 0, 0, 0, 0, 3, 0, 0, 10, 0, 0, 2, 2, 0, 0, 0, 0, 0, 0, 0, 0, 0, 5, 2, 3, 0, 0, 0, 0, 6, 0, 3, 4, 2, 0, 0, 3, 0, 0, 0, 0, 0, 0, 0, 0, 0, 0, 0, 0, 0, 0, 5, 3, 9, 0, 0, 0, 0, 0, 3, 0, 0, 5, 0, 0, 0, 0]);

suc = [
   {2, 3, 4},
   {9, 5, 23},
   {10, 12},
   {31, 6, 14},
   {6, 7},
   {8, 13, 15},
   {8, 25, 31},
   {27, 10, 11},
   {10, 18, 20},
   {29},
   {19, 28},
   {24, 17},
   {16, 19, 22},
   {19},
   {16, 20},
   {28, 21},
   {25},
   {24, 21},
   {21},
   {26, 22},
   {26},
   {25},
   {26, 27},
   {31},
   {27, 28},
   {30},
   {29, 30},
   {29},
   {32},
   {32},
   {32},
   {  } ];

deadline = array2d(1..32, 1..3, [3, 1, 5, 5, 4, 0, 11, 2, 1, 14, 4, 3, 18, 4, 4, 42, 1, 4, 50, 5, 5, 51, 1, 1, 56, 2, 4, 56, 0, 2, 62, 1, 3, 62, 5, 3, 65, 4, 0, 66, 5, 0, 69, 4, 2, 78, 3, 4, 82, 4, 0, 83, 3, 4, 85, 0, 1, 95, 0, 0, 101, 5, 2, 102, 2, 0, 113, 2, 4, 114, 5, 5, 119, 5, 5, 119, 4, 0, 119, 5, 1, 122, 0, 3, 129, 2, 3, 133, 4, 5, 144, 0, 2, 147, 1, 1]);
