n_res = 4;
rc = [ 16, 16, 14, 9 ];
n_tasks = 32;
d = [0, 2, 6, 10, 4, 3, 4, 8, 7, 2, 10, 5, 10, 1, 2, 10, 1, 6, 9, 2, 3, 6, 8, 4, 1, 3, 10, 8, 10, 1, 3, 0];
rr = array2d(1..4, 1..32, [0, 0, 0, 5, 0, 0, 5, 0, 6, 0, 0, 0, 8, 4, 8, 0, 0, 7, 0, 8, 0, 3, 0, 0, 0, 0, 0, 1, 0, 0, 0, 0, 0, 0, 0, 0, 2, 1, 0, 3, 0, 0, 0, 0, 0, 0, 0, 8, 0, 0, 0, 0, 10, 0, 0, 0, 0, 6, 0, 0, 8, 0, 3, 0, 0, 8, 8, 0, 0, 0, 0, 0, 0, 0, 3, 5, 0, 0, 0, 0, 0, 0, 0, 0, 0, 0, 1, 0, 0, 0, 0, 0, 0, 1, 0, 0, 0, 0, 0, 0, 0, 0, 0, 0, 0, 3, 0, 0, 0, 0, 0, 0, 2, 0, 8, 0, 0, 0, 0, 8, 1, 0, 1, 0, 0, 0, 0, 0]);

suc = [
   {2, 3, 4},
   {5, 6, 7},
   {8, 9, 15},
   {16, 22, 23},
   {12, 28, 14},
   {10, 14, 31},
   {8, 11, 15},
   {18, 28, 13},
   {10, 11, 13},
   {16, 26, 19},
   {19, 12, 14},
   {18, 20, 21},
   {20, 22, 31},
   {16, 17},
   {17, 21, 23},
   {24, 25},
   {18, 27},
   {22},
   {20, 23},
   {24, 27},
   {25, 31},
   {24, 25},
   {27, 30},
   {29},
   {30},
   {28, 29},
   {29},
   {30},
   {32},
   {32},
   {32},
   {  } ];

deadline = array2d(1..32, 1..3, [6, 3, 0, 10, 1, 1, 11, 2, 3, 15, 3, 0, 31, 5, 0, 31, 3, 0, 32, 2, 0, 36, 5, 5, 41, 3, 2, 44, 0, 3, 45, 1, 3, 53, 5, 4, 54, 0, 5, 60, 2, 1, 65, 5, 0, 71, 2, 1, 79, 4, 4, 81, 3, 1, 82, 3, 5, 84, 1, 2, 86, 0, 5, 98, 4, 4, 116, 5, 1, 118, 4, 4, 131, 5, 3, 131, 0, 5, 137, 4, 1, 138, 1, 5, 140, 1, 4, 143, 3, 2, 145, 0, 5, 149, 2, 2]);
