n_res = 4;
rc = [ 20, 13, 10, 17 ];
n_tasks = 32;
d = [0, 10, 5, 2, 3, 5, 1, 8, 5, 9, 8, 3, 5, 10, 4, 3, 7, 2, 10, 7, 10, 4, 3, 9, 10, 8, 10, 1, 6, 3, 10, 0];
rr = array2d(1..4, 1..32, [0, 0, 0, 3, 0, 8, 0, 0, 0, 8, 4, 4, 0, 0, 0, 9, 0, 0, 6, 0, 1, 0, 10, 0, 0, 2, 0, 0, 0, 0, 2, 0, 0, 0, 8, 0, 0, 0, 0, 0, 0, 0, 0, 0, 0, 5, 0, 0, 9, 0, 0, 0, 0, 8, 0, 2, 0, 0, 0, 8, 0, 0, 0, 0, 0, 0, 0, 0, 0, 0, 10, 0, 0, 0, 0, 0, 0, 0, 2, 0, 0, 1, 0, 3, 0, 0, 0, 0, 3, 0, 0, 0, 0, 0, 0, 0, 0, 8, 0, 0, 6, 0, 0, 7, 9, 0, 0, 0, 9, 0, 0, 0, 0, 0, 0, 0, 0, 0, 0, 0, 0, 0, 2, 0, 5, 9, 0, 0]);

suc = [
   {2, 3, 4},
   {9, 13},
   {8, 16, 5},
   {6},
   {17, 19, 7},
   {26, 12, 14},
   {9, 25, 15},
   {10, 13},
   {28, 31},
   {11, 21, 31},
   {24, 22},
   {27, 22},
   {23},
   {18, 19, 28},
   {18, 20},
   {24, 17, 18},
   {25, 30},
   {29, 21},
   {29},
   {26, 28},
   {22},
   {30},
   {24, 25, 26},
   {27},
   {27},
   {31},
   {29},
   {30},
   {32},
   {32},
   {32},
   {  } ];

deadline = array2d(1..32, 1..3, [2, 5, 1, 2, 4, 2, 5, 0, 0, 10, 4, 5, 13, 5, 5, 16, 5, 5, 22, 0, 0, 23, 2, 5, 34, 5, 4, 35, 2, 2, 42, 0, 3, 48, 1, 0, 48, 1, 3, 52, 5, 3, 64, 0, 4, 66, 4, 2, 66, 3, 0, 68, 3, 5, 69, 0, 0, 69, 2, 4, 69, 3, 1, 70, 0, 3, 71, 5, 1, 72, 4, 3, 85, 2, 3, 87, 4, 0, 126, 0, 2, 129, 2, 0, 130, 5, 1, 134, 3, 0, 135, 3, 3, 135, 5, 5]);
