n_res = 4;
rc = [ 18, 21, 21, 18 ];
n_tasks = 32;
d = [0, 4, 1, 8, 1, 6, 2, 4, 2, 5, 3, 4, 8, 7, 8, 6, 8, 2, 9, 9, 8, 7, 10, 5, 9, 9, 7, 7, 3, 9, 9, 0];
rr = array2d(1..4, 1..32, [0, 0, 4, 0, 4, 0, 1, 3, 2, 0, 7, 1, 4, 3, 2, 2, 3, 0, 0, 8, 0, 8, 0, 4, 10, 3, 6, 0, 3, 9, 9, 0, 0, 4, 1, 6, 0, 5, 4, 0, 9, 4, 0, 1, 10, 6, 4, 0, 6, 6, 0, 0, 1, 4, 0, 5, 0, 0, 3, 6, 4, 6, 2, 0, 0, 5, 0, 1, 1, 0, 5, 9, 9, 5, 9, 7, 3, 7, 0, 5, 1, 3, 6, 4, 0, 10, 7, 10, 2, 10, 4, 5, 2, 9, 5, 0, 0, 2, 0, 0, 0, 5, 0, 9, 5, 5, 4, 7, 6, 3, 5, 5, 4, 8, 5, 10, 2, 8, 0, 0, 5, 5, 5, 2, 0, 2, 9, 0]);

suc = [
   {2, 3, 4},
   {8, 17, 7},
   {11, 12, 5},
   {10, 13, 6},
   {8, 6, 15},
   {16, 9, 22},
   {18, 21},
   {9, 26, 14},
   {25, 20, 29},
   {24, 21, 14},
   {13, 14, 15},
   {16, 21, 13},
   {17, 22},
   {31, 29, 23},
   {19, 28, 23},
   {17, 18, 25},
   {19, 28},
   {24, 20},
   {26, 20},
   {30},
   {27, 28},
   {31, 23},
   {25},
   {26, 29, 31},
   {27},
   {27},
   {30},
   {30},
   {32},
   {32},
   {32},
   {  } ];

deadline = array2d(1..32, 1..3, [3, 4, 5, 15, 4, 5, 17, 1, 3, 18, 0, 4, 18, 0, 1, 23, 1, 1, 25, 4, 2, 34, 4, 3, 36, 1, 1, 39, 4, 5, 40, 3, 1, 40, 5, 3, 41, 5, 3, 43, 0, 4, 46, 0, 5, 47, 3, 0, 51, 2, 4, 64, 2, 5, 66, 1, 5, 71, 0, 5, 76, 3, 5, 81, 1, 4, 84, 5, 4, 96, 5, 3, 100, 1, 5, 101, 5, 2, 102, 2, 1, 103, 1, 4, 106, 0, 1, 119, 3, 3, 136, 2, 3, 137, 1, 5]);
