n_res = 4;
rc = [ 26, 21, 25, 21 ];
n_tasks = 32;
d = [0, 2, 9, 8, 6, 2, 3, 9, 9, 4, 6, 5, 10, 8, 2, 9, 2, 3, 1, 2, 10, 7, 7, 9, 6, 6, 2, 1, 7, 5, 2, 0];
rr = array2d(1..4, 1..32, [0, 3, 6, 7, 9, 5, 0, 5, 5, 7, 0, 10, 4, 10, 3, 6, 7, 4, 5, 9, 10, 0, 6, 6, 10, 7, 3, 0, 1, 9, 9, 0, 0, 0, 5, 9, 1, 3, 1, 1, 0, 5, 8, 6, 2, 4, 5, 5, 0, 0, 0, 0, 5, 4, 1, 0, 0, 4, 0, 7, 0, 7, 7, 0, 0, 0, 10, 6, 9, 2, 9, 10, 7, 3, 7, 10, 4, 3, 3, 2, 4, 0, 9, 0, 10, 3, 2, 0, 0, 0, 1, 10, 0, 10, 9, 0, 0, 3, 1, 4, 8, 0, 7, 3, 2, 6, 10, 9, 10, 8, 0, 0, 9, 9, 2, 5, 6, 0, 0, 0, 0, 8, 0, 5, 6, 8, 8, 0]);

suc = [
   {2, 3, 4},
   {17},
   {9},
   {13, 5},
   {19, 6, 7},
   {10, 21, 14},
   {8, 25, 22},
   {11, 12, 15},
   {10, 18},
   {17, 28, 15},
   {29, 31},
   {24},
   {26, 29},
   {16, 25},
   {23},
   {31, 23},
   {30},
   {25, 20, 21},
   {21, 22},
   {24, 26, 22},
   {26, 23},
   {27, 28},
   {24},
   {27},
   {28, 30},
   {27, 31},
   {30},
   {29},
   {32},
   {32},
   {32},
   {  } ];

deadline = array2d(1..32, 1..3, [10, 1, 2, 10, 3, 4, 18, 4, 0, 19, 2, 0, 32, 3, 1, 37, 2, 4, 42, 2, 2, 51, 4, 0, 53, 1, 5, 53, 2, 3, 62, 5, 0, 63, 5, 2, 64, 4, 2, 69, 4, 4, 69, 2, 2, 73, 3, 1, 77, 4, 3, 83, 1, 3, 85, 3, 1, 87, 2, 2, 87, 1, 4, 88, 4, 5, 98, 4, 4, 102, 4, 1, 105, 1, 1, 111, 3, 1, 115, 1, 3, 124, 5, 4, 124, 0, 0, 126, 0, 2, 135, 4, 3, 136, 2, 0]);
