n_res = 4;
rc = [ 19, 23, 24, 17 ];
n_tasks = 32;
d = [0, 8, 9, 1, 4, 4, 8, 3, 3, 9, 6, 3, 5, 4, 9, 5, 9, 9, 7, 7, 8, 6, 10, 2, 1, 9, 3, 7, 10, 7, 9, 0];
rr = array2d(1..4, 1..32, [0, 0, 1, 2, 4, 7, 8, 5, 0, 9, 2, 3, 6, 3, 3, 2, 1, 6, 5, 0, 7, 3, 8, 4, 10, 10, 0, 10, 6, 9, 0, 0, 0, 0, 8, 1, 6, 9, 4, 6, 6, 9, 0, 2, 4, 0, 5, 7, 4, 0, 8, 0, 4, 0, 0, 0, 8, 3, 8, 0, 4, 0, 7, 0, 0, 2, 1, 4, 0, 0, 7, 2, 7, 0, 5, 6, 9, 8, 5, 8, 4, 5, 5, 6, 8, 7, 8, 0, 1, 9, 3, 6, 6, 8, 8, 0, 0, 1, 6, 6, 9, 0, 0, 6, 7, 0, 0, 6, 2, 5, 9, 0, 0, 0, 6, 8, 0, 6, 2, 2, 1, 3, 0, 0, 8, 1, 9, 0]);

suc = [
   {2, 3, 4},
   {6},
   {5, 7},
   {18},
   {12},
   {9, 17},
   {8, 16},
   {10, 15},
   {11, 13},
   {20, 22},
   {16},
   {19, 14},
   {16, 25, 23},
   {27, 20},
   {24},
   {28, 21},
   {19, 21},
   {27, 29, 30},
   {26},
   {26, 21},
   {24},
   {23},
   {26},
   {30},
   {31},
   {30},
   {31},
   {31},
   {32},
   {32},
   {32},
   {  } ];

deadline = array2d(1..32, 1..3, [3, 1, 5, 8, 3, 4, 21, 1, 3, 39, 1, 2, 45, 4, 0, 47, 4, 3, 50, 5, 4, 55, 1, 5, 59, 4, 4, 62, 4, 4, 63, 4, 1, 65, 5, 5, 71, 0, 4, 72, 4, 5, 73, 0, 4, 74, 4, 1, 79, 3, 4, 84, 2, 0, 85, 5, 5, 92, 3, 5, 93, 5, 3, 98, 2, 5, 108, 1, 0, 116, 0, 0, 126, 3, 1, 126, 5, 1, 127, 1, 0, 128, 3, 0, 129, 2, 0, 134, 5, 5, 134, 3, 0, 139, 5, 0]);
