n_res = 4;
rc = [ 19, 30, 26, 24 ];
n_tasks = 32;
d = [0, 9, 8, 1, 6, 6, 5, 6, 8, 1, 6, 8, 2, 5, 5, 5, 7, 9, 5, 6, 1, 8, 2, 6, 9, 10, 2, 4, 6, 3, 4, 0];
rr = array2d(1..4, 1..32, [0, 3, 8, 2, 5, 7, 1, 3, 1, 4, 9, 2, 0, 0, 6, 0, 5, 0, 3, 3, 1, 0, 10, 3, 3, 4, 9, 4, 9, 0, 0, 0, 0, 0, 7, 2, 0, 2, 0, 6, 0, 5, 7, 10, 7, 10, 8, 4, 9, 8, 0, 4, 0, 9, 0, 2, 10, 7, 0, 10, 5, 0, 10, 0, 0, 1, 0, 5, 0, 1, 9, 1, 0, 2, 0, 5, 9, 8, 7, 7, 5, 9, 6, 0, 7, 6, 0, 4, 0, 0, 7, 7, 9, 1, 0, 0, 0, 0, 0, 2, 10, 5, 3, 0, 9, 1, 1, 4, 2, 8, 7, 0, 4, 5, 2, 5, 9, 7, 7, 9, 2, 10, 2, 5, 6, 8, 8, 0]);

suc = [
   {2, 3, 4},
   {8, 16, 5},
   {12, 6, 14},
   {9, 10, 25},
   {7},
   {27, 19},
   {17, 26, 11},
   {30},
   {13},
   {18, 20, 14},
   {23},
   {21},
   {19, 31},
   {24, 15},
   {27},
   {18},
   {28, 22},
   {27},
   {30},
   {29},
   {22},
   {29},
   {31},
   {26, 28},
   {28},
   {29},
   {30},
   {31},
   {32},
   {32},
   {32},
   {  } ];

deadline = array2d(1..32, 1..3, [2, 0, 2, 9, 4, 0, 16, 0, 0, 18, 2, 1, 22, 3, 2, 24, 3, 5, 40, 4, 4, 41, 0, 0, 41, 5, 0, 42, 2, 0, 50, 2, 0, 54, 5, 1, 57, 2, 1, 61, 5, 3, 62, 0, 5, 62, 3, 2, 65, 1, 5, 67, 4, 4, 67, 3, 3, 70, 3, 0, 78, 0, 1, 79, 5, 4, 79, 2, 1, 84, 1, 1, 86, 5, 2, 92, 5, 3, 92, 5, 0, 93, 5, 3, 94, 2, 5, 95, 0, 0, 100, 5, 0, 101, 1, 5]);
