n_res = 4;
rc = [ 20, 19, 20, 15 ];
n_tasks = 32;
d = [0, 8, 3, 5, 7, 4, 8, 8, 4, 6, 8, 8, 2, 10, 9, 8, 7, 7, 3, 9, 4, 2, 4, 6, 2, 10, 9, 10, 6, 2, 6, 0];
rr = array2d(1..4, 1..32, [0, 0, 0, 0, 9, 9, 0, 1, 1, 8, 7, 5, 10, 0, 0, 0, 4, 8, 5, 7, 0, 0, 3, 5, 5, 0, 0, 0, 0, 4, 0, 0, 0, 9, 4, 4, 0, 3, 0, 4, 4, 0, 7, 5, 0, 0, 5, 4, 0, 0, 6, 8, 7, 7, 0, 5, 0, 0, 2, 7, 0, 8, 0, 0, 0, 0, 0, 0, 8, 0, 0, 0, 0, 0, 0, 1, 5, 1, 8, 10, 0, 0, 6, 0, 4, 4, 0, 0, 10, 5, 8, 10, 9, 0, 10, 0, 0, 0, 8, 0, 0, 3, 1, 5, 0, 8, 0, 1, 1, 10, 0, 0, 0, 0, 0, 0, 10, 0, 0, 0, 7, 0, 8, 0, 5, 0, 0, 0]);

suc = [
   {2, 3, 4},
   {10, 6},
   {16, 5, 7},
   {8, 9, 6},
   {9, 6, 15},
   {12, 14, 31},
   {11, 21},
   {17, 10, 19},
   {12, 13},
   {18, 20, 15},
   {27, 31, 23},
   {19, 21},
   {17, 28, 14},
   {19, 20, 22},
   {24, 22, 31},
   {17, 20, 28},
   {25, 18, 26},
   {27, 29},
   {24},
   {24, 26, 23},
   {28, 29, 22},
   {26, 23},
   {25},
   {25, 29},
   {30},
   {27},
   {30},
   {30},
   {32},
   {32},
   {32},
   {  } ];

deadline = array2d(1..32, 1..3, [3, 2, 2, 5, 0, 3, 17, 4, 5, 18, 4, 1, 27, 4, 0, 28, 5, 2, 33, 0, 3, 34, 5, 2, 35, 1, 5, 36, 4, 5, 45, 3, 2, 66, 2, 0, 67, 3, 3, 85, 0, 3, 88, 5, 1, 88, 1, 0, 89, 5, 4, 96, 2, 3, 102, 4, 2, 104, 0, 5, 106, 2, 4, 112, 3, 0, 117, 3, 1, 118, 0, 3, 119, 5, 0, 120, 5, 0, 123, 4, 2, 123, 4, 3, 124, 5, 3, 131, 0, 2, 132, 2, 0, 136, 0, 5]);
