n_res = 4;
rc = [ 28, 25, 28, 25 ];
n_tasks = 32;
d = [0, 1, 6, 5, 1, 4, 5, 7, 10, 1, 2, 8, 6, 8, 1, 8, 2, 8, 4, 7, 3, 3, 3, 5, 4, 10, 2, 9, 2, 6, 6, 0];
rr = array2d(1..4, 1..32, [0, 3, 0, 8, 0, 5, 5, 10, 6, 9, 1, 0, 4, 3, 0, 5, 4, 3, 0, 9, 4, 10, 9, 5, 0, 0, 7, 10, 9, 2, 8, 0, 0, 3, 1, 1, 9, 0, 4, 5, 8, 2, 3, 0, 3, 4, 5, 2, 0, 10, 2, 0, 3, 10, 5, 4, 10, 9, 0, 2, 0, 6, 2, 0, 0, 3, 0, 10, 7, 2, 7, 7, 0, 5, 0, 10, 4, 8, 5, 0, 1, 10, 1, 0, 0, 4, 9, 3, 9, 9, 4, 7, 5, 0, 0, 0, 0, 10, 6, 9, 1, 3, 8, 8, 0, 2, 0, 8, 10, 2, 2, 6, 9, 0, 5, 2, 0, 0, 0, 4, 8, 9, 6, 1, 4, 0, 0, 0]);

suc = [
   {2, 3, 4},
   {8, 5, 7},
   {16, 24, 15},
   {16, 13, 6},
   {17, 26, 12},
   {24, 11, 22},
   {9, 11, 20},
   {10, 13, 15},
   {21, 13, 14},
   {16, 26, 12},
   {17, 30, 23},
   {18, 19, 20},
   {25, 27, 31},
   {19, 15},
   {17, 18, 23},
   {27, 19, 20},
   {29},
   {22},
   {25, 29},
   {28, 22},
   {24, 25, 23},
   {31},
   {28},
   {26, 28},
   {30},
   {27, 29},
   {30},
   {31},
   {32},
   {32},
   {32},
   {  } ];

deadline = array2d(1..32, 1..3, [1, 1, 5, 2, 3, 2, 10, 0, 2, 13, 3, 0, 13, 1, 3, 17, 1, 0, 18, 4, 2, 20, 5, 4, 28, 1, 4, 29, 1, 3, 34, 3, 5, 34, 1, 1, 35, 1, 3, 37, 4, 2, 39, 2, 1, 44, 5, 3, 50, 3, 4, 55, 4, 1, 57, 2, 2, 60, 2, 1, 65, 1, 1, 71, 2, 4, 73, 4, 4, 73, 3, 4, 80, 5, 4, 82, 4, 4, 83, 2, 2, 83, 2, 1, 94, 3, 0, 94, 0, 2, 95, 3, 5, 107, 2, 1]);
