n_res = 4;
rc = [ 14, 14, 13, 12 ];
n_tasks = 32;
d = [0, 5, 4, 9, 8, 9, 6, 4, 6, 6, 10, 10, 2, 8, 7, 6, 10, 1, 6, 2, 7, 8, 4, 6, 2, 2, 7, 5, 6, 2, 1, 0];
rr = array2d(1..4, 1..32, [0, 0, 6, 0, 0, 0, 0, 0, 0, 3, 0, 4, 6, 4, 9, 0, 6, 9, 0, 0, 7, 0, 0, 0, 5, 10, 0, 0, 0, 0, 9, 0, 0, 4, 0, 0, 1, 7, 0, 6, 0, 5, 7, 10, 0, 0, 0, 1, 0, 1, 9, 8, 0, 0, 0, 2, 8, 5, 0, 8, 0, 2, 0, 0, 0, 8, 5, 6, 7, 0, 0, 0, 0, 10, 0, 7, 0, 0, 8, 7, 6, 0, 9, 0, 8, 8, 0, 2, 0, 0, 5, 7, 6, 0, 0, 0, 0, 1, 0, 0, 0, 3, 6, 4, 4, 10, 1, 0, 4, 0, 4, 1, 0, 0, 0, 0, 0, 8, 1, 5, 6, 0, 0, 0, 9, 2, 6, 0]);

suc = [
   {2, 3, 4},
   {16, 11, 7},
   {17, 12, 5},
   {10, 13, 6},
   {23},
   {8, 26, 19},
   {9, 19, 13},
   {20, 28, 14},
   {17, 12, 22},
   {19, 11, 12},
   {18, 20, 15},
   {20, 14},
   {17, 18, 28},
   {24, 31},
   {21, 22},
   {18, 21},
   {27, 21, 23},
   {26},
   {24, 27, 22},
   {25, 27, 30},
   {24, 25, 26},
   {28, 23},
   {25, 30, 31},
   {30},
   {29},
   {29},
   {31},
   {29},
   {32},
   {32},
   {32},
   {  } ];

deadline = array2d(1..32, 1..3, [4, 4, 5, 6, 0, 1, 11, 0, 3, 11, 1, 1, 14, 4, 0, 14, 2, 4, 21, 1, 1, 21, 1, 4, 25, 5, 4, 31, 0, 3, 33, 3, 3, 36, 4, 0, 41, 4, 4, 66, 5, 5, 67, 4, 3, 73, 5, 2, 74, 5, 2, 77, 0, 3, 78, 5, 1, 78, 1, 1, 81, 2, 3, 81, 0, 1, 92, 2, 3, 94, 3, 5, 117, 1, 0, 118, 1, 0, 119, 5, 5, 120, 2, 3, 123, 3, 0, 123, 1, 1, 128, 5, 0, 130, 4, 4]);
