n_res = 4;
rc = [ 14, 13, 12, 13 ];
n_tasks = 32;
d = [0, 9, 6, 10, 5, 6, 8, 3, 8, 7, 2, 4, 7, 10, 8, 6, 3, 7, 5, 10, 8, 1, 5, 2, 1, 7, 4, 8, 4, 5, 10, 0];
rr = array2d(1..4, 1..32, [0, 0, 7, 0, 5, 4, 9, 0, 0, 0, 5, 0, 4, 0, 0, 3, 10, 0, 0, 0, 2, 0, 8, 1, 8, 0, 2, 0, 3, 0, 0, 0, 0, 6, 3, 0, 0, 7, 8, 0, 0, 0, 3, 0, 9, 4, 5, 0, 0, 4, 8, 9, 5, 0, 2, 0, 3, 2, 0, 0, 0, 0, 6, 0, 0, 6, 1, 9, 0, 0, 8, 0, 0, 9, 5, 6, 0, 8, 6, 7, 0, 0, 2, 0, 0, 3, 0, 0, 2, 3, 0, 9, 6, 7, 6, 0, 0, 0, 0, 1, 5, 8, 3, 9, 3, 3, 6, 0, 0, 0, 0, 6, 9, 0, 0, 0, 0, 0, 1, 0, 0, 0, 0, 1, 0, 10, 0, 0]);

suc = [
   {2, 3, 4},
   {17, 5, 7},
   {8, 22, 15},
   {26, 12, 6},
   {9, 11},
   {19, 23},
   {10, 27},
   {31},
   {26, 13, 30},
   {21, 14},
   {26},
   {16, 22},
   {21},
   {29},
   {24},
   {25, 18, 20},
   {27},
   {28},
   {29},
   {28},
   {29},
   {23},
   {31},
   {28},
   {27},
   {31},
   {30},
   {30},
   {32},
   {32},
   {32},
   {  } ];

deadline = array2d(1..32, 1..3, [1, 2, 3, 4, 5, 4, 9, 2, 1, 11, 4, 3, 14, 5, 2, 32, 1, 0, 33, 4, 2, 42, 0, 3, 51, 1, 4, 55, 4, 1, 65, 2, 2, 68, 3, 1, 70, 3, 1, 70, 0, 0, 71, 3, 0, 72, 2, 5, 74, 4, 5, 75, 3, 4, 77, 1, 3, 78, 4, 3, 79, 4, 3, 82, 2, 4, 85, 1, 4, 85, 3, 0, 87, 2, 5, 90, 2, 5, 91, 3, 5, 92, 1, 1, 95, 5, 3, 97, 0, 0, 101, 4, 2, 102, 0, 2]);
