n_res = 4;
rc = [ 18, 25, 11, 17 ];
n_tasks = 32;
d = [0, 7, 8, 9, 3, 6, 4, 6, 8, 2, 5, 8, 4, 10, 4, 4, 4, 1, 4, 2, 2, 2, 1, 9, 5, 4, 7, 4, 8, 7, 4, 0];
rr = array2d(1..4, 1..32, [0, 0, 0, 8, 0, 0, 0, 0, 0, 6, 0, 0, 0, 0, 0, 0, 4, 0, 7, 0, 2, 0, 4, 5, 0, 0, 2, 0, 0, 10, 0, 0, 0, 0, 8, 0, 3, 0, 0, 0, 0, 0, 0, 8, 7, 7, 10, 0, 0, 0, 0, 3, 0, 0, 0, 0, 0, 0, 0, 0, 0, 0, 0, 0, 0, 10, 0, 0, 0, 10, 1, 0, 1, 0, 10, 0, 0, 0, 0, 0, 0, 8, 0, 0, 0, 0, 0, 0, 0, 0, 0, 0, 0, 0, 0, 0, 0, 0, 0, 0, 0, 0, 0, 3, 0, 0, 0, 0, 0, 0, 0, 6, 0, 0, 0, 0, 0, 6, 0, 0, 5, 9, 0, 10, 8, 0, 8, 0]);

suc = [
   {2, 3, 4},
   {10, 28, 21},
   {14, 6, 7},
   {28, 12, 5},
   {26, 19, 14},
   {25, 21, 15},
   {8, 13, 15},
   {9, 11, 28},
   {17, 18, 21},
   {16, 11, 15},
   {24, 17, 27},
   {30, 14, 23},
   {16, 18, 30},
   {24, 20},
   {18, 19},
   {17, 23},
   {25, 19, 20},
   {27, 20, 31},
   {22, 31},
   {22},
   {22, 23},
   {29},
   {24, 26, 27},
   {29},
   {26},
   {31},
   {29},
   {30},
   {32},
   {32},
   {32},
   {  } ];

deadline = array2d(1..32, 1..3, [6, 3, 4, 20, 2, 3, 24, 3, 0, 28, 4, 2, 34, 2, 4, 41, 4, 3, 41, 3, 2, 48, 1, 0, 53, 3, 2, 58, 3, 1, 62, 0, 0, 68, 2, 0, 69, 0, 2, 70, 5, 1, 70, 1, 2, 71, 4, 2, 73, 1, 4, 75, 4, 5, 76, 2, 2, 78, 5, 0, 82, 2, 3, 83, 4, 1, 83, 3, 3, 83, 4, 0, 87, 4, 1, 94, 4, 5, 94, 4, 1, 99, 5, 5, 108, 3, 3, 112, 5, 4, 113, 2, 3, 113, 3, 0]);
