n_res = 4;
rc = [ 18, 21, 20, 21 ];
n_tasks = 32;
d = [0, 10, 4, 5, 1, 5, 9, 3, 9, 7, 9, 8, 1, 7, 9, 5, 4, 2, 8, 6, 2, 3, 4, 7, 1, 7, 7, 8, 5, 10, 9, 0];
rr = array2d(1..4, 1..32, [0, 1, 4, 0, 0, 8, 8, 0, 0, 0, 1, 4, 0, 2, 4, 0, 2, 0, 8, 8, 8, 1, 10, 0, 0, 0, 0, 5, 1, 0, 0, 0, 0, 0, 0, 2, 0, 4, 6, 0, 0, 2, 10, 0, 6, 0, 0, 0, 3, 0, 0, 9, 7, 9, 6, 0, 6, 1, 0, 5, 0, 5, 10, 0, 0, 1, 0, 6, 7, 7, 0, 7, 10, 0, 0, 0, 0, 0, 0, 0, 0, 9, 0, 1, 0, 0, 0, 8, 0, 9, 0, 4, 7, 0, 0, 0, 0, 0, 3, 4, 5, 6, 0, 7, 8, 0, 0, 6, 1, 0, 0, 10, 9, 7, 0, 10, 1, 0, 0, 6, 0, 0, 2, 0, 6, 0, 10, 0]);

suc = [
   {2, 3, 4},
   {6, 14},
   {13, 5, 22},
   {9, 10, 7},
   {12},
   {8, 17, 10},
   {16, 24, 19},
   {19},
   {25, 11, 22},
   {11},
   {18, 28, 15},
   {18},
   {28, 23},
   {16, 27},
   {24, 21},
   {25, 26, 20},
   {22, 23},
   {27, 29},
   {21, 23},
   {28, 30},
   {26},
   {24, 29},
   {26, 31},
   {27},
   {30, 31},
   {30},
   {31},
   {29},
   {32},
   {32},
   {32},
   {  } ];

deadline = array2d(1..32, 1..3, [1, 3, 2, 9, 2, 4, 11, 4, 1, 18, 2, 5, 27, 5, 1, 34, 5, 4, 47, 4, 2, 49, 4, 0, 54, 0, 2, 55, 4, 1, 55, 1, 5, 57, 0, 4, 58, 1, 4, 60, 3, 2, 62, 3, 4, 66, 1, 0, 72, 4, 0, 74, 5, 0, 75, 2, 1, 75, 2, 1, 82, 1, 5, 87, 2, 1, 89, 1, 4, 101, 0, 4, 109, 1, 5, 112, 2, 3, 137, 1, 0, 141, 4, 1, 147, 4, 5, 148, 2, 4, 149, 3, 5, 151, 0, 4]);
