n_res = 4;
rc = [ 11, 12, 9, 9 ];
n_tasks = 32;
d = [0, 4, 3, 10, 10, 5, 1, 7, 4, 5, 7, 10, 2, 4, 5, 5, 4, 3, 7, 6, 2, 5, 8, 3, 3, 2, 10, 3, 5, 5, 1, 0];
rr = array2d(1..4, 1..32, [0, 1, 0, 0, 0, 0, 0, 3, 0, 0, 0, 0, 0, 0, 0, 0, 0, 0, 0, 8, 0, 0, 10, 0, 5, 8, 0, 0, 8, 7, 5, 0, 0, 0, 0, 0, 0, 10, 3, 0, 0, 0, 0, 3, 7, 0, 5, 0, 0, 0, 0, 0, 0, 0, 0, 0, 0, 0, 0, 0, 0, 0, 0, 0, 0, 0, 0, 0, 1, 0, 0, 0, 0, 0, 0, 0, 0, 2, 0, 0, 0, 7, 0, 0, 2, 8, 0, 7, 0, 0, 5, 0, 0, 0, 0, 0, 0, 0, 2, 4, 0, 0, 0, 0, 1, 6, 6, 0, 0, 0, 0, 1, 4, 0, 3, 0, 0, 0, 0, 0, 0, 0, 0, 9, 0, 0, 0, 0]);

suc = [
   {2, 3, 4},
   {20, 5, 7},
   {22},
   {18},
   {9, 10, 6},
   {30},
   {8, 11, 21},
   {30},
   {16, 13, 14},
   {19},
   {12},
   {17, 25},
   {21, 23},
   {27, 15},
   {28},
   {29},
   {24},
   {19, 23},
   {31},
   {23},
   {24},
   {26, 27},
   {26, 31},
   {28},
   {27, 28},
   {30},
   {31},
   {29},
   {32},
   {32},
   {32},
   {  } ];

deadline = array2d(1..32, 1..3, [1, 1, 1, 5, 1, 1, 7, 3, 1, 11, 3, 0, 14, 4, 5, 18, 4, 3, 19, 4, 1, 20, 4, 1, 24, 4, 1, 39, 3, 2, 39, 0, 2, 42, 1, 5, 42, 5, 2, 44, 0, 5, 46, 4, 2, 48, 4, 2, 49, 0, 3, 53, 2, 2, 54, 1, 3, 57, 2, 3, 61, 1, 1, 66, 1, 2, 74, 4, 5, 76, 1, 2, 77, 4, 2, 78, 1, 4, 83, 3, 0, 85, 2, 1, 88, 0, 1, 91, 5, 1, 91, 1, 0, 92, 0, 1]);
