n_res = 4;
rc = [ 30, 25, 28, 28 ];
n_tasks = 32;
d = [0, 4, 6, 2, 7, 2, 5, 9, 8, 1, 8, 10, 10, 7, 10, 4, 8, 2, 4, 9, 10, 8, 9, 9, 2, 1, 8, 9, 3, 4, 2, 0];
rr = array2d(1..4, 1..32, [0, 5, 9, 5, 6, 4, 2, 1, 7, 2, 2, 1, 4, 8, 3, 3, 9, 3, 4, 10, 2, 4, 9, 8, 6, 8, 2, 8, 9, 9, 5, 0, 0, 2, 7, 7, 2, 6, 5, 6, 10, 4, 6, 2, 7, 6, 10, 4, 4, 9, 10, 8, 3, 10, 5, 2, 5, 10, 10, 1, 3, 8, 9, 0, 0, 4, 10, 6, 2, 5, 9, 5, 7, 7, 8, 1, 1, 3, 9, 10, 10, 3, 4, 7, 10, 4, 4, 10, 6, 2, 6, 8, 6, 2, 5, 0, 0, 9, 10, 8, 2, 4, 9, 9, 3, 4, 1, 8, 3, 10, 5, 2, 10, 7, 9, 8, 7, 2, 5, 10, 2, 6, 5, 9, 6, 10, 10, 0]);

suc = [
   {2, 3, 4},
   {8, 18},
   {10, 5, 6},
   {7},
   {26, 13, 14},
   {25, 20},
   {31},
   {16, 9, 21},
   {11, 12},
   {19},
   {14},
   {17, 22, 23},
   {29},
   {15},
   {24},
   {19, 28},
   {19},
   {26},
   {29},
   {26, 28, 22},
   {24, 28},
   {31},
   {31},
   {27},
   {29},
   {27},
   {30},
   {30},
   {32},
   {32},
   {32},
   {  } ];

deadline = array2d(1..32, 1..3, [11, 0, 0, 12, 2, 5, 12, 4, 4, 15, 1, 5, 18, 1, 5, 18, 3, 1, 21, 3, 0, 26, 0, 0, 27, 0, 5, 30, 0, 3, 39, 1, 3, 39, 5, 3, 46, 5, 2, 59, 4, 3, 61, 1, 2, 62, 5, 4, 63, 2, 0, 66, 1, 1, 67, 2, 5, 67, 3, 2, 79, 3, 4, 81, 1, 0, 84, 0, 0, 95, 5, 3, 102, 0, 0, 109, 1, 3, 112, 2, 4, 122, 3, 2, 141, 1, 3, 142, 3, 0, 159, 5, 4, 165, 4, 4]);
