n_res = 4;
rc = [ 23, 27, 25, 32 ];
n_tasks = 32;
d = [0, 8, 6, 6, 5, 9, 5, 7, 3, 1, 6, 6, 8, 2, 2, 2, 4, 2, 9, 6, 6, 8, 5, 1, 4, 10, 5, 2, 6, 8, 8, 0];
rr = array2d(1..4, 1..32, [0, 1, 6, 4, 4, 7, 4, 8, 3, 7, 5, 5, 1, 4, 7, 7, 9, 8, 3, 5, 2, 1, 3, 9, 7, 4, 1, 10, 2, 8, 3, 0, 0, 3, 9, 7, 1, 10, 8, 4, 2, 6, 5, 6, 5, 4, 10, 8, 5, 9, 7, 3, 1, 4, 5, 5, 8, 2, 9, 6, 7, 3, 1, 0, 0, 1, 2, 9, 1, 9, 2, 9, 4, 1, 5, 8, 2, 6, 9, 10, 10, 5, 4, 5, 2, 3, 5, 9, 2, 9, 6, 2, 3, 6, 6, 0, 0, 10, 1, 7, 10, 3, 9, 5, 4, 7, 8, 9, 7, 1, 4, 9, 3, 4, 4, 8, 10, 2, 7, 3, 10, 2, 7, 3, 10, 7, 9, 0]);

suc = [
   {2, 3, 4},
   {25, 21, 14},
   {16},
   {8, 5, 6},
   {11, 13, 7},
   {18},
   {10, 12},
   {9, 27},
   {25},
   {15},
   {17},
   {18, 14, 31},
   {20},
   {29},
   {28},
   {25, 18, 30},
   {19, 22, 23},
   {29},
   {21, 30},
   {29},
   {27},
   {26},
   {24},
   {26},
   {31},
   {27},
   {28},
   {31},
   {32},
   {32},
   {32},
   {  } ];

deadline = array2d(1..32, 1..3, [2, 5, 4, 4, 5, 3, 6, 2, 0, 9, 4, 0, 16, 4, 0, 17, 1, 1, 18, 1, 5, 19, 4, 2, 23, 1, 1, 27, 5, 1, 34, 5, 2, 36, 0, 0, 46, 4, 0, 56, 1, 4, 56, 2, 3, 56, 2, 3, 58, 4, 0, 66, 5, 0, 69, 3, 0, 76, 4, 3, 76, 4, 0, 84, 5, 2, 86, 1, 4, 88, 0, 5, 89, 4, 0, 95, 5, 4, 96, 4, 2, 97, 2, 0, 112, 3, 0, 115, 3, 5, 132, 3, 2, 133, 1, 0]);
