n_res = 4;
rc = [ 28, 18, 11, 13 ];
n_tasks = 32;
d = [0, 8, 6, 6, 2, 3, 6, 10, 2, 3, 6, 1, 7, 1, 8, 9, 5, 8, 8, 8, 3, 8, 6, 3, 3, 9, 5, 7, 9, 10, 1, 0];
rr = array2d(1..4, 1..32, [0, 0, 1, 0, 0, 0, 1, 1, 0, 10, 0, 10, 0, 0, 7, 0, 0, 5, 0, 0, 7, 0, 0, 0, 7, 10, 4, 0, 9, 0, 0, 0, 0, 6, 0, 0, 9, 0, 0, 0, 0, 0, 0, 0, 0, 5, 0, 0, 8, 0, 0, 10, 0, 0, 0, 0, 0, 0, 0, 0, 0, 0, 4, 0, 0, 0, 0, 0, 0, 0, 0, 0, 0, 0, 7, 0, 3, 0, 0, 1, 0, 0, 0, 0, 0, 0, 0, 1, 0, 0, 0, 7, 0, 0, 0, 0, 0, 0, 0, 7, 0, 6, 0, 0, 5, 0, 0, 0, 0, 0, 0, 0, 0, 0, 4, 0, 0, 2, 4, 0, 0, 0, 0, 0, 0, 9, 0, 0]);

suc = [
   {2, 3, 4},
   {9, 10, 5},
   {6},
   {15},
   {12, 20},
   {9, 7},
   {8, 13},
   {26, 14},
   {17, 18},
   {16, 11},
   {18, 14},
   {23},
   {24},
   {25, 19},
   {30},
   {25, 19, 22},
   {26},
   {31},
   {27, 21},
   {23},
   {24},
   {30},
   {29, 30},
   {29},
   {28},
   {27},
   {28, 31},
   {29},
   {32},
   {32},
   {32},
   {  } ];

deadline = array2d(1..32, 1..3, [11, 4, 5, 14, 2, 5, 17, 0, 2, 18, 1, 5, 22, 5, 0, 22, 1, 3, 30, 1, 5, 32, 1, 0, 40, 1, 3, 41, 1, 5, 43, 2, 5, 43, 0, 5, 45, 5, 3, 49, 1, 2, 60, 0, 5, 60, 1, 3, 60, 5, 4, 70, 1, 0, 76, 0, 4, 77, 5, 2, 80, 2, 0, 90, 5, 5, 90, 2, 1, 92, 1, 2, 98, 3, 2, 100, 1, 4, 103, 1, 0, 107, 3, 3, 120, 0, 2, 122, 4, 2, 122, 2, 3, 123, 5, 0]);
