n_res = 4;
rc = [ 45, 32, 46, 34 ];
n_tasks = 32;
d = [0, 4, 9, 5, 9, 7, 8, 10, 8, 9, 2, 8, 6, 6, 1, 1, 9, 10, 7, 7, 2, 1, 2, 9, 3, 2, 9, 10, 8, 5, 5, 0];
rr = array2d(1..4, 1..32, [0, 4, 8, 2, 3, 8, 4, 4, 5, 8, 7, 6, 3, 10, 8, 9, 2, 10, 8, 5, 9, 3, 2, 5, 10, 4, 8, 3, 4, 4, 5, 0, 0, 8, 3, 9, 3, 8, 8, 1, 7, 4, 3, 4, 6, 9, 9, 3, 6, 10, 2, 8, 10, 7, 5, 7, 3, 10, 5, 7, 4, 4, 9, 0, 0, 7, 8, 1, 9, 5, 9, 10, 4, 8, 4, 8, 2, 8, 5, 5, 7, 9, 9, 2, 8, 6, 3, 9, 3, 4, 3, 3, 9, 8, 2, 0, 0, 10, 10, 8, 3, 7, 1, 10, 10, 6, 5, 2, 6, 2, 10, 2, 1, 7, 7, 5, 9, 4, 2, 9, 7, 1, 1, 5, 9, 5, 2, 0]);

suc = [
   {2, 3, 4},
   {9, 6, 7},
   {8, 10, 13},
   {5, 6},
   {9, 30, 7},
   {17, 28},
   {18, 19, 14},
   {25},
   {11, 12},
   {11, 12},
   {16, 24},
   {26},
   {20},
   {16, 15},
   {21, 22},
   {25, 20, 21},
   {19, 21, 30},
   {24, 20, 22},
   {26},
   {28},
   {29, 31},
   {26, 23},
   {27},
   {25, 28},
   {27},
   {27},
   {29, 31},
   {31},
   {32},
   {32},
   {32},
   {  } ];

deadline = array2d(1..32, 1..3, [11, 0, 3, 16, 4, 5, 22, 3, 4, 27, 5, 4, 44, 3, 2, 53, 3, 2, 55, 0, 2, 55, 2, 4, 56, 0, 4, 56, 3, 0, 58, 4, 0, 62, 4, 1, 63, 1, 3, 64, 4, 3, 67, 3, 1, 73, 5, 2, 77, 4, 3, 83, 3, 5, 87, 1, 2, 89, 0, 5, 95, 1, 5, 102, 5, 3, 103, 1, 1, 110, 4, 3, 110, 3, 3, 118, 5, 1, 118, 0, 3, 119, 2, 1, 130, 5, 0, 138, 0, 1, 141, 1, 1, 147, 3, 2]);
