n_res = 4;
rc = [ 41, 48, 37, 50 ];
n_tasks = 32;
d = [0, 7, 1, 8, 2, 5, 8, 7, 10, 6, 4, 6, 4, 5, 10, 9, 10, 7, 3, 7, 5, 4, 7, 7, 5, 6, 4, 8, 9, 3, 2, 0];
rr = array2d(1..4, 1..32, [0, 5, 3, 4, 4, 1, 9, 1, 2, 5, 4, 3, 1, 1, 6, 7, 5, 1, 2, 10, 10, 10, 8, 5, 9, 7, 9, 2, 4, 6, 5, 0, 0, 1, 9, 7, 4, 1, 4, 4, 4, 3, 10, 10, 10, 7, 8, 8, 3, 5, 6, 1, 8, 10, 2, 6, 7, 10, 5, 5, 8, 9, 6, 0, 0, 4, 2, 4, 10, 6, 2, 2, 2, 10, 8, 8, 9, 4, 1, 1, 2, 1, 2, 10, 10, 3, 3, 6, 4, 1, 6, 7, 5, 1, 8, 0, 0, 7, 2, 5, 7, 5, 6, 6, 3, 5, 3, 6, 4, 9, 3, 2, 4, 3, 7, 1, 8, 1, 7, 8, 5, 3, 5, 3, 9, 2, 4, 0]);

suc = [
   {2, 3, 4},
   {19, 11, 5},
   {16},
   {14, 6, 7},
   {8, 9, 12},
   {10, 23},
   {24},
   {27},
   {22},
   {13},
   {21},
   {13, 15},
   {25, 18, 26},
   {24},
   {17, 22},
   {19, 31},
   {20},
   {28},
   {29},
   {29},
   {28},
   {31},
   {30},
   {25, 26, 31},
   {28, 30},
   {27},
   {30},
   {29},
   {32},
   {32},
   {32},
   {  } ];

deadline = array2d(1..32, 1..3, [4, 2, 2, 4, 1, 2, 7, 1, 3, 13, 1, 4, 17, 5, 5, 18, 2, 3, 20, 3, 0, 29, 3, 1, 41, 0, 0, 50, 4, 0, 50, 2, 3, 52, 0, 5, 54, 3, 5, 74, 2, 4, 74, 5, 0, 75, 0, 3, 79, 4, 5, 89, 0, 3, 91, 3, 3, 93, 0, 1, 94, 0, 5, 96, 3, 1, 101, 4, 1, 107, 2, 5, 110, 2, 3, 113, 0, 0, 116, 3, 2, 117, 0, 2, 119, 5, 0, 121, 1, 1, 121, 4, 1, 122, 2, 2]);
