n_res = 4;
rc = [ 16, 10, 8, 18 ];
n_tasks = 32;
d = [0, 6, 6, 9, 7, 3, 2, 10, 4, 2, 8, 7, 8, 8, 1, 10, 9, 3, 8, 3, 7, 7, 9, 2, 1, 4, 6, 7, 7, 8, 1, 0];
rr = array2d(1..4, 1..32, [0, 0, 8, 8, 0, 9, 0, 0, 0, 8, 0, 0, 9, 0, 0, 0, 3, 4, 0, 5, 0, 0, 0, 0, 0, 3, 0, 0, 0, 3, 0, 0, 0, 0, 0, 0, 0, 0, 0, 7, 0, 0, 0, 0, 0, 0, 0, 0, 0, 0, 0, 0, 0, 10, 0, 2, 9, 0, 0, 0, 6, 0, 0, 0, 0, 8, 0, 0, 0, 0, 0, 0, 1, 0, 0, 0, 0, 1, 0, 0, 0, 0, 0, 0, 0, 0, 0, 0, 0, 0, 0, 0, 0, 0, 5, 0, 0, 0, 0, 0, 5, 0, 2, 0, 0, 0, 6, 10, 0, 0, 9, 5, 0, 0, 10, 0, 6, 0, 6, 0, 0, 0, 2, 2, 0, 0, 0, 0]);

suc = [
   {2, 3, 4},
   {25, 20, 7},
   {21, 26, 5},
   {8, 9, 10},
   {27, 29, 6},
   {17, 22},
   {24, 23},
   {11},
   {12, 20},
   {28, 22},
   {16, 13, 15},
   {17, 19, 31},
   {31, 14, 23},
   {19},
   {18},
   {25, 18, 19},
   {30},
   {24, 20},
   {29, 22},
   {23},
   {25, 28},
   {30},
   {26, 30},
   {26, 27},
   {27},
   {28},
   {31},
   {29},
   {32},
   {32},
   {32},
   {  } ];

deadline = array2d(1..32, 1..3, [4, 1, 1, 33, 4, 2, 44, 0, 2, 47, 0, 2, 57, 4, 2, 59, 5, 0, 70, 4, 4, 71, 2, 2, 72, 3, 4, 73, 4, 0, 82, 4, 5, 88, 1, 1, 90, 2, 5, 105, 1, 1, 106, 2, 4, 107, 2, 1, 109, 0, 2, 110, 0, 3, 116, 1, 0, 117, 2, 5, 117, 2, 3, 131, 0, 2, 132, 3, 3, 138, 3, 5, 139, 5, 1, 140, 5, 2, 151, 5, 0, 157, 5, 4, 158, 3, 2, 166, 2, 2, 166, 5, 1, 170, 4, 4]);
