n_res = 4;
rc = [ 22, 32, 25, 26 ];
n_tasks = 32;
d = [0, 7, 7, 4, 8, 9, 3, 9, 10, 6, 2, 7, 9, 10, 9, 4, 5, 3, 3, 2, 3, 3, 10, 7, 9, 1, 2, 1, 3, 8, 2, 0];
rr = array2d(1..4, 1..32, [0, 3, 7, 9, 9, 7, 3, 1, 3, 2, 4, 8, 6, 8, 2, 6, 2, 6, 10, 4, 1, 2, 1, 3, 1, 5, 5, 3, 9, 2, 3, 0, 0, 8, 8, 7, 9, 10, 3, 7, 9, 10, 7, 3, 5, 6, 9, 5, 2, 3, 10, 3, 5, 2, 5, 2, 5, 2, 4, 9, 9, 1, 10, 0, 0, 1, 1, 8, 9, 2, 3, 7, 1, 8, 7, 2, 10, 3, 10, 10, 9, 8, 1, 6, 4, 9, 4, 3, 1, 10, 7, 10, 6, 4, 8, 0, 0, 4, 2, 5, 2, 4, 4, 5, 2, 9, 4, 5, 4, 5, 5, 1, 2, 4, 6, 9, 5, 4, 5, 5, 9, 5, 8, 8, 1, 10, 8, 0]);

suc = [
   {2, 3, 4},
   {19, 14},
   {23},
   {9, 11, 5},
   {18, 21, 6},
   {10, 7},
   {8, 19, 12},
   {13, 22, 15},
   {16, 15},
   {19, 14},
   {18},
   {24, 17, 26},
   {20, 28},
   {24, 27, 15},
   {23},
   {26, 27, 21},
   {25, 27},
   {23},
   {25, 20, 30},
   {24},
   {30},
   {26},
   {31},
   {29},
   {28, 31},
   {29, 31},
   {28, 30},
   {29},
   {32},
   {32},
   {32},
   {  } ];

deadline = array2d(1..32, 1..3, [1, 5, 3, 1, 4, 3, 3, 4, 2, 4, 1, 0, 8, 5, 4, 12, 4, 3, 21, 1, 1, 24, 5, 1, 31, 0, 0, 33, 3, 5, 40, 5, 0, 65, 1, 1, 70, 1, 3, 71, 3, 1, 73, 4, 5, 83, 0, 5, 84, 0, 1, 85, 4, 5, 92, 5, 2, 96, 4, 5, 97, 1, 1, 98, 1, 2, 99, 4, 2, 101, 2, 5, 101, 3, 0, 104, 1, 4, 120, 4, 5, 121, 0, 5, 125, 1, 4, 133, 5, 4, 133, 0, 2, 137, 3, 5]);
