n_res = 4;
rc = [ 16, 13, 17, 15 ];
n_tasks = 32;
d = [0, 9, 2, 2, 10, 10, 7, 6, 10, 6, 3, 10, 8, 3, 4, 7, 8, 10, 9, 6, 7, 9, 2, 8, 7, 3, 5, 5, 6, 2, 4, 0];
rr = array2d(1..4, 1..32, [0, 8, 3, 2, 4, 9, 9, 5, 7, 10, 7, 10, 1, 6, 9, 8, 10, 2, 4, 1, 6, 10, 10, 9, 1, 9, 6, 5, 1, 7, 4, 0, 0, 3, 10, 8, 5, 4, 1, 3, 6, 9, 1, 10, 5, 2, 4, 6, 6, 2, 4, 1, 2, 8, 6, 6, 9, 1, 8, 4, 2, 2, 7, 0, 0, 4, 7, 1, 9, 4, 5, 5, 9, 6, 9, 6, 6, 3, 6, 9, 10, 9, 8, 9, 4, 10, 10, 9, 6, 8, 10, 1, 6, 4, 5, 0, 0, 7, 7, 8, 5, 7, 7, 1, 2, 5, 8, 8, 5, 1, 6, 5, 3, 8, 5, 1, 2, 8, 6, 8, 1, 9, 4, 8, 5, 10, 2, 0]);

suc = [
   {2, 3, 4},
   {25},
   {13, 6},
   {9, 5, 7},
   {8, 15},
   {24, 25, 11},
   {20},
   {10, 18, 23},
   {19, 12, 20},
   {19, 22},
   {27, 30},
   {26, 21, 14},
   {17, 19},
   {16, 22, 23},
   {16},
   {24, 17, 27},
   {25},
   {26, 21, 31},
   {28, 21},
   {27, 23},
   {29},
   {24, 29},
   {31},
   {28, 30},
   {29},
   {30},
   {28},
   {31},
   {32},
   {32},
   {32},
   {  } ];

deadline = array2d(1..32, 1..3, [6, 1, 2, 11, 4, 4, 11, 2, 4, 33, 5, 5, 35, 0, 0, 35, 1, 2, 38, 1, 5, 41, 3, 3, 48, 4, 5, 49, 5, 1, 50, 1, 1, 52, 3, 2, 53, 2, 2, 75, 2, 1, 77, 0, 1, 83, 1, 5, 84, 2, 2, 87, 5, 0, 90, 5, 5, 90, 1, 5, 92, 0, 2, 101, 0, 0, 106, 3, 3, 106, 5, 2, 111, 2, 3, 112, 0, 2, 113, 2, 0, 114, 2, 3, 114, 5, 0, 114, 2, 2, 123, 4, 0, 126, 0, 4]);
