n_res = 4;
rc = [ 25, 20, 31, 29 ];
n_tasks = 32;
d = [0, 6, 4, 1, 8, 7, 4, 6, 8, 8, 4, 8, 5, 2, 8, 6, 8, 6, 3, 2, 3, 8, 4, 9, 7, 4, 7, 1, 4, 7, 8, 0];
rr = array2d(1..4, 1..32, [0, 9, 0, 9, 8, 3, 9, 3, 0, 0, 0, 0, 0, 3, 4, 2, 0, 1, 6, 10, 0, 1, 0, 1, 2, 8, 0, 0, 2, 0, 0, 0, 0, 1, 4, 0, 2, 5, 3, 3, 7, 0, 0, 0, 2, 0, 0, 3, 0, 0, 5, 3, 6, 0, 0, 2, 0, 7, 9, 7, 6, 0, 0, 0, 0, 4, 0, 5, 1, 0, 0, 0, 3, 4, 0, 0, 5, 3, 1, 0, 7, 8, 0, 9, 0, 0, 2, 3, 0, 0, 2, 4, 6, 0, 0, 0, 0, 0, 0, 0, 0, 0, 0, 0, 9, 0, 7, 1, 0, 0, 0, 0, 5, 0, 4, 10, 0, 5, 0, 7, 0, 0, 0, 0, 1, 3, 4, 0]);

suc = [
   {2, 3, 4},
   {5, 14, 15},
   {8, 6},
   {24, 12, 7},
   {9, 19, 25},
   {10, 11, 30},
   {28, 13},
   {17, 10},
   {27},
   {27},
   {26, 20},
   {30},
   {22},
   {20},
   {16, 18, 20},
   {19},
   {23},
   {21},
   {27, 23},
   {28},
   {29},
   {23},
   {31},
   {29},
   {30},
   {31},
   {28},
   {31},
   {32},
   {32},
   {32},
   {  } ];

deadline = array2d(1..32, 1..3, [4, 2, 3, 19, 4, 0, 21, 2, 0, 23, 1, 2, 31, 5, 0, 32, 2, 0, 34, 0, 5, 36, 1, 0, 39, 4, 1, 39, 2, 3, 40, 4, 2, 44, 3, 1, 44, 1, 0, 50, 1, 2, 53, 5, 3, 55, 1, 0, 55, 5, 2, 56, 5, 5, 57, 3, 0, 58, 0, 2, 61, 3, 3, 64, 4, 1, 66, 3, 3, 68, 2, 1, 82, 3, 3, 84, 1, 5, 85, 1, 1, 88, 4, 0, 90, 5, 1, 92, 2, 4, 92, 3, 1, 96, 4, 4]);
