n_res = 4;
rc = [ 29, 39, 51, 43 ];
n_tasks = 32;
d = [0, 9, 5, 10, 4, 7, 9, 8, 8, 10, 9, 2, 2, 1, 2, 5, 5, 3, 4, 3, 8, 6, 10, 3, 3, 9, 4, 10, 4, 9, 9, 0];
rr = array2d(1..4, 1..32, [0, 4, 5, 9, 3, 1, 6, 4, 9, 4, 6, 5, 2, 5, 7, 2, 2, 4, 2, 4, 3, 1, 1, 9, 10, 7, 8, 6, 8, 8, 7, 0, 0, 2, 4, 6, 4, 6, 8, 9, 5, 1, 9, 5, 8, 3, 9, 2, 4, 4, 2, 5, 1, 7, 3, 4, 9, 3, 1, 6, 4, 5, 2, 0, 0, 1, 8, 7, 3, 9, 8, 9, 8, 4, 5, 2, 8, 7, 9, 8, 7, 3, 10, 3, 9, 10, 1, 7, 1, 3, 2, 1, 4, 3, 7, 0, 0, 1, 10, 6, 4, 10, 2, 7, 4, 9, 2, 8, 4, 8, 10, 1, 10, 10, 2, 10, 7, 1, 10, 5, 2, 5, 9, 5, 4, 9, 7, 0]);

suc = [
   {2, 3, 4},
   {25},
   {13, 5, 6},
   {9, 14, 15},
   {8, 16, 7},
   {31},
   {17, 11, 28},
   {18, 12, 30},
   {10, 27},
   {17, 12},
   {14},
   {24},
   {30},
   {26, 21, 22},
   {20},
   {19},
   {21},
   {23},
   {31},
   {22},
   {25},
   {29},
   {27},
   {25, 31},
   {29},
   {27},
   {29},
   {30},
   {32},
   {32},
   {32},
   {  } ];

deadline = array2d(1..32, 1..3, [1, 3, 5, 4, 4, 5, 5, 4, 0, 6, 3, 3, 8, 5, 1, 9, 5, 1, 11, 4, 2, 13, 2, 4, 15, 0, 1, 23, 1, 0, 29, 4, 2, 36, 1, 4, 43, 3, 1, 45, 3, 4, 51, 3, 4, 53, 1, 4, 56, 0, 4, 62, 0, 4, 67, 4, 0, 69, 2, 3, 74, 0, 4, 80, 5, 3, 84, 3, 5, 88, 0, 3, 92, 0, 5, 93, 0, 0, 93, 5, 4, 95, 2, 3, 99, 1, 3, 102, 0, 0, 103, 4, 0, 107, 5, 4]);
