n_res = 4;
rc = [ 29, 34, 33, 35 ];
n_tasks = 32;
d = [0, 9, 10, 6, 6, 8, 3, 10, 5, 8, 10, 5, 10, 5, 10, 6, 7, 5, 8, 9, 6, 5, 5, 1, 7, 2, 3, 4, 6, 5, 6, 0];
rr = array2d(1..4, 1..32, [0, 4, 2, 3, 5, 7, 10, 2, 8, 6, 2, 1, 4, 5, 10, 1, 8, 1, 3, 6, 7, 7, 9, 5, 9, 2, 6, 8, 9, 6, 2, 0, 0, 6, 3, 7, 1, 10, 10, 4, 6, 10, 4, 6, 7, 1, 6, 4, 6, 5, 9, 9, 4, 3, 4, 10, 7, 3, 7, 5, 7, 3, 10, 0, 0, 9, 6, 8, 7, 6, 9, 7, 3, 10, 2, 6, 10, 1, 1, 6, 3, 6, 6, 1, 6, 4, 2, 3, 6, 7, 3, 1, 2, 2, 10, 0, 0, 8, 10, 8, 4, 7, 4, 3, 1, 4, 8, 7, 8, 9, 7, 6, 4, 3, 7, 3, 1, 5, 5, 2, 3, 10, 8, 5, 6, 2, 9, 0]);

suc = [
   {2, 3, 4},
   {16, 17, 28},
   {10, 5, 7},
   {17, 6, 23},
   {8, 12, 13},
   {25, 21, 15},
   {9, 26},
   {26, 30, 23},
   {11, 21, 14},
   {16},
   {22},
   {19},
   {19},
   {16, 27},
   {24},
   {31},
   {18, 31},
   {24, 26, 22},
   {24, 20, 22},
   {25, 23},
   {27, 28},
   {25},
   {28, 31},
   {29, 30},
   {27},
   {29},
   {30},
   {29},
   {32},
   {32},
   {32},
   {  } ];

deadline = array2d(1..32, 1..3, [2, 1, 4, 6, 3, 1, 9, 4, 4, 13, 5, 2, 23, 0, 0, 29, 5, 0, 30, 3, 4, 33, 0, 1, 41, 5, 4, 41, 3, 5, 52, 0, 1, 53, 1, 1, 55, 2, 3, 60, 1, 0, 62, 1, 3, 63, 0, 1, 65, 2, 0, 72, 4, 1, 75, 3, 2, 79, 5, 1, 100, 2, 5, 101, 3, 2, 103, 0, 2, 108, 2, 1, 108, 2, 4, 111, 5, 5, 125, 4, 2, 128, 0, 1, 130, 0, 0, 135, 1, 0, 135, 0, 5, 140, 5, 3]);
