n_res = 4;
rc = [ 25, 28, 32, 21 ];
n_tasks = 32;
d = [0, 9, 5, 8, 3, 9, 4, 4, 2, 9, 9, 9, 5, 2, 5, 8, 9, 10, 10, 9, 1, 5, 7, 6, 8, 9, 3, 7, 7, 1, 6, 0];
rr = array2d(1..4, 1..32, [0, 8, 10, 9, 6, 4, 3, 9, 8, 8, 4, 3, 6, 4, 7, 6, 2, 6, 10, 3, 1, 9, 4, 8, 9, 2, 2, 6, 8, 3, 9, 0, 0, 7, 5, 8, 7, 10, 4, 4, 8, 3, 5, 4, 2, 7, 9, 5, 6, 1, 8, 6, 6, 2, 9, 8, 8, 8, 3, 2, 10, 9, 7, 0, 0, 9, 6, 3, 9, 1, 5, 2, 1, 9, 3, 7, 3, 10, 10, 7, 4, 5, 6, 1, 7, 4, 8, 8, 2, 10, 10, 10, 4, 10, 10, 0, 0, 4, 10, 2, 10, 1, 9, 1, 9, 4, 1, 2, 5, 6, 2, 4, 3, 6, 5, 3, 2, 4, 7, 8, 9, 1, 1, 2, 10, 8, 3, 0]);

suc = [
   {2, 3, 4},
   {11, 15},
   {8, 17, 14},
   {19, 5, 6},
   {25},
   {27, 7},
   {9, 12},
   {10, 18, 21},
   {16, 14},
   {19, 25, 11},
   {24, 12, 28},
   {26, 20, 13},
   {31},
   {22},
   {17, 30, 23},
   {24, 17, 29},
   {25},
   {29},
   {27, 20, 22},
   {31, 23},
   {26, 22, 23},
   {24},
   {29},
   {30},
   {28},
   {30},
   {28},
   {31},
   {32},
   {32},
   {32},
   {  } ];

deadline = array2d(1..32, 1..3, [1, 2, 2, 5, 3, 5, 22, 0, 1, 25, 4, 5, 31, 2, 0, 48, 3, 5, 49, 0, 4, 51, 2, 4, 51, 4, 1, 52, 3, 1, 52, 0, 1, 53, 2, 5, 54, 2, 5, 56, 3, 4, 58, 2, 5, 64, 1, 4, 75, 4, 3, 82, 4, 0, 83, 0, 4, 88, 5, 5, 90, 5, 0, 95, 1, 4, 101, 5, 0, 104, 4, 2, 107, 4, 1, 112, 0, 2, 125, 2, 5, 129, 5, 2, 131, 5, 0, 134, 4, 3, 139, 4, 3, 144, 1, 3]);
