n_res = 4;
rc = [ 13, 15, 15, 15 ];
n_tasks = 32;
d = [0, 1, 10, 6, 1, 3, 9, 2, 10, 2, 5, 4, 8, 3, 6, 5, 3, 1, 7, 8, 2, 8, 8, 2, 7, 8, 10, 1, 1, 4, 1, 0];
rr = array2d(1..4, 1..32, [0, 2, 2, 7, 3, 0, 6, 7, 0, 8, 4, 5, 0, 4, 1, 1, 5, 2, 5, 5, 2, 7, 9, 8, 0, 3, 1, 0, 4, 5, 10, 0, 0, 9, 10, 3, 7, 7, 1, 4, 7, 2, 0, 10, 6, 1, 7, 5, 0, 4, 8, 10, 2, 0, 3, 10, 4, 0, 0, 7, 9, 1, 0, 0, 0, 9, 0, 0, 5, 4, 0, 7, 0, 0, 9, 0, 10, 0, 0, 9, 5, 4, 2, 0, 7, 8, 5, 9, 7, 1, 9, 5, 2, 7, 1, 0, 0, 4, 2, 0, 1, 1, 0, 0, 6, 0, 0, 1, 9, 6, 5, 4, 0, 10, 2, 2, 0, 8, 0, 3, 5, 4, 3, 1, 5, 0, 1, 0]);

suc = [
   {2, 3, 4},
   {5, 14, 7},
   {16, 17, 15},
   {8},
   {6},
   {19, 20},
   {9, 11, 13},
   {19},
   {10},
   {12},
   {21, 23},
   {24},
   {25, 22},
   {29},
   {28},
   {31},
   {24, 18, 19},
   {21, 23},
   {31},
   {27},
   {26, 22},
   {28},
   {29, 31},
   {29},
   {26},
   {27, 28},
   {30},
   {30},
   {32},
   {32},
   {32},
   {  } ];

deadline = array2d(1..32, 1..3, [1, 1, 5, 2, 5, 3, 12, 4, 2, 16, 0, 2, 16, 0, 5, 17, 1, 1, 20, 0, 4, 21, 5, 2, 23, 4, 4, 26, 0, 4, 29, 4, 4, 35, 3, 3, 42, 0, 2, 46, 4, 5, 52, 4, 0, 52, 0, 4, 54, 5, 5, 54, 5, 5, 55, 0, 2, 61, 2, 3, 63, 0, 2, 65, 1, 5, 75, 5, 2, 79, 5, 1, 83, 1, 0, 84, 0, 3, 86, 1, 0, 90, 3, 2, 91, 4, 0, 100, 2, 0, 108, 3, 1, 113, 0, 0]);
