n_res = 4;
rc = [ 20, 20, 21, 25 ];
n_tasks = 32;
d = [0, 6, 3, 5, 5, 3, 6, 10, 2, 10, 6, 9, 2, 5, 1, 9, 10, 10, 6, 10, 5, 3, 10, 3, 3, 4, 1, 5, 5, 10, 3, 0];
rr = array2d(1..4, 1..32, [0, 6, 5, 10, 1, 4, 0, 8, 0, 0, 5, 0, 5, 6, 0, 3, 4, 0, 0, 5, 6, 0, 10, 5, 4, 2, 0, 0, 2, 7, 1, 0, 0, 7, 6, 3, 2, 5, 0, 8, 5, 10, 3, 10, 4, 5, 9, 8, 5, 0, 8, 5, 1, 7, 6, 0, 6, 9, 4, 3, 5, 0, 0, 0, 0, 2, 0, 3, 0, 5, 10, 0, 0, 6, 0, 6, 0, 5, 1, 0, 9, 0, 9, 5, 8, 9, 4, 10, 1, 3, 9, 3, 0, 0, 7, 0, 0, 0, 3, 9, 9, 5, 3, 10, 3, 6, 10, 1, 4, 3, 5, 0, 10, 6, 7, 7, 0, 4, 9, 7, 3, 8, 4, 10, 0, 6, 10, 0]);

suc = [
   {2, 3, 4},
   {13, 5, 7},
   {8, 13, 6},
   {11, 21, 6},
   {17, 11, 14},
   {9, 15},
   {9, 18, 19},
   {16, 17, 18},
   {10, 22},
   {24, 12, 23},
   {18, 19, 15},
   {16, 14},
   {16, 17, 15},
   {25, 30},
   {25, 22},
   {20, 28},
   {24, 25, 19},
   {24, 20, 30},
   {20, 22, 30},
   {26, 31},
   {27, 28},
   {26, 31, 23},
   {27},
   {26},
   {28},
   {27},
   {29},
   {29, 31},
   {32},
   {32},
   {32},
   {  } ];

deadline = array2d(1..32, 1..3, [5, 3, 3, 10, 4, 4, 18, 1, 0, 33, 3, 1, 34, 2, 0, 43, 2, 1, 48, 0, 0, 48, 2, 4, 57, 0, 5, 57, 5, 3, 59, 2, 5, 61, 5, 0, 68, 1, 2, 81, 0, 0, 85, 1, 5, 93, 2, 0, 93, 5, 5, 93, 5, 2, 94, 4, 0, 98, 3, 2, 99, 2, 0, 100, 2, 1, 103, 4, 0, 119, 5, 4, 119, 3, 2, 121, 2, 0, 122, 2, 2, 126, 4, 0, 130, 5, 4, 137, 3, 4, 144, 5, 3, 145, 5, 5]);
