n_res = 4;
rc = [ 14, 13, 12, 13 ];
n_tasks = 32;
d = [0, 6, 5, 8, 8, 10, 10, 6, 2, 1, 7, 1, 2, 4, 2, 10, 8, 3, 4, 1, 2, 6, 6, 5, 8, 9, 6, 3, 4, 8, 8, 0];
rr = array2d(1..4, 1..32, [0, 0, 1, 0, 8, 10, 0, 10, 0, 0, 0, 8, 3, 2, 0, 9, 10, 0, 2, 8, 1, 0, 6, 0, 3, 0, 9, 0, 2, 5, 0, 0, 0, 7, 10, 6, 9, 10, 9, 6, 0, 0, 0, 0, 0, 0, 4, 0, 0, 4, 0, 1, 6, 0, 0, 0, 1, 0, 0, 2, 0, 8, 0, 0, 0, 10, 0, 0, 0, 0, 0, 0, 0, 6, 7, 5, 7, 3, 3, 0, 0, 0, 3, 8, 0, 0, 0, 0, 0, 6, 8, 9, 0, 0, 0, 0, 0, 0, 4, 5, 0, 4, 0, 0, 3, 2, 0, 10, 0, 0, 0, 10, 0, 7, 9, 0, 0, 10, 7, 8, 0, 3, 1, 5, 10, 10, 4, 0]);

suc = [
   {2, 3, 4},
   {8, 11, 5},
   {16, 9},
   {18, 22, 7},
   {21, 6, 23},
   {9, 10, 12},
   {16, 17, 15},
   {17, 21, 14},
   {19, 20, 13},
   {19, 20, 14},
   {17, 12, 22},
   {19, 29, 15},
   {18, 27, 28},
   {25, 18, 15},
   {24, 30},
   {26, 27, 21},
   {26, 20, 23},
   {24, 29},
   {27},
   {25},
   {28},
   {24, 25, 23},
   {28, 29},
   {26},
   {30},
   {31},
   {31},
   {30, 31},
   {32},
   {32},
   {32},
   {  } ];

deadline = array2d(1..32, 1..3, [6, 1, 1, 10, 3, 1, 11, 4, 4, 19, 2, 2, 21, 4, 2, 21, 1, 3, 24, 2, 0, 26, 4, 0, 31, 3, 1, 42, 3, 4, 43, 4, 2, 51, 0, 3, 57, 4, 5, 61, 2, 2, 65, 1, 3, 67, 1, 2, 70, 4, 4, 75, 2, 1, 76, 5, 5, 90, 2, 1, 91, 3, 0, 93, 3, 2, 94, 1, 1, 95, 5, 2, 101, 0, 5, 101, 4, 4, 106, 4, 1, 115, 1, 1, 117, 3, 2, 124, 5, 5, 125, 1, 1, 130, 2, 4]);
