n_res = 4;
rc = [ 27, 34, 25, 26 ];
n_tasks = 32;
d = [0, 2, 10, 8, 3, 10, 8, 6, 10, 9, 4, 9, 7, 5, 2, 8, 6, 7, 7, 2, 6, 3, 8, 7, 10, 5, 8, 10, 5, 2, 9, 0];
rr = array2d(1..4, 1..32, [0, 3, 3, 10, 8, 6, 3, 4, 0, 4, 9, 0, 7, 4, 9, 0, 2, 3, 3, 6, 9, 0, 1, 4, 5, 2, 7, 9, 2, 10, 0, 0, 0, 2, 8, 9, 1, 8, 7, 0, 6, 4, 3, 9, 9, 7, 10, 4, 0, 3, 6, 1, 6, 1, 0, 7, 6, 0, 5, 3, 3, 7, 6, 0, 0, 6, 10, 7, 10, 0, 10, 4, 2, 0, 5, 6, 6, 8, 6, 1, 0, 5, 0, 10, 0, 0, 6, 0, 8, 9, 9, 0, 5, 3, 0, 0, 0, 6, 4, 7, 1, 0, 2, 0, 10, 0, 7, 0, 0, 0, 6, 0, 0, 10, 0, 6, 0, 3, 6, 4, 0, 6, 2, 3, 8, 7, 10, 0]);

suc = [
   {2, 3, 4},
   {10, 5, 6},
   {8, 6, 7},
   {5, 14, 15},
   {18, 12, 7},
   {9, 11, 12},
   {25, 21, 31},
   {9, 19, 28},
   {16, 17, 14},
   {13, 30},
   {21, 13, 15},
   {16, 21, 22},
   {19, 20},
   {20, 22, 23},
   {16, 24, 25},
   {27, 20, 23},
   {22},
   {24, 25, 19},
   {31, 23},
   {29, 31},
   {24, 26},
   {27},
   {29},
   {27, 28, 29},
   {26},
   {28},
   {30},
   {30},
   {32},
   {32},
   {32},
   {  } ];

deadline = array2d(1..32, 1..3, [6, 2, 3, 6, 3, 2, 11, 5, 3, 13, 0, 0, 16, 4, 4, 19, 3, 4, 32, 4, 0, 38, 4, 2, 38, 0, 1, 47, 3, 3, 48, 3, 3, 49, 4, 5, 55, 3, 0, 58, 3, 4, 60, 5, 0, 63, 0, 2, 63, 5, 0, 67, 0, 1, 73, 3, 3, 77, 4, 1, 85, 3, 3, 85, 5, 5, 90, 4, 3, 110, 5, 2, 114, 3, 3, 118, 2, 5, 122, 4, 3, 123, 3, 2, 127, 1, 5, 130, 4, 0, 131, 3, 4, 132, 0, 5]);
