n_res = 4;
rc = [ 12, 13, 11, 13 ];
n_tasks = 32;
d = [0, 9, 1, 3, 7, 4, 9, 3, 6, 1, 4, 6, 5, 7, 4, 1, 9, 7, 4, 1, 10, 8, 7, 2, 5, 4, 8, 8, 5, 1, 6, 0];
rr = array2d(1..4, 1..32, [0, 6, 0, 7, 2, 2, 6, 9, 3, 3, 0, 0, 6, 3, 6, 0, 1, 7, 0, 0, 7, 1, 5, 4, 0, 4, 4, 0, 4, 0, 4, 0, 0, 1, 9, 0, 0, 9, 5, 0, 0, 5, 6, 10, 5, 0, 9, 6, 2, 4, 10, 5, 0, 9, 9, 10, 3, 0, 6, 8, 6, 4, 9, 0, 0, 8, 5, 0, 7, 8, 9, 3, 0, 2, 4, 8, 3, 8, 0, 8, 0, 7, 0, 1, 2, 3, 6, 0, 0, 5, 0, 7, 8, 9, 0, 0, 0, 6, 0, 1, 8, 9, 0, 2, 0, 8, 10, 9, 2, 8, 8, 10, 1, 10, 9, 8, 3, 10, 10, 5, 4, 3, 4, 8, 0, 1, 3, 0]);

suc = [
   {2, 3, 4},
   {9, 11, 5},
   {8, 22, 15},
   {17, 13, 22},
   {10, 19, 6},
   {18, 13, 7},
   {25, 12, 14},
   {19, 10, 18},
   {26, 13, 15},
   {24, 21, 23},
   {24, 25, 20},
   {16, 27, 23},
   {16, 30, 31},
   {16, 17, 22},
   {17, 19},
   {20},
   {20, 28},
   {25, 27},
   {27, 21},
   {21},
   {29},
   {24, 23},
   {26, 28},
   {30},
   {26},
   {29, 31},
   {28, 29, 30},
   {31},
   {32},
   {32},
   {32},
   {  } ];

deadline = array2d(1..32, 1..3, [4, 3, 0, 12, 4, 4, 20, 0, 3, 21, 3, 3, 24, 3, 0, 30, 0, 0, 33, 0, 1, 39, 1, 5, 58, 1, 0, 75, 5, 0, 77, 1, 2, 79, 4, 1, 88, 5, 2, 89, 3, 2, 92, 0, 5, 96, 4, 4, 101, 5, 2, 104, 4, 5, 112, 5, 4, 112, 0, 5, 113, 5, 2, 113, 2, 1, 118, 1, 3, 126, 5, 2, 133, 5, 3, 134, 1, 3, 139, 5, 3, 143, 1, 1, 146, 5, 5, 153, 2, 1, 160, 5, 4, 161, 4, 3]);
