n_res = 4;
rc = [ 9, 11, 11, 16 ];
n_tasks = 32;
d = [0, 5, 6, 2, 8, 2, 4, 9, 1, 1, 6, 7, 3, 8, 7, 5, 9, 3, 4, 2, 4, 10, 5, 4, 2, 8, 5, 8, 9, 1, 1, 0];
rr = array2d(1..4, 1..32, [0, 0, 0, 0, 0, 8, 0, 1, 0, 0, 0, 0, 0, 0, 7, 0, 0, 0, 0, 0, 0, 0, 0, 0, 0, 3, 6, 0, 0, 0, 0, 0, 0, 0, 10, 0, 0, 0, 0, 0, 0, 6, 0, 0, 0, 0, 0, 5, 0, 0, 0, 2, 0, 0, 0, 0, 3, 0, 0, 0, 6, 6, 0, 0, 0, 5, 0, 0, 0, 0, 4, 0, 0, 0, 4, 0, 0, 9, 0, 0, 0, 0, 0, 0, 1, 3, 0, 0, 0, 0, 0, 0, 0, 0, 0, 0, 0, 0, 0, 2, 5, 0, 0, 0, 10, 0, 0, 9, 9, 0, 0, 0, 1, 7, 4, 0, 0, 0, 7, 3, 0, 0, 0, 9, 0, 0, 3, 0]);

suc = [
   {2, 3, 4},
   {27, 20, 7},
   {10, 5},
   {8, 9, 6},
   {12},
   {28, 29},
   {16, 25, 15},
   {24, 11},
   {26},
   {17, 13, 14},
   {27},
   {16},
   {31},
   {18, 19},
   {22},
   {30},
   {26, 27},
   {25},
   {21},
   {24},
   {22, 23},
   {30},
   {25},
   {26},
   {31},
   {30},
   {28, 29},
   {31},
   {32},
   {32},
   {32},
   {  } ];

deadline = array2d(1..32, 1..3, [3, 0, 1, 23, 5, 1, 24, 3, 0, 25, 3, 1, 29, 2, 2, 30, 0, 0, 33, 5, 3, 33, 4, 0, 33, 3, 3, 38, 0, 3, 38, 2, 5, 39, 1, 0, 41, 3, 3, 42, 4, 2, 45, 3, 0, 46, 3, 0, 47, 2, 1, 50, 0, 3, 52, 4, 1, 59, 3, 0, 61, 4, 4, 62, 0, 0, 65, 2, 4, 67, 1, 2, 75, 2, 4, 75, 1, 5, 78, 0, 1, 81, 1, 2, 81, 4, 4, 82, 1, 1, 84, 2, 5, 85, 3, 1]);
