n_res = 4;
rc = [ 22, 24, 22, 23 ];
n_tasks = 32;
d = [0, 5, 10, 5, 2, 3, 3, 3, 5, 8, 2, 3, 9, 9, 6, 3, 5, 5, 1, 2, 6, 9, 9, 4, 7, 6, 10, 10, 4, 7, 6, 0];
rr = array2d(1..4, 1..32, [0, 2, 4, 10, 1, 9, 7, 5, 1, 8, 9, 8, 1, 1, 10, 3, 10, 9, 10, 9, 6, 2, 6, 5, 6, 4, 10, 1, 8, 9, 5, 0, 0, 2, 6, 4, 6, 4, 3, 10, 10, 9, 10, 5, 3, 1, 9, 6, 2, 5, 1, 10, 2, 10, 4, 8, 7, 10, 3, 3, 5, 1, 7, 0, 0, 3, 1, 1, 6, 9, 3, 8, 8, 5, 2, 1, 2, 9, 10, 7, 2, 5, 6, 7, 5, 7, 7, 7, 6, 5, 10, 7, 1, 3, 5, 0, 0, 4, 9, 3, 1, 1, 4, 10, 5, 8, 1, 3, 8, 3, 6, 2, 8, 4, 3, 5, 8, 2, 9, 6, 3, 8, 1, 1, 1, 10, 10, 0]);

suc = [
   {2, 3, 4},
   {9, 13, 7},
   {10, 14},
   {11, 5, 6},
   {24, 10, 19},
   {9, 21, 13},
   {8, 14, 15},
   {18, 20, 31},
   {17, 20, 22},
   {27, 28, 23},
   {12, 20, 15},
   {16, 26, 19},
   {18, 14, 15},
   {24, 22, 31},
   {17, 26},
   {18, 21, 22},
   {24, 19, 28},
   {25, 30},
   {29, 23},
   {26, 27, 28},
   {23},
   {25},
   {31},
   {25, 30},
   {27},
   {29},
   {29},
   {30},
   {32},
   {32},
   {32},
   {  } ];

deadline = array2d(1..32, 1..3, [1, 1, 5, 5, 2, 0, 6, 0, 1, 8, 4, 1, 20, 0, 5, 21, 2, 1, 21, 5, 1, 31, 5, 2, 35, 3, 2, 38, 2, 5, 41, 3, 1, 43, 3, 5, 45, 4, 3, 45, 4, 5, 50, 2, 2, 61, 3, 5, 66, 2, 2, 83, 4, 0, 85, 4, 2, 89, 2, 0, 97, 0, 2, 99, 5, 2, 103, 5, 3, 109, 4, 0, 111, 0, 1, 122, 3, 0, 123, 0, 4, 124, 2, 0, 130, 0, 5, 132, 4, 5, 133, 2, 3, 135, 0, 4]);
