n_res = 4;
rc = [ 14, 8, 12, 12 ];
n_tasks = 32;
d = [0, 6, 7, 5, 3, 1, 6, 10, 4, 7, 4, 1, 4, 10, 4, 1, 9, 8, 10, 8, 3, 3, 1, 8, 1, 6, 8, 3, 8, 7, 6, 0];
rr = array2d(1..4, 1..32, [0, 10, 0, 0, 9, 0, 2, 6, 8, 8, 0, 0, 0, 0, 10, 9, 4, 0, 5, 0, 0, 0, 1, 0, 0, 0, 0, 9, 0, 4, 7, 0, 0, 7, 1, 3, 3, 3, 1, 0, 0, 0, 0, 0, 6, 3, 0, 0, 0, 5, 0, 0, 0, 0, 0, 0, 0, 3, 4, 0, 3, 2, 7, 0, 0, 0, 0, 0, 0, 5, 5, 4, 0, 1, 2, 2, 0, 3, 5, 1, 0, 9, 6, 0, 10, 0, 5, 8, 9, 0, 3, 3, 0, 9, 0, 0, 0, 0, 7, 4, 4, 0, 0, 0, 10, 0, 0, 8, 0, 9, 5, 0, 2, 6, 5, 1, 0, 3, 0, 10, 0, 0, 1, 0, 2, 0, 0, 0]);

suc = [
   {2, 3, 4},
   {10, 27, 14},
   {12, 28, 6},
   {9, 5, 7},
   {16, 18, 23},
   {19, 13, 15},
   {8, 16, 11},
   {10, 19, 14},
   {27, 13, 14},
   {12, 21, 30},
   {25, 19, 21},
   {24},
   {16, 17},
   {21, 22, 15},
   {25, 18, 20},
   {29, 22},
   {25, 18, 20},
   {24},
   {20, 22},
   {26, 23},
   {28, 23},
   {26},
   {24},
   {29, 31},
   {26},
   {30, 31},
   {28, 29, 30},
   {31},
   {32},
   {32},
   {32},
   {  } ];

deadline = array2d(1..32, 1..3, [9, 4, 0, 11, 0, 2, 13, 3, 2, 13, 4, 0, 16, 5, 2, 19, 5, 0, 20, 0, 4, 27, 5, 1, 42, 2, 4, 53, 0, 5, 55, 0, 5, 57, 4, 1, 58, 5, 0, 59, 1, 5, 59, 4, 5, 75, 5, 1, 77, 3, 1, 81, 5, 5, 81, 3, 0, 88, 4, 5, 97, 2, 2, 99, 1, 0, 100, 2, 4, 100, 2, 5, 108, 5, 1, 113, 4, 5, 123, 5, 5, 133, 0, 1, 134, 2, 5, 137, 4, 0, 143, 5, 1, 147, 3, 2]);
