n_res = 4;
rc = [ 37, 30, 36, 34 ];
n_tasks = 32;
d = [0, 10, 9, 6, 1, 1, 10, 7, 5, 4, 9, 10, 6, 4, 7, 7, 8, 1, 4, 4, 7, 2, 1, 9, 10, 9, 10, 7, 2, 1, 3, 0];
rr = array2d(1..4, 1..32, [0, 1, 3, 2, 2, 9, 3, 8, 4, 6, 8, 9, 7, 9, 5, 10, 7, 2, 1, 10, 3, 2, 3, 5, 5, 7, 10, 8, 3, 9, 2, 0, 0, 2, 10, 2, 8, 7, 3, 5, 7, 3, 2, 5, 9, 9, 10, 2, 4, 5, 2, 9, 1, 3, 5, 10, 10, 4, 9, 6, 6, 9, 7, 0, 0, 5, 6, 4, 7, 5, 10, 10, 1, 9, 8, 3, 6, 3, 1, 9, 8, 2, 10, 9, 8, 3, 6, 1, 6, 3, 1, 10, 2, 9, 9, 0, 0, 3, 10, 7, 3, 4, 5, 6, 7, 5, 4, 1, 9, 8, 5, 3, 8, 10, 10, 4, 1, 3, 10, 7, 7, 8, 10, 4, 9, 2, 6, 0]);

suc = [
   {2, 3, 4},
   {16, 12, 5},
   {8},
   {13, 6, 22},
   {10, 23, 7},
   {9, 21, 14},
   {17, 11, 13},
   {16, 9, 14},
   {24},
   {25, 19},
   {29, 31},
   {23},
   {21},
   {26, 20, 15},
   {25, 27, 28},
   {26, 31},
   {18, 20, 28},
   {27, 21, 30},
   {22},
   {24, 30},
   {25, 29},
   {24},
   {26},
   {27},
   {31},
   {28},
   {29},
   {30},
   {32},
   {32},
   {32},
   {  } ];

deadline = array2d(1..32, 1..3, [5, 2, 3, 6, 2, 1, 6, 5, 2, 15, 4, 5, 17, 0, 4, 21, 5, 5, 25, 3, 3, 29, 0, 2, 38, 2, 5, 45, 3, 2, 51, 2, 4, 56, 0, 5, 57, 1, 0, 73, 4, 0, 74, 2, 2, 80, 0, 5, 83, 4, 3, 94, 3, 4, 95, 2, 1, 103, 5, 5, 112, 4, 0, 113, 4, 1, 116, 3, 0, 120, 5, 5, 121, 2, 5, 124, 3, 1, 126, 0, 1, 127, 1, 4, 132, 1, 1, 132, 5, 2, 134, 5, 0, 134, 0, 3]);
