n_res = 4;
rc = [ 15, 12, 12, 12 ];
n_tasks = 32;
d = [0, 3, 8, 5, 5, 1, 4, 2, 2, 2, 8, 7, 2, 6, 1, 2, 7, 7, 7, 5, 5, 8, 10, 2, 10, 1, 6, 5, 4, 2, 7, 0];
rr = array2d(1..4, 1..32, [0, 0, 0, 0, 0, 0, 2, 0, 0, 0, 10, 0, 7, 0, 0, 0, 1, 0, 0, 0, 6, 3, 0, 8, 0, 0, 7, 8, 0, 0, 0, 0, 0, 10, 0, 4, 0, 7, 0, 0, 0, 0, 0, 1, 0, 0, 0, 0, 0, 6, 0, 0, 0, 0, 7, 0, 0, 0, 0, 0, 0, 0, 0, 0, 0, 0, 0, 0, 9, 0, 0, 4, 0, 0, 0, 0, 0, 7, 10, 1, 0, 0, 0, 4, 0, 0, 0, 0, 2, 0, 0, 0, 0, 0, 3, 0, 0, 0, 7, 0, 0, 0, 0, 0, 1, 10, 0, 0, 0, 0, 0, 0, 0, 0, 7, 0, 0, 0, 0, 0, 0, 8, 0, 0, 4, 4, 0, 0]);

suc = [
   {2, 3, 4},
   {5, 7},
   {5, 6, 7},
   {10, 19, 21},
   {24, 10},
   {8, 17, 23},
   {12},
   {9, 13},
   {16, 11, 14},
   {16, 17, 13},
   {27},
   {24, 17},
   {26, 14},
   {20, 30, 15},
   {18},
   {25, 20, 31},
   {25, 18, 20},
   {27},
   {27},
   {29},
   {22},
   {24, 23},
   {25, 26},
   {29, 30},
   {30},
   {28},
   {31},
   {29, 31},
   {32},
   {32},
   {32},
   {  } ];

deadline = array2d(1..32, 1..3, [4, 2, 2, 12, 5, 5, 13, 4, 0, 17, 2, 0, 28, 1, 4, 34, 2, 4, 35, 3, 2, 39, 0, 2, 40, 3, 1, 41, 1, 2, 41, 5, 2, 42, 2, 2, 42, 1, 0, 48, 0, 4, 54, 4, 5, 58, 4, 4, 64, 2, 0, 67, 4, 1, 69, 3, 0, 70, 4, 3, 72, 5, 4, 82, 2, 2, 82, 1, 1, 83, 5, 0, 85, 4, 5, 87, 0, 1, 89, 3, 3, 89, 3, 0, 93, 1, 3, 100, 0, 2, 113, 5, 3, 113, 3, 1]);
