n_res = 4;
rc = [ 14, 14, 16, 15 ];
n_tasks = 32;
d = [0, 2, 3, 3, 5, 6, 2, 8, 1, 10, 1, 8, 8, 9, 9, 8, 9, 5, 4, 7, 5, 6, 7, 1, 2, 1, 8, 3, 8, 3, 8, 0];
rr = array2d(1..4, 1..32, [0, 9, 1, 10, 6, 4, 2, 4, 6, 6, 9, 3, 2, 7, 9, 9, 5, 5, 10, 5, 1, 1, 1, 7, 9, 4, 5, 4, 5, 6, 1, 0, 0, 8, 3, 6, 6, 1, 7, 10, 7, 6, 4, 8, 6, 3, 4, 9, 2, 5, 8, 4, 6, 1, 1, 2, 2, 6, 5, 4, 1, 2, 10, 0, 0, 3, 3, 7, 9, 7, 4, 8, 10, 5, 4, 5, 9, 3, 8, 10, 9, 9, 3, 10, 4, 7, 5, 5, 9, 2, 1, 4, 3, 5, 3, 0, 0, 9, 10, 9, 9, 1, 7, 8, 9, 8, 4, 5, 6, 7, 10, 5, 3, 6, 2, 2, 5, 9, 10, 3, 1, 9, 3, 3, 8, 2, 3, 0]);

suc = [
   {2, 3, 4},
   {11, 5, 15},
   {9, 6, 15},
   {8, 5, 14},
   {17, 19, 21},
   {19, 11, 7},
   {10, 18, 13},
   {9, 12, 17},
   {19, 13, 23},
   {27, 14, 22},
   {17, 12, 14},
   {16, 18, 13},
   {25, 21},
   {31},
   {22, 23},
   {24, 20, 23},
   {24, 31},
   {20, 29, 30},
   {24, 26},
   {21},
   {27, 22},
   {26},
   {25, 27},
   {29, 30},
   {26, 29, 30},
   {28},
   {28},
   {31},
   {32},
   {32},
   {32},
   {  } ];

deadline = array2d(1..32, 1..3, [3, 0, 3, 5, 3, 5, 7, 5, 5, 7, 0, 5, 10, 5, 3, 17, 3, 5, 19, 5, 3, 20, 5, 2, 22, 5, 3, 28, 0, 5, 28, 2, 0, 37, 5, 0, 42, 3, 2, 55, 5, 2, 57, 0, 3, 58, 0, 5, 59, 4, 2, 66, 0, 3, 69, 4, 1, 74, 2, 0, 74, 0, 0, 79, 3, 4, 92, 3, 5, 92, 1, 1, 104, 2, 4, 111, 2, 0, 112, 2, 2, 120, 1, 4, 130, 3, 1, 139, 5, 2, 142, 3, 2, 143, 1, 5]);
