n_res = 4;
rc = [ 16, 16, 17, 17 ];
n_tasks = 32;
d = [0, 8, 6, 10, 10, 6, 4, 2, 6, 5, 3, 7, 6, 4, 4, 2, 8, 7, 9, 3, 1, 6, 1, 6, 6, 5, 1, 6, 4, 3, 1, 0];
rr = array2d(1..4, 1..32, [0, 9, 10, 4, 6, 10, 2, 7, 2, 7, 6, 1, 6, 9, 4, 7, 2, 4, 6, 8, 1, 8, 10, 6, 6, 1, 2, 9, 3, 4, 8, 0, 0, 9, 10, 3, 3, 9, 7, 5, 9, 4, 8, 3, 8, 6, 2, 7, 1, 6, 4, 10, 6, 7, 8, 10, 3, 8, 6, 8, 3, 4, 4, 0, 0, 8, 6, 2, 3, 9, 9, 6, 1, 6, 9, 10, 8, 3, 10, 10, 3, 10, 2, 6, 8, 2, 7, 10, 3, 9, 5, 5, 4, 6, 7, 0, 0, 1, 8, 6, 7, 8, 10, 5, 10, 4, 1, 8, 10, 2, 8, 1, 6, 5, 6, 1, 1, 4, 2, 4, 9, 2, 3, 6, 2, 4, 1, 0]);

suc = [
   {2, 3, 4},
   {28, 5},
   {8, 9, 7},
   {14},
   {18, 6},
   {12, 13},
   {15},
   {10, 21, 13},
   {26, 11, 31},
   {18},
   {19},
   {22, 23},
   {17},
   {16},
   {27, 30},
   {17, 21, 31},
   {25, 20},
   {27, 19},
   {20},
   {24},
   {25},
   {27},
   {29},
   {30},
   {30},
   {29},
   {31},
   {29},
   {32},
   {32},
   {32},
   {  } ];

deadline = array2d(1..32, 1..3, [3, 3, 5, 7, 4, 2, 8, 4, 5, 9, 5, 3, 12, 3, 2, 14, 1, 1, 14, 1, 0, 22, 4, 5, 23, 0, 4, 23, 5, 3, 28, 1, 5, 34, 3, 3, 34, 5, 3, 35, 0, 5, 37, 4, 4, 50, 0, 4, 54, 2, 0, 54, 5, 3, 55, 5, 0, 71, 5, 2, 73, 4, 2, 75, 4, 1, 78, 2, 4, 78, 5, 5, 80, 2, 1, 83, 1, 0, 83, 0, 0, 88, 5, 2, 95, 5, 3, 98, 5, 4, 112, 0, 1, 122, 3, 4]);
