n_res = 4;
rc = [ 22, 24, 28, 29 ];
n_tasks = 32;
d = [0, 2, 2, 10, 6, 5, 5, 8, 5, 10, 3, 8, 3, 9, 1, 1, 1, 3, 2, 6, 10, 10, 2, 7, 3, 9, 3, 2, 4, 6, 6, 0];
rr = array2d(1..4, 1..32, [0, 0, 4, 0, 3, 8, 6, 4, 5, 8, 6, 1, 0, 4, 2, 6, 9, 1, 1, 7, 0, 6, 0, 0, 3, 10, 0, 5, 8, 3, 6, 0, 0, 1, 0, 8, 0, 0, 6, 5, 0, 6, 0, 6, 10, 0, 9, 9, 8, 1, 1, 4, 9, 5, 0, 3, 0, 8, 8, 7, 8, 5, 4, 0, 0, 8, 0, 0, 5, 6, 7, 5, 4, 6, 10, 8, 2, 3, 2, 1, 5, 0, 5, 6, 2, 8, 5, 2, 0, 6, 9, 8, 10, 4, 9, 0, 0, 0, 4, 6, 10, 8, 0, 1, 0, 9, 0, 1, 9, 6, 2, 7, 0, 6, 0, 6, 7, 9, 8, 0, 10, 0, 2, 0, 3, 10, 0, 0]);

suc = [
   {2, 3, 4},
   {9, 5},
   {8, 6, 7},
   {10, 28, 23},
   {16, 20, 14},
   {17},
   {11},
   {31},
   {18, 12, 13},
   {16, 29},
   {18, 22},
   {19},
   {27, 15},
   {31},
   {25},
   {24, 19, 21},
   {20},
   {25},
   {27},
   {30},
   {26},
   {25, 29},
   {26},
   {30},
   {30},
   {27},
   {31},
   {29},
   {32},
   {32},
   {32},
   {  } ];

deadline = array2d(1..32, 1..3, [9, 2, 3, 11, 5, 5, 18, 1, 5, 20, 2, 4, 23, 5, 2, 26, 0, 0, 29, 0, 1, 36, 1, 4, 45, 1, 0, 49, 1, 5, 54, 0, 3, 54, 3, 0, 55, 1, 0, 56, 4, 1, 58, 2, 0, 61, 3, 5, 62, 4, 2, 63, 4, 4, 67, 0, 5, 72, 5, 4, 76, 3, 3, 79, 2, 3, 82, 5, 5, 93, 5, 5, 99, 4, 5, 101, 3, 0, 105, 1, 5, 108, 5, 2, 109, 2, 5, 118, 1, 3, 118, 5, 3, 120, 4, 1]);
