n_res = 4;
rc = [ 35, 30, 32, 32 ];
n_tasks = 32;
d = [0, 2, 10, 3, 5, 9, 1, 3, 3, 10, 5, 8, 7, 3, 9, 10, 1, 5, 7, 9, 10, 3, 5, 6, 3, 6, 2, 2, 2, 1, 1, 0];
rr = array2d(1..4, 1..32, [0, 5, 9, 3, 9, 6, 4, 9, 3, 5, 6, 7, 7, 8, 7, 3, 5, 9, 2, 10, 2, 6, 1, 2, 6, 5, 10, 2, 4, 9, 7, 0, 0, 3, 3, 2, 7, 9, 4, 4, 3, 10, 5, 9, 5, 5, 10, 9, 10, 4, 6, 6, 5, 5, 3, 9, 8, 7, 10, 5, 10, 3, 5, 0, 0, 7, 7, 4, 4, 10, 1, 1, 7, 6, 2, 9, 6, 2, 9, 2, 8, 5, 3, 10, 9, 7, 7, 2, 9, 6, 3, 1, 1, 10, 6, 0, 0, 2, 2, 7, 9, 10, 2, 3, 5, 1, 3, 8, 5, 1, 1, 2, 8, 6, 10, 6, 10, 9, 5, 5, 7, 1, 2, 4, 8, 10, 9, 0]);

suc = [
   {2, 3, 4},
   {13, 5, 22},
   {8, 6},
   {26, 11, 7},
   {18, 12},
   {16},
   {9, 17},
   {10, 15},
   {27},
   {14},
   {27, 20},
   {26},
   {16},
   {19, 21, 31},
   {25},
   {28, 23},
   {25, 20},
   {26, 30},
   {20},
   {29},
   {24},
   {25, 31},
   {29},
   {28},
   {27},
   {28},
   {30},
   {29},
   {32},
   {32},
   {32},
   {  } ];

deadline = array2d(1..32, 1..3, [10, 4, 4, 14, 2, 5, 21, 5, 2, 23, 0, 0, 32, 4, 0, 33, 2, 4, 37, 5, 1, 42, 2, 2, 46, 2, 0, 47, 3, 0, 53, 3, 1, 54, 3, 4, 55, 3, 4, 56, 5, 4, 58, 4, 0, 62, 2, 3, 62, 2, 1, 64, 1, 2, 66, 4, 0, 67, 2, 3, 68, 1, 4, 73, 3, 0, 78, 2, 3, 79, 2, 1, 83, 0, 5, 90, 5, 2, 94, 2, 4, 97, 1, 0, 100, 5, 5, 100, 3, 3, 102, 3, 5, 108, 2, 0]);
