n_res = 4;
rc = [ 14, 15, 15, 15 ];
n_tasks = 32;
d = [0, 7, 4, 1, 5, 7, 9, 8, 5, 6, 10, 2, 10, 4, 7, 5, 4, 9, 6, 6, 10, 7, 9, 9, 4, 10, 8, 6, 3, 6, 1, 0];
rr = array2d(1..4, 1..32, [0, 1, 9, 3, 5, 2, 1, 8, 2, 9, 5, 7, 4, 1, 10, 1, 9, 1, 5, 2, 10, 1, 2, 4, 10, 7, 1, 2, 6, 5, 7, 0, 0, 6, 1, 4, 7, 9, 5, 6, 9, 5, 9, 5, 1, 1, 8, 7, 1, 4, 2, 9, 6, 3, 6, 8, 10, 6, 7, 6, 3, 5, 10, 0, 0, 4, 3, 8, 4, 1, 6, 8, 2, 10, 3, 5, 8, 9, 6, 6, 1, 5, 1, 5, 2, 5, 3, 4, 5, 10, 7, 5, 7, 3, 4, 0, 0, 9, 9, 5, 8, 7, 7, 3, 10, 7, 1, 8, 3, 7, 5, 10, 3, 4, 10, 4, 7, 10, 2, 9, 8, 10, 10, 3, 4, 5, 10, 0]);

suc = [
   {2, 3, 4},
   {10, 11, 29},
   {8, 5, 6},
   {11, 12, 13},
   {27, 7},
   {10, 21, 23},
   {26, 12},
   {9, 14, 15},
   {16, 10, 20},
   {30},
   {24},
   {20, 14},
   {25, 14},
   {28, 22},
   {18, 31},
   {17, 28, 25},
   {19},
   {26},
   {27, 21},
   {24, 22},
   {22},
   {29, 31},
   {24, 26},
   {28, 30},
   {27},
   {29},
   {30},
   {31},
   {32},
   {32},
   {32},
   {  } ];

deadline = array2d(1..32, 1..3, [3, 2, 5, 9, 5, 5, 10, 1, 1, 12, 0, 2, 15, 0, 4, 19, 5, 1, 21, 0, 4, 24, 5, 2, 34, 4, 0, 37, 1, 3, 41, 0, 4, 48, 2, 3, 52, 1, 4, 56, 0, 2, 60, 3, 4, 62, 3, 1, 63, 4, 5, 65, 4, 0, 65, 3, 5, 67, 0, 1, 69, 1, 1, 91, 2, 2, 94, 4, 2, 94, 0, 1, 96, 4, 2, 98, 5, 4, 101, 0, 5, 108, 1, 3, 127, 2, 1, 127, 4, 3, 127, 0, 4, 128, 2, 5]);
