n_res = 4;
rc = [ 22, 23, 24, 30 ];
n_tasks = 32;
d = [0, 10, 9, 3, 5, 10, 4, 9, 3, 6, 2, 3, 2, 6, 8, 2, 5, 7, 4, 9, 6, 5, 7, 2, 8, 10, 2, 7, 8, 5, 10, 0];
rr = array2d(1..4, 1..32, [0, 2, 10, 3, 1, 10, 8, 1, 2, 8, 8, 7, 3, 4, 8, 9, 3, 10, 6, 1, 3, 4, 8, 3, 9, 5, 8, 7, 1, 2, 5, 0, 0, 10, 10, 7, 1, 5, 6, 9, 9, 10, 9, 3, 2, 1, 7, 5, 5, 4, 9, 8, 9, 4, 6, 9, 7, 2, 4, 4, 7, 1, 5, 0, 0, 7, 8, 5, 6, 6, 7, 5, 3, 3, 2, 8, 2, 6, 3, 7, 3, 1, 2, 3, 3, 8, 9, 9, 9, 7, 2, 8, 7, 5, 7, 0, 0, 2, 8, 7, 5, 7, 10, 8, 6, 9, 7, 9, 10, 9, 8, 2, 3, 4, 2, 10, 5, 1, 6, 7, 8, 3, 9, 5, 2, 8, 3, 0]);

suc = [
   {2, 3, 4},
   {25, 5, 7},
   {10, 12},
   {8, 14, 7},
   {6},
   {24, 9, 13},
   {16, 31, 15},
   {19},
   {11, 22},
   {26},
   {16, 21},
   {17},
   {18, 27},
   {23},
   {22},
   {19, 29},
   {20},
   {19, 23},
   {30},
   {29},
   {30},
   {27},
   {28},
   {26},
   {29},
   {27, 28},
   {30},
   {31},
   {32},
   {32},
   {32},
   {  } ];

deadline = array2d(1..32, 1..3, [1, 4, 5, 5, 0, 0, 11, 0, 3, 12, 1, 3, 23, 2, 5, 24, 0, 3, 29, 5, 4, 33, 0, 0, 34, 1, 2, 37, 5, 0, 39, 2, 1, 45, 1, 1, 54, 3, 3, 67, 1, 3, 74, 1, 0, 80, 2, 1, 81, 0, 2, 84, 4, 3, 84, 1, 0, 85, 1, 1, 86, 4, 0, 94, 1, 2, 95, 1, 0, 97, 2, 1, 113, 3, 0, 115, 2, 5, 116, 3, 5, 118, 3, 4, 133, 3, 2, 134, 5, 2, 138, 2, 1, 141, 0, 1]);
