n_res = 4;
rc = [ 16, 20, 17, 17 ];
n_tasks = 32;
d = [0, 3, 7, 10, 9, 6, 6, 8, 1, 7, 6, 10, 8, 5, 3, 3, 4, 3, 3, 1, 9, 5, 5, 10, 10, 4, 5, 9, 1, 1, 7, 0];
rr = array2d(1..4, 1..32, [0, 6, 5, 0, 2, 0, 9, 0, 5, 0, 1, 4, 0, 2, 1, 9, 0, 0, 0, 3, 0, 0, 3, 2, 2, 6, 10, 1, 10, 7, 5, 0, 0, 0, 8, 2, 8, 0, 0, 3, 1, 8, 9, 5, 7, 6, 7, 1, 5, 4, 3, 0, 0, 1, 10, 5, 7, 2, 9, 6, 0, 0, 7, 0, 0, 4, 2, 0, 0, 9, 10, 8, 5, 8, 0, 9, 0, 3, 4, 0, 4, 5, 0, 4, 9, 10, 1, 3, 3, 10, 10, 8, 6, 9, 0, 0, 0, 9, 0, 9, 0, 9, 9, 2, 5, 8, 2, 2, 2, 2, 0, 5, 9, 3, 8, 0, 0, 7, 1, 10, 5, 9, 3, 3, 3, 7, 2, 0]);

suc = [
   {2, 3, 4},
   {19, 12, 23},
   {8, 16, 13},
   {5, 6, 22},
   {17, 14, 15},
   {16, 13, 7},
   {26, 21, 15},
   {9, 10, 14},
   {19, 11, 21},
   {11, 12, 15},
   {17, 26},
   {25, 21, 22},
   {17, 14, 23},
   {24, 18, 27},
   {18, 20, 23},
   {25, 18},
   {20},
   {19, 29, 30},
   {28},
   {25},
   {24, 29, 30},
   {24, 26},
   {27},
   {28},
   {27, 29},
   {28, 30},
   {31},
   {31},
   {32},
   {32},
   {32},
   {  } ];

deadline = array2d(1..32, 1..3, [6, 1, 0, 11, 0, 2, 14, 3, 0, 19, 3, 5, 22, 2, 1, 27, 3, 3, 38, 1, 4, 41, 5, 4, 42, 1, 3, 48, 1, 3, 51, 5, 1, 52, 3, 4, 58, 0, 4, 61, 0, 4, 63, 1, 1, 65, 5, 1, 66, 3, 2, 70, 2, 1, 72, 0, 4, 73, 5, 1, 74, 0, 5, 86, 5, 2, 89, 4, 1, 89, 3, 3, 91, 0, 5, 96, 4, 5, 97, 2, 2, 119, 5, 3, 123, 4, 1, 123, 4, 4, 127, 1, 0, 162, 0, 5]);
