n_res = 4;
rc = [ 28, 23, 25, 27 ];
n_tasks = 32;
d = [0, 3, 7, 7, 4, 2, 8, 3, 3, 1, 3, 9, 8, 5, 2, 9, 1, 10, 4, 1, 5, 1, 6, 2, 10, 5, 1, 7, 7, 4, 2, 0];
rr = array2d(1..4, 1..32, [0, 5, 2, 9, 8, 3, 2, 8, 10, 2, 10, 3, 2, 6, 10, 10, 8, 1, 9, 2, 8, 4, 7, 1, 4, 2, 4, 5, 8, 4, 3, 0, 0, 10, 8, 4, 10, 3, 10, 3, 5, 7, 3, 2, 2, 8, 4, 4, 5, 7, 6, 3, 3, 5, 2, 4, 6, 7, 3, 7, 8, 9, 4, 0, 0, 9, 10, 1, 2, 9, 4, 3, 2, 1, 4, 5, 4, 7, 8, 7, 1, 9, 10, 10, 10, 8, 5, 4, 1, 2, 5, 9, 1, 10, 3, 0, 0, 5, 6, 5, 6, 1, 8, 1, 7, 5, 10, 5, 4, 8, 1, 7, 5, 2, 4, 6, 6, 8, 2, 1, 6, 9, 9, 2, 9, 10, 1, 0]);

suc = [
   {2, 3, 4},
   {17, 10, 7},
   {18, 26, 15},
   {5, 6, 14},
   {8, 9, 11},
   {10, 27, 7},
   {20, 13},
   {16, 17, 12},
   {16, 10, 19},
   {24, 18, 20},
   {17, 12, 31},
   {27, 18, 19},
   {21, 22},
   {16, 20, 23},
   {24, 25, 22},
   {24, 27, 21},
   {19, 29},
   {28, 23},
   {26, 28, 22},
   {21},
   {25, 26},
   {23},
   {30},
   {28, 29, 31},
   {31},
   {30},
   {29},
   {30},
   {32},
   {32},
   {32},
   {  } ];

deadline = array2d(1..32, 1..3, [1, 2, 5, 2, 0, 1, 5, 5, 4, 8, 1, 5, 10, 3, 3, 11, 2, 0, 11, 3, 1, 18, 0, 2, 26, 1, 5, 30, 1, 1, 50, 0, 2, 51, 1, 5, 51, 2, 1, 51, 3, 4, 54, 2, 1, 59, 5, 0, 63, 4, 2, 64, 1, 2, 65, 0, 5, 68, 1, 4, 70, 3, 2, 74, 2, 5, 83, 5, 5, 83, 3, 2, 85, 5, 4, 88, 0, 2, 94, 1, 0, 96, 5, 0, 99, 3, 4, 108, 3, 1, 108, 2, 0, 110, 3, 5]);
