n_res = 4;
rc = [ 15, 17, 17, 14 ];
n_tasks = 32;
d = [0, 6, 6, 9, 6, 5, 1, 9, 8, 3, 9, 3, 3, 3, 7, 3, 6, 1, 4, 9, 8, 7, 3, 1, 1, 7, 3, 2, 8, 10, 7, 0];
rr = array2d(1..4, 1..32, [0, 1, 1, 8, 1, 3, 10, 5, 5, 10, 2, 10, 5, 2, 5, 6, 8, 9, 2, 9, 5, 8, 3, 5, 2, 2, 8, 9, 6, 2, 10, 0, 0, 8, 1, 8, 7, 8, 5, 1, 1, 6, 7, 8, 8, 3, 5, 2, 7, 9, 7, 2, 9, 7, 8, 10, 3, 10, 2, 10, 4, 8, 4, 0, 0, 10, 5, 8, 7, 5, 2, 9, 9, 1, 7, 4, 7, 9, 6, 1, 4, 6, 6, 6, 10, 1, 10, 6, 6, 7, 3, 2, 1, 5, 2, 0, 0, 9, 4, 3, 7, 2, 10, 9, 4, 2, 6, 3, 1, 10, 7, 3, 2, 10, 6, 5, 6, 3, 10, 1, 7, 6, 9, 1, 8, 2, 7, 0]);

suc = [
   {2, 3, 4},
   {8, 9, 5},
   {19, 11, 6},
   {24, 18, 31},
   {18, 31, 7},
   {10},
   {19},
   {29, 20, 13},
   {16, 13, 14},
   {12, 23},
   {24, 25, 18},
   {13, 14, 15},
   {17, 25},
   {30},
   {26, 27, 21},
   {26, 19},
   {24, 27, 22},
   {29},
   {22},
   {22, 23},
   {25},
   {28},
   {27},
   {28},
   {28},
   {29, 30},
   {31},
   {30},
   {32},
   {32},
   {32},
   {  } ];

deadline = array2d(1..32, 1..3, [7, 1, 4, 15, 0, 4, 16, 0, 3, 17, 5, 0, 21, 2, 5, 24, 1, 2, 27, 5, 5, 29, 2, 4, 30, 3, 3, 39, 2, 1, 44, 3, 2, 44, 5, 1, 47, 0, 5, 49, 4, 5, 63, 0, 4, 64, 4, 4, 73, 1, 0, 73, 5, 0, 74, 2, 0, 75, 2, 0, 76, 5, 1, 78, 5, 4, 79, 2, 0, 83, 5, 3, 83, 5, 5, 93, 5, 3, 94, 5, 3, 95, 5, 0, 99, 4, 4, 103, 5, 0, 104, 3, 3, 106, 0, 1]);
