n_res = 4;
rc = [ 23, 36, 23, 21 ];
n_tasks = 32;
d = [0, 10, 8, 4, 10, 7, 1, 3, 2, 5, 6, 9, 7, 5, 3, 3, 4, 5, 10, 9, 3, 1, 6, 1, 5, 1, 3, 7, 9, 10, 2, 0];
rr = array2d(1..4, 1..32, [0, 4, 1, 3, 1, 10, 7, 2, 9, 4, 1, 1, 7, 1, 1, 4, 6, 2, 1, 10, 7, 4, 2, 7, 0, 5, 10, 5, 6, 3, 9, 0, 0, 6, 9, 5, 4, 0, 0, 2, 0, 1, 3, 5, 0, 10, 1, 10, 10, 8, 0, 8, 0, 5, 4, 7, 6, 8, 0, 5, 4, 7, 10, 0, 0, 6, 0, 4, 3, 3, 0, 0, 0, 9, 7, 0, 4, 10, 0, 6, 8, 2, 0, 0, 6, 2, 7, 6, 7, 0, 9, 7, 0, 10, 7, 0, 0, 3, 5, 0, 2, 5, 10, 0, 3, 5, 4, 3, 0, 8, 3, 0, 0, 8, 3, 4, 6, 0, 0, 0, 0, 0, 1, 3, 3, 0, 8, 0]);

suc = [
   {2, 3, 4},
   {8, 5, 6},
   {10, 13},
   {17, 29},
   {16, 11, 7},
   {13},
   {9, 12},
   {18, 22},
   {25, 21},
   {19, 23},
   {14},
   {26},
   {21},
   {28, 15},
   {18, 23},
   {18},
   {23},
   {27},
   {20, 30},
   {29},
   {24},
   {26, 27, 31},
   {27},
   {29},
   {31},
   {30},
   {30},
   {31},
   {32},
   {32},
   {32},
   {  } ];

deadline = array2d(1..32, 1..3, [8, 0, 5, 10, 5, 4, 11, 0, 3, 11, 1, 1, 12, 1, 3, 12, 4, 3, 12, 2, 4, 19, 0, 4, 23, 5, 1, 24, 5, 2, 35, 5, 3, 36, 4, 4, 43, 5, 4, 51, 1, 5, 57, 1, 2, 66, 1, 5, 68, 3, 2, 76, 2, 0, 77, 2, 4, 78, 5, 0, 90, 5, 4, 93, 4, 2, 96, 5, 2, 99, 2, 2, 104, 3, 1, 106, 0, 3, 106, 0, 2, 117, 3, 0, 120, 3, 1, 125, 1, 4, 125, 4, 5, 132, 2, 1]);
