n_res = 4;
rc = [ 37, 35, 32, 28 ];
n_tasks = 32;
d = [0, 4, 8, 8, 4, 1, 7, 9, 3, 8, 5, 2, 10, 3, 3, 8, 4, 7, 10, 4, 7, 4, 1, 10, 8, 4, 8, 2, 2, 6, 2, 0];
rr = array2d(1..4, 1..32, [0, 5, 5, 2, 3, 9, 4, 2, 4, 8, 3, 0, 9, 7, 0, 7, 7, 4, 8, 9, 3, 5, 8, 0, 4, 0, 0, 1, 4, 6, 0, 0, 0, 5, 3, 5, 7, 0, 9, 0, 0, 7, 5, 6, 1, 9, 0, 0, 5, 4, 10, 9, 0, 5, 0, 1, 10, 10, 2, 7, 2, 3, 4, 0, 0, 0, 6, 0, 7, 1, 7, 0, 0, 0, 0, 10, 5, 0, 1, 0, 8, 5, 6, 6, 3, 2, 9, 7, 10, 0, 7, 3, 4, 1, 7, 0, 0, 10, 4, 10, 0, 5, 0, 10, 4, 6, 0, 8, 0, 9, 4, 3, 1, 3, 7, 5, 9, 1, 0, 4, 9, 0, 6, 4, 6, 0, 4, 0]);

suc = [
   {2, 3, 4},
   {8, 12},
   {23, 6, 14},
   {12, 5, 7},
   {16, 6, 15},
   {9, 10, 22},
   {9, 10, 11},
   {19, 11, 14},
   {24, 25, 18},
   {24, 18},
   {26, 20},
   {21, 13, 22},
   {16, 19, 20},
   {16, 17},
   {27, 20, 21},
   {25, 26, 28},
   {25, 18, 22},
   {28, 21},
   {27, 30, 23},
   {23},
   {29},
   {24, 26, 28},
   {31},
   {30},
   {31},
   {27},
   {29},
   {29, 30, 31},
   {32},
   {32},
   {32},
   {  } ];

deadline = array2d(1..32, 1..3, [3, 2, 3, 5, 4, 2, 10, 0, 0, 13, 2, 5, 15, 2, 2, 24, 2, 1, 25, 5, 0, 31, 4, 2, 32, 5, 2, 32, 2, 5, 33, 0, 0, 33, 3, 4, 37, 5, 4, 46, 4, 0, 47, 2, 1, 59, 4, 1, 59, 1, 3, 59, 5, 1, 63, 3, 1, 63, 0, 1, 68, 2, 2, 68, 2, 3, 75, 2, 2, 76, 4, 5, 77, 4, 4, 79, 4, 2, 79, 0, 2, 92, 0, 1, 98, 2, 3, 99, 3, 3, 100, 3, 2, 102, 1, 5]);
