n_res = 4;
rc = [ 23, 25, 25, 18 ];
n_tasks = 32;
d = [0, 4, 2, 3, 1, 3, 2, 4, 4, 9, 6, 7, 2, 10, 3, 9, 7, 2, 5, 5, 6, 7, 9, 9, 4, 3, 7, 3, 4, 6, 10, 0];
rr = array2d(1..4, 1..32, [0, 10, 7, 3, 3, 9, 1, 4, 5, 8, 10, 5, 0, 6, 8, 3, 8, 0, 9, 6, 2, 8, 0, 5, 8, 8, 6, 6, 2, 7, 7, 0, 0, 0, 0, 1, 6, 5, 0, 3, 5, 5, 1, 0, 7, 9, 0, 10, 10, 0, 1, 7, 0, 3, 7, 9, 0, 5, 10, 0, 4, 1, 5, 0, 0, 6, 10, 0, 1, 6, 9, 3, 0, 7, 10, 0, 3, 5, 0, 5, 10, 4, 0, 0, 3, 1, 8, 5, 2, 3, 7, 6, 1, 9, 1, 0, 0, 7, 0, 0, 8, 5, 10, 0, 1, 0, 4, 0, 0, 5, 0, 1, 0, 0, 6, 3, 0, 5, 10, 3, 1, 6, 4, 9, 0, 8, 9, 0]);

suc = [
   {2, 3, 4},
   {9, 5, 6},
   {20, 21, 23},
   {10, 12, 7},
   {8, 12, 21},
   {18, 11, 7},
   {17, 14, 30},
   {13, 22, 15},
   {10, 20, 15},
   {16, 11, 14},
   {26, 19, 31},
   {17, 22},
   {14, 23},
   {25, 19, 31},
   {16, 17},
   {24, 19, 30},
   {28},
   {21, 22, 23},
   {28},
   {24, 30},
   {25, 26, 27},
   {27},
   {24},
   {25, 26, 27},
   {29},
   {28},
   {29, 31},
   {29},
   {32},
   {32},
   {32},
   {  } ];

deadline = array2d(1..32, 1..3, [1, 2, 0, 2, 4, 4, 4, 2, 5, 7, 4, 5, 16, 1, 5, 19, 2, 4, 20, 3, 4, 27, 4, 3, 28, 3, 4, 33, 0, 0, 35, 3, 0, 42, 2, 0, 45, 1, 1, 49, 1, 0, 50, 0, 0, 50, 4, 4, 51, 2, 2, 54, 3, 4, 54, 2, 0, 72, 3, 5, 80, 1, 2, 80, 5, 5, 81, 5, 5, 92, 4, 4, 99, 0, 5, 105, 3, 3, 110, 2, 1, 110, 3, 0, 114, 2, 2, 116, 1, 2, 118, 3, 3, 126, 4, 0]);
