n_res = 4;
rc = [ 31, 27, 27, 24 ];
n_tasks = 32;
d = [0, 3, 8, 7, 6, 5, 3, 2, 5, 2, 6, 2, 1, 7, 5, 10, 2, 8, 4, 6, 1, 4, 1, 6, 3, 10, 6, 2, 10, 5, 10, 0];
rr = array2d(1..4, 1..32, [0, 5, 0, 1, 7, 10, 0, 0, 0, 0, 1, 10, 0, 1, 8, 10, 3, 8, 5, 3, 1, 5, 3, 5, 0, 2, 10, 7, 0, 4, 0, 0, 0, 0, 6, 4, 6, 4, 0, 4, 4, 3, 10, 4, 4, 5, 6, 2, 2, 4, 0, 1, 9, 10, 2, 10, 3, 0, 5, 3, 6, 2, 8, 0, 0, 9, 0, 7, 6, 0, 1, 0, 4, 10, 10, 3, 3, 4, 4, 1, 5, 9, 10, 10, 0, 0, 0, 0, 3, 8, 9, 10, 1, 0, 8, 0, 0, 10, 0, 10, 5, 0, 0, 7, 6, 3, 2, 7, 1, 0, 9, 5, 0, 3, 10, 5, 8, 2, 0, 0, 6, 10, 2, 6, 0, 5, 3, 0]);

suc = [
   {2, 3, 4},
   {16, 21, 5},
   {9, 13, 6},
   {16, 10, 23},
   {11, 12, 7},
   {18, 19, 23},
   {8, 9, 10},
   {24, 27, 22},
   {17, 14, 30},
   {19, 22, 15},
   {19, 20, 13},
   {13, 22, 15},
   {17, 26, 27},
   {20, 15},
   {18, 29},
   {17, 20},
   {18},
   {25},
   {24, 28},
   {25, 27, 29},
   {24, 23},
   {26, 28},
   {25, 28},
   {26, 31},
   {31},
   {30},
   {31},
   {29, 30},
   {32},
   {32},
   {32},
   {  } ];

deadline = array2d(1..32, 1..3, [1, 1, 1, 2, 3, 3, 5, 3, 2, 29, 1, 1, 35, 2, 0, 36, 4, 2, 40, 4, 0, 42, 0, 4, 49, 5, 1, 49, 4, 0, 50, 0, 1, 55, 5, 1, 59, 2, 2, 59, 1, 3, 62, 2, 2, 63, 2, 0, 64, 4, 3, 66, 0, 0, 75, 1, 1, 76, 4, 0, 78, 3, 4, 83, 2, 2, 86, 0, 5, 91, 4, 3, 98, 5, 1, 101, 0, 2, 102, 4, 0, 103, 4, 0, 106, 3, 3, 111, 3, 5, 116, 2, 1, 119, 5, 0]);
