n_res = 4;
rc = [ 18, 22, 20, 18 ];
n_tasks = 32;
d = [0, 7, 10, 3, 1, 10, 10, 1, 9, 3, 10, 6, 4, 6, 3, 9, 4, 9, 4, 1, 2, 4, 5, 3, 3, 4, 4, 2, 10, 8, 9, 0];
rr = array2d(1..4, 1..32, [0, 1, 0, 0, 2, 7, 0, 6, 6, 0, 0, 7, 7, 0, 3, 0, 0, 7, 0, 0, 0, 3, 0, 0, 0, 9, 0, 10, 7, 5, 0, 0, 0, 7, 5, 0, 0, 0, 0, 0, 0, 0, 7, 0, 4, 8, 0, 8, 7, 8, 6, 6, 0, 7, 0, 8, 1, 4, 9, 3, 2, 4, 3, 0, 0, 3, 0, 0, 10, 8, 3, 4, 9, 0, 0, 0, 0, 0, 9, 0, 0, 4, 0, 0, 0, 0, 0, 0, 4, 0, 0, 0, 0, 3, 0, 0, 0, 0, 9, 9, 5, 3, 1, 0, 3, 8, 3, 0, 0, 10, 0, 5, 0, 0, 0, 0, 7, 0, 2, 1, 7, 7, 10, 0, 9, 0, 6, 0]);

suc = [
   {2, 3, 4},
   {8, 6, 7},
   {5},
   {9, 10, 25},
   {12},
   {26, 29, 15},
   {19, 11, 20},
   {24, 17, 21},
   {23},
   {20, 13, 14},
   {17, 22, 30},
   {18, 20, 14},
   {16, 24, 15},
   {16, 29, 15},
   {31},
   {26},
   {28},
   {25, 22},
   {25, 28, 21},
   {31, 23},
   {22},
   {26},
   {27},
   {27, 30},
   {30},
   {31},
   {28},
   {29},
   {32},
   {32},
   {32},
   {  } ];

deadline = array2d(1..32, 1..3, [1, 4, 1, 5, 0, 0, 8, 2, 3, 15, 2, 4, 18, 1, 2, 24, 5, 2, 46, 4, 4, 48, 0, 2, 49, 5, 4, 55, 2, 3, 58, 0, 5, 68, 1, 1, 75, 5, 5, 78, 0, 2, 81, 4, 4, 81, 2, 5, 83, 4, 4, 87, 5, 5, 90, 1, 0, 90, 5, 4, 91, 4, 2, 92, 4, 1, 93, 5, 0, 97, 0, 0, 102, 5, 1, 104, 5, 3, 106, 4, 0, 106, 1, 2, 108, 3, 1, 109, 5, 3, 109, 5, 2, 110, 5, 5]);
