n_res = 4;
rc = [ 18, 23, 13, 12 ];
n_tasks = 32;
d = [0, 9, 7, 8, 9, 3, 6, 6, 7, 3, 6, 4, 10, 4, 9, 6, 2, 1, 8, 7, 9, 1, 6, 1, 8, 1, 5, 1, 5, 5, 9, 0];
rr = array2d(1..4, 1..32, [0, 8, 7, 0, 0, 3, 3, 6, 0, 0, 9, 0, 0, 3, 0, 8, 1, 0, 0, 7, 0, 0, 7, 1, 0, 8, 4, 0, 3, 10, 9, 0, 0, 4, 4, 6, 0, 8, 0, 0, 1, 0, 6, 0, 10, 0, 0, 8, 0, 1, 1, 9, 9, 3, 8, 10, 10, 0, 0, 5, 0, 4, 4, 0, 0, 0, 4, 0, 4, 0, 0, 0, 0, 8, 6, 0, 5, 0, 1, 0, 0, 1, 0, 0, 7, 6, 6, 4, 0, 0, 0, 0, 4, 0, 9, 0, 0, 4, 0, 4, 0, 1, 0, 1, 0, 0, 0, 9, 9, 3, 0, 6, 0, 0, 0, 0, 3, 0, 0, 0, 4, 0, 9, 1, 0, 0, 0, 0]);

suc = [
   {2, 3, 4},
   {18, 21, 7},
   {9, 12, 5},
   {8, 29, 6},
   {16, 11, 15},
   {16, 10, 18},
   {10, 11, 12},
   {18, 14, 22},
   {24, 10, 19},
   {23, 14, 22},
   {24, 25, 14},
   {17, 19, 13},
   {16, 24, 20},
   {17, 20},
   {17, 26, 21},
   {27, 22, 30},
   {27},
   {19, 31, 23},
   {25},
   {26},
   {28, 29, 23},
   {28},
   {25},
   {26, 29},
   {30},
   {27, 30},
   {28},
   {31},
   {32},
   {32},
   {32},
   {  } ];

deadline = array2d(1..32, 1..3, [1, 4, 4, 3, 4, 2, 9, 3, 5, 14, 0, 1, 14, 3, 4, 21, 3, 2, 24, 4, 3, 27, 1, 4, 29, 5, 0, 31, 4, 0, 36, 4, 1, 50, 4, 1, 50, 1, 2, 50, 3, 3, 52, 2, 2, 53, 0, 2, 55, 0, 3, 58, 4, 5, 59, 0, 3, 74, 0, 0, 76, 5, 2, 81, 5, 2, 86, 5, 1, 93, 5, 3, 96, 0, 4, 106, 0, 3, 106, 1, 5, 107, 3, 0, 109, 3, 0, 109, 4, 0, 126, 4, 4, 132, 4, 2]);
