n_res = 4;
rc = [ 18, 33, 33, 22 ];
n_tasks = 32;
d = [0, 3, 1, 6, 6, 4, 10, 8, 9, 5, 8, 5, 2, 2, 5, 4, 8, 4, 3, 10, 7, 3, 6, 6, 4, 9, 9, 9, 7, 9, 6, 0];
rr = array2d(1..4, 1..32, [0, 8, 9, 0, 0, 5, 0, 0, 0, 0, 5, 5, 0, 0, 4, 4, 0, 8, 0, 6, 1, 0, 0, 2, 6, 0, 0, 0, 4, 10, 7, 0, 0, 0, 8, 0, 9, 10, 3, 7, 0, 9, 4, 9, 0, 1, 9, 3, 3, 0, 0, 1, 0, 0, 3, 10, 0, 0, 3, 0, 0, 0, 3, 0, 0, 6, 0, 4, 5, 3, 10, 6, 2, 0, 8, 0, 4, 0, 7, 0, 0, 0, 0, 0, 0, 8, 9, 0, 0, 0, 4, 2, 0, 0, 0, 0, 0, 8, 0, 0, 0, 0, 0, 0, 9, 2, 2, 1, 0, 0, 0, 0, 10, 0, 10, 3, 4, 0, 0, 0, 10, 10, 7, 5, 0, 7, 4, 0]);

suc = [
   {2, 3, 4},
   {13, 5},
   {8, 21, 6},
   {12, 31},
   {9, 15},
   {11, 14, 7},
   {24, 10, 30},
   {16},
   {17},
   {27},
   {16},
   {16, 20},
   {27, 20},
   {17, 20},
   {19},
   {30, 23},
   {18, 19},
   {25, 22},
   {26},
   {29},
   {23},
   {31},
   {28},
   {26},
   {26},
   {27},
   {31},
   {29},
   {32},
   {32},
   {32},
   {  } ];

deadline = array2d(1..32, 1..3, [1, 3, 3, 10, 4, 4, 13, 3, 4, 16, 0, 4, 18, 2, 0, 34, 5, 5, 49, 1, 1, 49, 3, 1, 55, 0, 3, 58, 2, 0, 60, 3, 5, 64, 4, 1, 66, 0, 2, 66, 0, 2, 66, 1, 1, 72, 1, 1, 74, 1, 4, 77, 4, 1, 79, 1, 1, 85, 5, 5, 95, 3, 5, 101, 2, 4, 103, 2, 1, 105, 4, 5, 107, 5, 0, 117, 0, 1, 119, 3, 4, 126, 1, 2, 129, 0, 1, 140, 0, 0, 141, 5, 4, 145, 3, 1]);
