n_res = 4;
rc = [ 27, 26, 25, 34 ];
n_tasks = 32;
d = [0, 9, 8, 10, 7, 4, 10, 4, 8, 9, 8, 3, 8, 4, 7, 1, 6, 8, 4, 10, 6, 9, 2, 6, 4, 10, 4, 2, 8, 3, 3, 0];
rr = array2d(1..4, 1..32, [0, 4, 0, 9, 0, 8, 0, 10, 5, 4, 2, 3, 3, 8, 2, 0, 1, 3, 0, 10, 7, 10, 2, 0, 9, 8, 5, 1, 7, 5, 0, 0, 0, 8, 4, 2, 7, 9, 10, 10, 0, 0, 0, 7, 4, 0, 0, 8, 4, 3, 8, 3, 10, 8, 7, 3, 0, 2, 3, 9, 6, 5, 3, 0, 0, 9, 1, 7, 3, 6, 0, 0, 7, 3, 7, 0, 4, 1, 2, 5, 5, 1, 3, 0, 1, 5, 0, 2, 2, 10, 0, 0, 1, 3, 9, 0, 0, 0, 9, 0, 0, 6, 3, 9, 0, 0, 10, 10, 9, 2, 9, 2, 9, 8, 3, 6, 0, 0, 1, 0, 0, 5, 10, 10, 3, 3, 2, 0]);

suc = [
   {2, 3, 4},
   {9, 5, 6},
   {15},
   {8, 9, 11},
   {24, 20, 7},
   {16, 19, 20},
   {12},
   {22, 23},
   {10, 21},
   {19, 28, 14},
   {17},
   {13},
   {17, 18},
   {26, 20},
   {18, 27, 23},
   {25, 21},
   {28, 22},
   {29, 30},
   {24},
   {27, 29, 31},
   {26, 28, 23},
   {25},
   {29},
   {25},
   {26, 31},
   {27},
   {30},
   {30, 31},
   {32},
   {32},
   {32},
   {  } ];

deadline = array2d(1..32, 1..3, [6, 5, 3, 11, 0, 0, 14, 2, 5, 14, 0, 3, 17, 1, 0, 19, 3, 3, 29, 2, 0, 35, 2, 2, 52, 3, 0, 55, 3, 5, 58, 4, 5, 62, 1, 0, 65, 2, 1, 71, 1, 2, 80, 4, 0, 80, 0, 3, 90, 3, 2, 91, 0, 1, 96, 3, 1, 98, 0, 0, 101, 0, 0, 108, 5, 1, 114, 5, 2, 126, 5, 1, 138, 0, 2, 139, 0, 1, 143, 0, 5, 154, 2, 1, 165, 1, 1, 169, 1, 5, 172, 3, 2, 178, 3, 2]);
