n_res = 4;
rc = [ 17, 21, 30, 18 ];
n_tasks = 32;
d = [0, 9, 7, 5, 6, 4, 3, 5, 9, 6, 10, 7, 9, 9, 1, 4, 2, 6, 2, 1, 5, 2, 4, 9, 4, 5, 4, 6, 7, 2, 3, 0];
rr = array2d(1..4, 1..32, [0, 9, 2, 6, 1, 3, 0, 6, 0, 8, 0, 0, 0, 0, 6, 2, 7, 6, 5, 10, 0, 0, 8, 0, 0, 2, 1, 2, 0, 0, 0, 0, 0, 4, 0, 2, 0, 0, 10, 0, 9, 1, 0, 6, 6, 0, 0, 0, 0, 0, 0, 10, 4, 3, 1, 9, 0, 0, 0, 10, 0, 0, 8, 0, 0, 0, 2, 0, 7, 0, 10, 0, 9, 0, 7, 0, 7, 5, 0, 10, 10, 0, 0, 0, 2, 4, 0, 0, 1, 9, 0, 0, 0, 6, 4, 0, 0, 0, 9, 4, 0, 0, 3, 0, 0, 4, 9, 3, 0, 5, 10, 0, 6, 0, 0, 0, 0, 10, 1, 1, 2, 0, 0, 5, 9, 0, 0, 0]);

suc = [
   {2, 3, 4},
   {27, 6},
   {9, 11, 14},
   {12, 5, 15},
   {8, 18, 7},
   {19},
   {13},
   {24},
   {10},
   {17, 22},
   {17},
   {21},
   {23},
   {25, 19},
   {16},
   {24},
   {20, 29},
   {21, 31},
   {20, 22},
   {31},
   {26},
   {24, 29},
   {27},
   {31},
   {28, 30},
   {28},
   {28, 30},
   {29},
   {32},
   {32},
   {32},
   {  } ];

deadline = array2d(1..32, 1..3, [5, 5, 2, 5, 1, 2, 22, 4, 0, 23, 3, 1, 33, 0, 3, 37, 3, 0, 41, 2, 4, 50, 0, 0, 50, 2, 1, 52, 5, 5, 52, 0, 4, 56, 0, 2, 62, 0, 1, 64, 5, 2, 68, 3, 2, 71, 5, 0, 71, 2, 1, 78, 0, 5, 80, 5, 3, 85, 0, 4, 87, 2, 3, 88, 2, 4, 88, 1, 0, 91, 3, 3, 96, 0, 0, 99, 0, 1, 100, 1, 5, 100, 0, 1, 103, 3, 1, 106, 3, 0, 109, 4, 5, 110, 0, 3]);
