n_res = 4;
rc = [ 14, 13, 14, 13 ];
n_tasks = 32;
d = [0, 4, 1, 1, 8, 4, 8, 7, 10, 9, 3, 10, 8, 5, 8, 1, 4, 9, 8, 7, 8, 4, 10, 3, 2, 4, 6, 7, 3, 2, 10, 0];
rr = array2d(1..4, 1..32, [0, 0, 8, 6, 0, 0, 0, 9, 2, 0, 0, 6, 0, 0, 10, 10, 1, 0, 0, 10, 0, 6, 5, 0, 1, 3, 9, 0, 0, 0, 2, 0, 0, 0, 2, 2, 0, 4, 8, 0, 0, 9, 0, 0, 10, 0, 0, 7, 0, 0, 0, 6, 0, 0, 0, 10, 0, 5, 0, 0, 1, 0, 10, 0, 0, 9, 0, 0, 4, 1, 3, 10, 2, 0, 6, 0, 0, 10, 4, 9, 8, 5, 3, 9, 5, 1, 10, 6, 0, 0, 0, 3, 6, 3, 0, 0, 0, 0, 0, 0, 0, 0, 9, 0, 8, 0, 0, 8, 0, 0, 4, 5, 10, 6, 0, 4, 0, 0, 0, 3, 7, 0, 0, 7, 0, 5, 8, 0]);

suc = [
   {2, 3, 4},
   {19},
   {8, 14, 7},
   {9, 5, 25},
   {6, 14},
   {17, 12, 23},
   {22},
   {25, 10, 31},
   {29},
   {11, 13},
   {24},
   {16},
   {27, 19, 15},
   {18},
   {26},
   {28},
   {28},
   {20},
   {26, 21},
   {24, 22},
   {24, 23},
   {31},
   {30},
   {29},
   {28},
   {29},
   {30},
   {30},
   {32},
   {32},
   {32},
   {  } ];

deadline = array2d(1..32, 1..3, [2, 3, 1, 3, 0, 5, 12, 1, 0, 13, 4, 0, 16, 3, 2, 20, 3, 4, 21, 3, 4, 22, 3, 4, 27, 4, 0, 27, 0, 4, 36, 3, 4, 40, 4, 0, 44, 1, 3, 45, 0, 0, 53, 0, 5, 60, 0, 5, 62, 0, 3, 69, 0, 3, 69, 5, 5, 71, 5, 3, 76, 3, 3, 77, 5, 2, 79, 3, 1, 86, 1, 3, 87, 5, 2, 89, 3, 3, 90, 2, 3, 105, 3, 1, 110, 0, 2, 118, 3, 0, 125, 1, 1, 127, 4, 0]);
