n_res = 4;
rc = [ 13, 14, 14, 16 ];
n_tasks = 32;
d = [0, 9, 7, 3, 6, 7, 5, 9, 4, 10, 9, 6, 7, 8, 7, 8, 4, 3, 1, 4, 9, 8, 9, 6, 9, 3, 6, 8, 2, 7, 2, 0];
rr = array2d(1..4, 1..32, [0, 2, 10, 8, 0, 2, 5, 0, 4, 0, 4, 0, 0, 0, 10, 2, 5, 0, 10, 3, 1, 3, 0, 3, 0, 2, 0, 7, 1, 4, 9, 0, 0, 0, 9, 8, 10, 0, 5, 6, 4, 7, 9, 3, 2, 9, 6, 4, 5, 0, 8, 7, 8, 8, 1, 6, 3, 2, 3, 3, 4, 8, 0, 0, 0, 0, 9, 9, 4, 10, 3, 0, 3, 0, 9, 0, 7, 9, 0, 2, 8, 3, 6, 7, 0, 0, 0, 1, 0, 0, 5, 5, 0, 7, 5, 0, 0, 10, 6, 0, 6, 8, 1, 6, 0, 4, 6, 6, 8, 8, 4, 0, 9, 4, 9, 2, 9, 10, 3, 8, 0, 5, 4, 2, 7, 6, 10, 0]);

suc = [
   {2, 3, 4},
   {9, 12, 13},
   {21, 5, 7},
   {23},
   {8, 6, 15},
   {10, 22},
   {11},
   {26, 14},
   {10},
   {17, 11, 30},
   {16},
   {19},
   {20, 23},
   {18},
   {27},
   {24},
   {25},
   {19, 28},
   {29, 31},
   {31},
   {28},
   {25},
   {24, 30},
   {27, 28},
   {31},
   {30},
   {29},
   {29},
   {32},
   {32},
   {32},
   {  } ];

deadline = array2d(1..32, 1..3, [3, 3, 4, 5, 1, 0, 24, 3, 2, 28, 3, 3, 30, 5, 5, 32, 2, 0, 39, 4, 4, 40, 4, 3, 42, 1, 5, 42, 2, 2, 50, 5, 2, 52, 3, 3, 53, 4, 5, 55, 5, 5, 58, 1, 2, 59, 4, 3, 66, 1, 5, 67, 1, 4, 77, 4, 2, 87, 4, 5, 89, 4, 1, 104, 5, 2, 105, 4, 3, 109, 4, 2, 114, 3, 3, 115, 2, 3, 117, 0, 1, 122, 1, 4, 131, 3, 2, 141, 4, 4, 142, 0, 4, 143, 3, 0]);
