n_res = 4;
rc = [ 55, 63, 38, 63 ];
n_tasks = 32;
d = [0, 3, 8, 6, 3, 5, 8, 9, 1, 5, 9, 10, 3, 2, 10, 8, 3, 9, 6, 5, 5, 2, 5, 7, 1, 10, 1, 2, 8, 8, 8, 0];
rr = array2d(1..4, 1..32, [0, 2, 0, 4, 0, 6, 1, 10, 0, 7, 4, 8, 8, 2, 8, 10, 7, 1, 4, 5, 5, 0, 6, 1, 5, 1, 2, 5, 0, 0, 0, 0, 0, 2, 2, 0, 0, 8, 6, 3, 9, 6, 3, 9, 10, 4, 7, 0, 0, 7, 0, 4, 9, 1, 1, 0, 8, 2, 10, 2, 9, 1, 6, 0, 0, 0, 7, 0, 6, 0, 3, 6, 2, 0, 7, 6, 3, 2, 0, 3, 8, 7, 2, 9, 0, 9, 7, 4, 8, 0, 0, 6, 2, 0, 9, 0, 0, 0, 1, 10, 7, 8, 7, 10, 4, 5, 0, 6, 6, 3, 5, 4, 5, 6, 9, 0, 3, 8, 10, 6, 0, 2, 0, 0, 4, 9, 0, 0]);

suc = [
   {2, 3, 4},
   {5, 6, 7},
   {21, 19, 13},
   {8, 12},
   {11, 20, 15},
   {9, 10, 22},
   {18},
   {30},
   {24, 28, 29},
   {25},
   {16, 17},
   {14},
   {20},
   {24, 25},
   {26, 23},
   {29},
   {31},
   {28},
   {26},
   {24, 31},
   {29},
   {27},
   {25},
   {30},
   {27},
   {27},
   {30},
   {31},
   {32},
   {32},
   {32},
   {  } ];

deadline = array2d(1..32, 1..3, [3, 0, 3, 3, 1, 1, 3, 0, 1, 6, 4, 0, 8, 4, 1, 11, 4, 3, 14, 1, 5, 16, 2, 3, 21, 1, 2, 22, 3, 1, 38, 5, 4, 39, 0, 1, 39, 1, 4, 39, 0, 2, 43, 2, 1, 53, 4, 5, 60, 3, 4, 61, 0, 2, 65, 1, 2, 66, 4, 0, 69, 0, 3, 70, 5, 1, 70, 0, 5, 73, 5, 5, 74, 1, 3, 77, 5, 2, 86, 0, 4, 86, 0, 0, 86, 5, 2, 86, 3, 1, 87, 2, 2, 87, 0, 2]);
