n_res = 4;
rc = [ 21, 34, 27, 26 ];
n_tasks = 32;
d = [0, 4, 2, 1, 2, 3, 9, 9, 3, 7, 10, 8, 4, 6, 3, 9, 6, 8, 4, 3, 4, 5, 6, 7, 9, 5, 1, 4, 5, 5, 1, 0];
rr = array2d(1..4, 1..32, [0, 2, 0, 10, 9, 0, 5, 1, 0, 0, 8, 0, 4, 4, 1, 3, 8, 3, 0, 6, 10, 0, 3, 3, 5, 0, 3, 0, 6, 1, 6, 0, 0, 0, 10, 0, 10, 4, 9, 6, 4, 10, 9, 3, 9, 9, 5, 9, 1, 1, 0, 1, 0, 6, 8, 0, 10, 8, 7, 0, 4, 7, 8, 0, 0, 8, 3, 0, 8, 8, 7, 8, 0, 0, 2, 3, 8, 0, 3, 8, 10, 5, 4, 6, 6, 0, 0, 4, 10, 4, 3, 2, 2, 6, 3, 0, 0, 5, 10, 1, 9, 0, 0, 0, 3, 1, 2, 6, 0, 7, 2, 10, 6, 4, 9, 7, 0, 0, 5, 5, 4, 9, 7, 3, 7, 0, 0, 0]);

suc = [
   {2, 3, 4},
   {9, 18, 7},
   {10, 11, 15},
   {5, 22, 15},
   {26, 6, 14},
   {17, 18, 21},
   {8, 13, 14},
   {16, 24, 19},
   {10, 26, 15},
   {16, 12, 31},
   {16, 12, 20},
   {19, 14},
   {19, 22, 23},
   {24, 17},
   {17, 25},
   {28, 21},
   {29, 23},
   {25, 31},
   {28, 21},
   {26, 22, 23},
   {27, 30},
   {24, 27},
   {28},
   {25, 29},
   {30},
   {27, 31},
   {29},
   {30},
   {32},
   {32},
   {32},
   {  } ];

deadline = array2d(1..32, 1..3, [3, 5, 4, 5, 5, 0, 5, 5, 3, 7, 0, 0, 32, 0, 4, 33, 2, 2, 33, 0, 4, 36, 5, 3, 38, 2, 2, 38, 0, 3, 40, 2, 3, 44, 3, 2, 44, 3, 3, 48, 1, 5, 49, 0, 1, 50, 1, 3, 54, 0, 2, 57, 2, 2, 58, 5, 3, 68, 0, 5, 72, 1, 5, 74, 0, 3, 79, 3, 4, 88, 2, 1, 88, 1, 3, 89, 1, 2, 93, 2, 4, 97, 2, 1, 100, 2, 3, 107, 0, 0, 108, 0, 4, 112, 4, 0]);
