n_res = 4;
rc = [ 31, 27, 15, 24 ];
n_tasks = 32;
d = [0, 10, 5, 2, 4, 6, 6, 2, 2, 7, 2, 2, 6, 7, 1, 3, 5, 4, 4, 5, 9, 2, 9, 7, 10, 9, 1, 8, 2, 6, 4, 0];
rr = array2d(1..4, 1..32, [0, 1, 0, 4, 2, 0, 0, 0, 7, 9, 1, 2, 1, 0, 0, 7, 0, 0, 0, 0, 6, 9, 7, 5, 6, 0, 0, 0, 0, 0, 7, 0, 0, 0, 0, 0, 0, 0, 4, 1, 0, 0, 0, 2, 5, 6, 10, 4, 4, 0, 0, 7, 5, 6, 4, 1, 0, 8, 0, 3, 2, 7, 0, 0, 0, 0, 0, 5, 0, 4, 7, 0, 0, 8, 4, 6, 0, 0, 0, 1, 1, 3, 3, 0, 0, 0, 1, 0, 6, 0, 0, 0, 0, 9, 0, 0, 0, 0, 10, 8, 8, 2, 2, 2, 6, 0, 0, 5, 0, 0, 0, 0, 0, 5, 0, 3, 0, 0, 10, 0, 0, 0, 7, 8, 8, 7, 6, 0]);

suc = [
   {2, 3, 4},
   {8, 15},
   {27, 11, 13},
   {16, 5, 7},
   {19, 21, 6},
   {23},
   {10, 30},
   {9, 12, 20},
   {17, 22},
   {27, 14},
   {12},
   {25},
   {25},
   {24, 18},
   {27},
   {28},
   {19, 30},
   {25},
   {26},
   {26},
   {30},
   {24},
   {29, 31},
   {26},
   {28},
   {29},
   {28},
   {31},
   {32},
   {32},
   {32},
   {  } ];

deadline = array2d(1..32, 1..3, [1, 1, 2, 2, 3, 1, 7, 5, 0, 10, 2, 1, 18, 0, 0, 23, 1, 4, 27, 3, 1, 27, 2, 4, 31, 1, 4, 31, 5, 5, 31, 4, 5, 36, 5, 5, 37, 2, 1, 41, 3, 0, 50, 0, 3, 60, 2, 3, 64, 2, 3, 70, 4, 0, 71, 1, 4, 74, 5, 3, 74, 1, 3, 77, 4, 0, 84, 0, 5, 87, 3, 1, 88, 5, 2, 90, 5, 0, 90, 0, 4, 90, 4, 5, 91, 4, 1, 93, 5, 4, 96, 1, 1, 109, 2, 3]);
