n_res = 4;
rc = [ 18, 12, 16, 10 ];
n_tasks = 32;
d = [0, 2, 3, 9, 2, 2, 4, 8, 3, 9, 7, 10, 8, 7, 8, 6, 2, 4, 9, 3, 2, 7, 1, 3, 9, 5, 3, 1, 9, 7, 4, 0];
rr = array2d(1..4, 1..32, [0, 0, 3, 0, 0, 0, 2, 0, 0, 0, 8, 0, 1, 0, 10, 0, 0, 0, 0, 0, 9, 3, 0, 4, 0, 8, 0, 0, 0, 9, 3, 0, 0, 0, 0, 0, 0, 0, 0, 0, 2, 3, 0, 0, 0, 7, 0, 6, 10, 0, 1, 2, 0, 0, 4, 0, 0, 0, 0, 10, 0, 0, 0, 0, 0, 9, 0, 7, 0, 0, 0, 7, 0, 0, 0, 5, 0, 0, 0, 0, 0, 0, 0, 0, 0, 0, 0, 0, 0, 0, 5, 0, 0, 0, 0, 0, 0, 0, 0, 0, 10, 1, 0, 0, 0, 0, 0, 0, 0, 0, 0, 0, 0, 6, 0, 0, 0, 0, 0, 0, 10, 0, 0, 0, 10, 0, 0, 0]);

suc = [
   {2, 3, 4},
   {17, 23, 7},
   {8, 6, 31},
   {16, 26, 5},
   {19, 13},
   {23},
   {9, 10},
   {9},
   {20, 15},
   {11, 29},
   {12},
   {15},
   {20, 14},
   {24, 15},
   {28},
   {21},
   {18},
   {27, 29, 22},
   {25},
   {30},
   {23},
   {28},
   {24, 28},
   {29},
   {27},
   {27},
   {31},
   {30},
   {32},
   {32},
   {32},
   {  } ];

deadline = array2d(1..32, 1..3, [3, 5, 2, 6, 2, 2, 7, 2, 1, 14, 0, 3, 15, 0, 2, 18, 3, 2, 24, 4, 1, 26, 4, 0, 39, 4, 3, 43, 2, 0, 43, 5, 2, 45, 1, 3, 48, 5, 0, 50, 5, 0, 54, 0, 2, 60, 2, 2, 64, 0, 2, 64, 1, 2, 65, 4, 1, 68, 3, 5, 71, 4, 0, 73, 4, 4, 73, 5, 3, 74, 0, 1, 77, 3, 0, 78, 4, 2, 88, 1, 5, 91, 2, 2, 101, 2, 5, 105, 3, 0, 112, 5, 3, 120, 3, 0]);
