n_res = 4;
rc = [ 14, 10, 11, 14 ];
n_tasks = 32;
d = [0, 2, 10, 7, 1, 3, 6, 2, 10, 5, 9, 4, 4, 2, 4, 10, 10, 7, 10, 7, 2, 1, 2, 2, 2, 9, 1, 4, 7, 8, 9, 0];
rr = array2d(1..4, 1..32, [0, 0, 0, 0, 8, 0, 0, 0, 0, 1, 2, 0, 0, 0, 0, 10, 0, 5, 0, 0, 0, 10, 8, 0, 0, 7, 0, 8, 0, 0, 0, 0, 0, 0, 8, 0, 0, 0, 0, 9, 0, 0, 0, 0, 5, 0, 0, 0, 0, 0, 0, 0, 7, 0, 0, 0, 0, 0, 0, 0, 3, 0, 6, 0, 0, 2, 0, 7, 0, 0, 5, 0, 0, 0, 0, 6, 0, 10, 0, 0, 7, 0, 0, 3, 0, 0, 0, 0, 0, 0, 0, 0, 0, 8, 0, 0, 0, 0, 0, 0, 0, 8, 0, 0, 2, 0, 0, 0, 0, 0, 10, 0, 0, 0, 7, 0, 0, 0, 0, 8, 7, 0, 1, 0, 0, 0, 0, 0]);

suc = [
   {2, 3, 4},
   {10},
   {9, 5, 15},
   {13, 7},
   {17, 6},
   {16, 18, 13},
   {8, 19, 11},
   {27},
   {28, 14},
   {12, 22},
   {26, 21},
   {24},
   {25},
   {25},
   {21},
   {26, 20},
   {26, 29, 21},
   {23},
   {25},
   {31},
   {31},
   {27, 29},
   {31},
   {29},
   {30},
   {27},
   {30},
   {30},
   {32},
   {32},
   {32},
   {  } ];

deadline = array2d(1..32, 1..3, [5, 0, 5, 6, 5, 3, 6, 5, 3, 11, 3, 1, 11, 5, 1, 12, 1, 3, 20, 1, 2, 21, 1, 5, 22, 2, 4, 23, 5, 1, 24, 4, 4, 28, 2, 5, 30, 1, 4, 35, 2, 3, 38, 3, 4, 43, 4, 5, 43, 2, 3, 48, 4, 2, 63, 3, 2, 64, 5, 2, 65, 5, 1, 67, 3, 2, 70, 5, 0, 73, 5, 3, 78, 2, 2, 81, 4, 3, 82, 0, 3, 87, 2, 1, 94, 3, 5, 96, 5, 5, 97, 0, 2, 105, 3, 4]);
