n_res = 4;
rc = [ 17, 23, 20, 25 ];
n_tasks = 32;
d = [0, 4, 10, 4, 5, 8, 2, 2, 10, 2, 6, 7, 2, 10, 4, 9, 2, 8, 6, 8, 4, 3, 1, 2, 4, 6, 5, 1, 6, 2, 5, 0];
rr = array2d(1..4, 1..32, [0, 0, 10, 8, 0, 6, 0, 0, 9, 0, 1, 0, 0, 0, 0, 0, 0, 4, 0, 0, 5, 0, 6, 5, 5, 7, 0, 0, 0, 3, 4, 0, 0, 10, 3, 0, 2, 0, 0, 10, 0, 0, 0, 1, 0, 7, 0, 0, 1, 10, 0, 5, 0, 9, 7, 0, 0, 0, 0, 1, 4, 2, 0, 0, 0, 10, 4, 0, 1, 7, 4, 3, 0, 0, 0, 0, 3, 0, 0, 7, 2, 0, 0, 10, 0, 0, 0, 0, 1, 6, 10, 10, 6, 0, 0, 0, 0, 0, 0, 0, 3, 0, 6, 0, 10, 1, 6, 0, 0, 2, 8, 0, 4, 10, 6, 4, 6, 7, 0, 5, 5, 1, 0, 6, 0, 1, 1, 0]);

suc = [
   {2, 3, 4},
   {18, 13, 14},
   {11, 13},
   {5, 6, 7},
   {8, 20},
   {22, 30},
   {23},
   {9, 10},
   {17},
   {12, 28, 15},
   {26, 14},
   {24},
   {16, 27, 29},
   {21},
   {31},
   {31},
   {25, 19},
   {22},
   {22},
   {23},
   {29},
   {28},
   {28},
   {30},
   {26, 27},
   {31},
   {30},
   {29},
   {32},
   {32},
   {32},
   {  } ];

deadline = array2d(1..32, 1..3, [3, 5, 5, 3, 5, 5, 5, 0, 5, 12, 1, 0, 16, 3, 2, 16, 0, 2, 20, 3, 1, 20, 0, 2, 23, 5, 1, 23, 0, 3, 27, 1, 0, 31, 3, 5, 35, 1, 0, 38, 1, 4, 52, 4, 2, 53, 5, 4, 54, 5, 5, 56, 3, 4, 57, 0, 5, 64, 1, 4, 67, 4, 3, 71, 2, 3, 72, 1, 0, 74, 1, 0, 77, 4, 4, 79, 4, 4, 85, 2, 5, 85, 1, 4, 88, 2, 2, 96, 4, 0, 97, 1, 1, 97, 0, 5]);
