n_res = 4;
rc = [ 21, 28, 17, 12 ];
n_tasks = 32;
d = [0, 7, 2, 4, 7, 9, 6, 3, 5, 9, 9, 6, 1, 1, 4, 3, 2, 3, 6, 6, 9, 6, 6, 3, 8, 5, 4, 1, 1, 5, 5, 0];
rr = array2d(1..4, 1..32, [0, 3, 4, 0, 4, 0, 2, 0, 4, 0, 8, 0, 0, 0, 0, 4, 0, 8, 0, 3, 10, 0, 6, 0, 10, 5, 0, 0, 9, 0, 0, 0, 0, 10, 0, 0, 8, 8, 0, 9, 9, 0, 7, 9, 0, 0, 2, 0, 2, 7, 1, 6, 0, 2, 0, 7, 0, 10, 7, 0, 9, 7, 0, 0, 0, 7, 0, 0, 0, 1, 7, 2, 0, 10, 0, 7, 1, 0, 3, 0, 4, 0, 0, 0, 0, 0, 0, 10, 2, 9, 4, 9, 0, 3, 0, 0, 0, 0, 0, 4, 0, 3, 7, 2, 0, 1, 0, 0, 0, 1, 4, 0, 0, 0, 0, 2, 3, 0, 4, 0, 2, 0, 0, 5, 6, 0, 3, 0]);

suc = [
   {2, 3, 4},
   {19, 11, 15},
   {8, 10, 12},
   {5, 6, 7},
   {10},
   {18, 20, 23},
   {9, 26, 25},
   {29, 27, 21},
   {13},
   {20, 23},
   {12, 13},
   {16, 14},
   {21},
   {24, 17, 23},
   {26, 20, 30},
   {17},
   {28},
   {19, 22},
   {24},
   {29, 21, 22},
   {31},
   {27},
   {25, 30},
   {28, 30},
   {27},
   {28},
   {31},
   {29, 31},
   {32},
   {32},
   {32},
   {  } ];

deadline = array2d(1..32, 1..3, [7, 1, 5, 11, 0, 5, 12, 0, 4, 13, 5, 3, 22, 2, 1, 32, 5, 5, 44, 2, 4, 45, 4, 5, 47, 1, 5, 48, 4, 0, 51, 3, 4, 55, 5, 4, 60, 5, 0, 72, 5, 5, 76, 2, 5, 83, 1, 3, 83, 3, 1, 84, 0, 4, 85, 0, 2, 85, 1, 0, 85, 1, 0, 88, 3, 1, 91, 5, 5, 94, 2, 4, 95, 5, 5, 98, 5, 5, 101, 3, 0, 101, 1, 0, 106, 0, 4, 106, 2, 5, 111, 5, 5, 114, 2, 0]);
