n_res = 4;
rc = [ 19, 18, 19, 17 ];
n_tasks = 32;
d = [0, 3, 2, 1, 7, 2, 1, 9, 8, 8, 8, 4, 10, 4, 10, 7, 1, 4, 9, 1, 4, 3, 5, 4, 3, 1, 7, 6, 9, 7, 3, 0];
rr = array2d(1..4, 1..32, [0, 10, 10, 5, 3, 4, 1, 10, 8, 4, 2, 8, 9, 8, 4, 7, 3, 6, 3, 6, 1, 4, 10, 5, 6, 9, 4, 3, 7, 8, 1, 0, 0, 10, 2, 9, 2, 6, 7, 8, 4, 2, 9, 2, 1, 4, 6, 8, 3, 4, 10, 3, 6, 3, 9, 6, 10, 3, 1, 9, 6, 9, 2, 0, 0, 5, 3, 2, 10, 10, 2, 8, 4, 3, 2, 6, 2, 10, 4, 8, 10, 5, 2, 5, 3, 10, 5, 9, 9, 10, 3, 1, 6, 6, 7, 0, 0, 5, 8, 8, 10, 8, 1, 2, 3, 2, 5, 2, 6, 9, 1, 2, 3, 2, 2, 5, 4, 8, 6, 10, 4, 2, 7, 9, 10, 5, 7, 0]);

suc = [
   {2, 3, 4},
   {8, 14, 15},
   {16, 6, 7},
   {10, 11, 5},
   {9, 19, 21},
   {12},
   {13},
   {20},
   {29},
   {25},
   {18},
   {24, 29},
   {20},
   {24, 23},
   {17, 31},
   {22},
   {23},
   {27, 19},
   {20},
   {22},
   {27, 23},
   {26},
   {25, 28},
   {27},
   {26, 29},
   {30},
   {28},
   {30},
   {32},
   {32},
   {32},
   {  } ];

deadline = array2d(1..32, 1..3, [1, 3, 5, 2, 2, 0, 3, 3, 3, 3, 3, 4, 4, 1, 0, 7, 4, 0, 8, 1, 5, 14, 3, 2, 16, 5, 3, 17, 0, 4, 22, 0, 5, 34, 4, 3, 39, 2, 0, 40, 2, 3, 43, 4, 2, 44, 0, 0, 46, 1, 1, 50, 0, 0, 51, 3, 0, 58, 1, 1, 59, 3, 4, 60, 2, 4, 61, 0, 1, 61, 2, 1, 63, 0, 2, 66, 2, 5, 74, 1, 2, 77, 3, 5, 81, 0, 2, 82, 0, 3, 82, 4, 3, 83, 1, 0]);
