n_res = 4;
rc = [ 21, 24, 34, 27 ];
n_tasks = 32;
d = [0, 9, 4, 1, 8, 4, 4, 3, 9, 2, 4, 7, 2, 5, 8, 4, 8, 7, 7, 1, 4, 4, 4, 8, 10, 9, 9, 3, 10, 3, 5, 0];
rr = array2d(1..4, 1..32, [0, 1, 3, 6, 7, 8, 6, 4, 4, 1, 0, 10, 2, 3, 0, 4, 1, 0, 1, 4, 6, 9, 8, 4, 7, 10, 5, 10, 3, 4, 10, 0, 0, 9, 7, 8, 5, 4, 0, 0, 4, 1, 2, 0, 2, 0, 6, 0, 0, 3, 7, 5, 8, 9, 7, 0, 10, 9, 0, 0, 0, 7, 0, 0, 0, 6, 0, 2, 8, 0, 8, 7, 0, 3, 0, 9, 3, 6, 7, 8, 9, 9, 10, 7, 1, 0, 9, 0, 0, 4, 4, 8, 0, 0, 0, 0, 0, 10, 7, 1, 2, 2, 9, 2, 4, 2, 10, 0, 0, 0, 1, 9, 9, 10, 5, 6, 1, 3, 5, 0, 1, 0, 9, 8, 7, 6, 7, 0]);

suc = [
   {2, 3, 4},
   {5, 6},
   {16, 25, 12},
   {10},
   {8, 19, 7},
   {18, 12},
   {9, 28, 13},
   {11},
   {17, 20, 14},
   {25, 19, 23},
   {24, 15},
   {17, 28},
   {15},
   {18},
   {25, 21},
   {24, 17},
   {27, 21, 22},
   {24, 21},
   {27, 22, 30},
   {26, 22, 23},
   {31},
   {31},
   {30},
   {26, 27},
   {26},
   {31},
   {29},
   {29, 30},
   {32},
   {32},
   {32},
   {  } ];

deadline = array2d(1..32, 1..3, [12, 3, 0, 14, 1, 2, 23, 1, 0, 28, 2, 0, 35, 2, 3, 35, 5, 5, 35, 5, 3, 42, 2, 3, 43, 0, 4, 45, 1, 2, 64, 0, 1, 71, 3, 5, 77, 5, 4, 78, 2, 0, 82, 3, 2, 86, 1, 4, 91, 5, 0, 95, 5, 1, 118, 2, 3, 118, 4, 4, 121, 4, 4, 124, 0, 0, 125, 0, 2, 132, 5, 5, 140, 5, 4, 142, 0, 4, 144, 3, 2, 154, 0, 2, 156, 2, 4, 169, 4, 2, 170, 2, 3, 171, 1, 1]);
