n_res = 4;
rc = [ 15, 13, 10, 8 ];
n_tasks = 32;
d = [0, 6, 10, 8, 7, 2, 1, 5, 9, 7, 6, 9, 10, 3, 4, 7, 9, 4, 6, 2, 2, 1, 1, 7, 4, 10, 7, 6, 7, 8, 3, 0];
rr = array2d(1..4, 1..32, [0, 0, 0, 0, 7, 0, 0, 0, 1, 0, 6, 0, 0, 5, 0, 5, 3, 1, 3, 7, 0, 0, 0, 10, 0, 10, 0, 0, 10, 0, 6, 0, 0, 0, 0, 0, 0, 0, 0, 0, 0, 4, 0, 0, 8, 0, 0, 0, 0, 0, 0, 0, 8, 0, 8, 0, 9, 0, 0, 0, 0, 2, 0, 0, 0, 6, 1, 0, 0, 8, 0, 0, 0, 0, 0, 2, 0, 0, 9, 0, 0, 0, 0, 0, 0, 0, 0, 0, 0, 0, 0, 0, 0, 0, 0, 0, 0, 0, 0, 5, 0, 0, 1, 7, 0, 0, 0, 0, 0, 0, 0, 0, 0, 0, 0, 0, 0, 1, 0, 0, 0, 0, 1, 6, 0, 0, 0, 0]);

suc = [
   {2, 3, 4},
   {10, 20, 5},
   {11, 6, 22},
   {19, 10, 11},
   {8, 13, 7},
   {16, 27, 21},
   {9, 12, 17},
   {9, 18, 14},
   {19, 27, 11},
   {16, 18, 12},
   {29, 21, 23},
   {25, 31, 23},
   {18, 21, 15},
   {17, 25, 15},
   {16, 27, 22},
   {24, 28},
   {19, 23},
   {26},
   {24, 26, 22},
   {25, 26, 30},
   {30},
   {31},
   {24},
   {30},
   {29},
   {28},
   {28},
   {29, 31},
   {32},
   {32},
   {32},
   {  } ];

deadline = array2d(1..32, 1..3, [1, 3, 4, 4, 2, 5, 18, 1, 0, 19, 4, 4, 25, 2, 4, 26, 2, 3, 27, 2, 2, 33, 5, 1, 42, 0, 5, 43, 5, 4, 46, 3, 3, 55, 1, 2, 57, 2, 0, 63, 1, 4, 67, 5, 0, 67, 1, 4, 74, 0, 5, 85, 3, 5, 91, 0, 1, 92, 2, 3, 92, 5, 1, 93, 1, 5, 98, 2, 0, 98, 3, 5, 98, 5, 0, 120, 1, 4, 120, 0, 2, 128, 0, 4, 138, 1, 2, 141, 2, 0, 145, 3, 4, 146, 2, 4]);
