n_res = 4;
rc = [ 16, 27, 23, 38 ];
n_tasks = 32;
d = [0, 9, 4, 5, 7, 1, 3, 9, 8, 10, 6, 5, 10, 3, 6, 9, 3, 4, 10, 7, 10, 6, 7, 8, 1, 7, 3, 7, 8, 3, 3, 0];
rr = array2d(1..4, 1..32, [0, 5, 0, 4, 3, 6, 0, 0, 7, 0, 0, 0, 0, 8, 0, 0, 0, 0, 0, 0, 4, 10, 4, 0, 0, 6, 9, 0, 0, 4, 2, 0, 0, 0, 5, 0, 2, 2, 0, 0, 0, 1, 4, 1, 0, 4, 5, 0, 0, 9, 2, 0, 3, 4, 9, 7, 6, 0, 0, 0, 5, 0, 0, 0, 0, 0, 0, 0, 7, 0, 0, 0, 5, 0, 4, 0, 9, 0, 2, 2, 0, 8, 1, 9, 0, 0, 5, 0, 0, 4, 8, 0, 5, 1, 0, 0, 0, 2, 9, 0, 0, 0, 3, 9, 3, 0, 9, 0, 0, 7, 7, 0, 5, 7, 0, 0, 3, 0, 2, 10, 9, 10, 0, 3, 0, 5, 3, 0]);

suc = [
   {2, 3, 4},
   {9, 19, 5},
   {10, 13, 14},
   {8, 6, 7},
   {6},
   {26},
   {28},
   {26},
   {17, 11, 14},
   {16, 18, 12},
   {31, 15},
   {29},
   {24, 23},
   {20, 28, 30},
   {22},
   {27},
   {28, 31},
   {30},
   {21},
   {25},
   {26},
   {23},
   {27},
   {25},
   {27},
   {30},
   {29},
   {29},
   {32},
   {32},
   {32},
   {  } ];

deadline = array2d(1..32, 1..3, [7, 2, 4, 10, 2, 0, 15, 1, 2, 26, 0, 1, 30, 3, 5, 31, 3, 5, 39, 3, 1, 43, 2, 1, 58, 0, 2, 61, 1, 4, 66, 0, 3, 68, 1, 1, 70, 4, 5, 75, 1, 1, 75, 4, 2, 77, 4, 1, 79, 1, 4, 82, 3, 4, 86, 0, 0, 86, 5, 3, 90, 5, 0, 93, 5, 2, 99, 1, 0, 105, 4, 5, 105, 0, 2, 107, 2, 4, 113, 4, 0, 114, 3, 1, 121, 0, 2, 125, 2, 1, 125, 4, 4, 130, 1, 2]);
