n_res = 4;
rc = [ 24, 23, 27, 21 ];
n_tasks = 32;
d = [0, 8, 6, 4, 4, 8, 3, 5, 3, 4, 1, 10, 2, 7, 5, 2, 7, 1, 10, 3, 4, 1, 10, 5, 10, 10, 8, 10, 8, 9, 1, 0];
rr = array2d(1..4, 1..32, [0, 5, 0, 7, 0, 0, 3, 10, 5, 4, 3, 0, 0, 1, 6, 0, 3, 5, 0, 0, 0, 3, 9, 0, 9, 9, 4, 8, 4, 9, 8, 0, 0, 4, 5, 7, 3, 5, 4, 7, 0, 5, 7, 3, 5, 6, 3, 1, 8, 6, 0, 4, 3, 4, 7, 8, 5, 2, 8, 0, 6, 5, 0, 0, 0, 10, 6, 8, 7, 5, 5, 7, 1, 0, 0, 8, 7, 8, 0, 4, 6, 10, 3, 8, 4, 10, 1, 0, 0, 10, 10, 5, 9, 3, 7, 0, 0, 10, 0, 0, 5, 0, 10, 2, 0, 10, 10, 0, 0, 5, 9, 8, 3, 0, 2, 5, 5, 0, 10, 5, 8, 0, 10, 2, 0, 4, 6, 0]);

suc = [
   {2, 3, 4},
   {10, 21},
   {17, 18, 5},
   {8, 29, 6},
   {19, 6, 7},
   {31},
   {9, 14, 23},
   {27, 11},
   {24, 12, 20},
   {25},
   {17, 22},
   {13},
   {26, 15},
   {16, 15},
   {21, 30},
   {20, 21, 22},
   {19, 30},
   {25, 20},
   {31},
   {26, 28},
   {27, 28},
   {24},
   {24, 25, 26},
   {30},
   {27, 28},
   {29},
   {31},
   {29},
   {32},
   {32},
   {32},
   {  } ];

deadline = array2d(1..32, 1..3, [6, 2, 0, 10, 0, 0, 10, 3, 0, 15, 1, 5, 19, 2, 2, 20, 2, 1, 27, 2, 0, 29, 1, 5, 32, 0, 2, 36, 3, 0, 47, 5, 1, 50, 0, 4, 59, 2, 4, 59, 5, 5, 62, 2, 1, 63, 2, 3, 67, 2, 4, 69, 0, 3, 69, 4, 0, 70, 2, 1, 75, 4, 5, 78, 0, 5, 79, 0, 5, 82, 1, 1, 84, 2, 4, 89, 2, 3, 96, 3, 0, 108, 2, 5, 111, 0, 0, 122, 5, 3, 125, 5, 1, 135, 0, 4]);
