n_res = 4;
rc = [ 14, 15, 11, 11 ];
n_tasks = 32;
d = [0, 7, 3, 3, 8, 3, 1, 9, 4, 3, 1, 8, 8, 10, 5, 6, 4, 7, 6, 4, 5, 8, 8, 2, 3, 5, 1, 5, 6, 6, 6, 0];
rr = array2d(1..4, 1..32, [0, 0, 0, 8, 8, 2, 0, 4, 8, 5, 7, 0, 0, 10, 0, 9, 10, 0, 0, 0, 0, 0, 5, 5, 1, 7, 3, 8, 0, 0, 6, 0, 0, 4, 1, 1, 0, 0, 3, 7, 6, 0, 2, 0, 10, 3, 9, 0, 4, 2, 7, 3, 9, 4, 0, 0, 4, 3, 3, 0, 0, 1, 0, 0, 0, 1, 0, 5, 0, 3, 8, 0, 0, 4, 7, 0, 0, 0, 4, 3, 3, 10, 0, 0, 9, 4, 6, 0, 0, 0, 0, 0, 5, 0, 0, 0, 0, 6, 0, 0, 0, 0, 0, 0, 0, 5, 0, 8, 10, 0, 0, 2, 0, 3, 3, 0, 0, 0, 0, 0, 0, 0, 7, 6, 0, 0, 5, 0]);

suc = [
   {2, 3, 4},
   {20, 7},
   {11},
   {10, 5, 6},
   {25, 18, 14},
   {16, 14, 7},
   {8, 11, 13},
   {9, 21, 25},
   {12},
   {22},
   {17, 15},
   {26, 27, 22},
   {19, 28},
   {27, 21},
   {24, 26, 19},
   {17, 19, 23},
   {22},
   {24},
   {27},
   {26},
   {28, 23},
   {30},
   {24, 30},
   {29},
   {28, 29, 30},
   {29, 31},
   {31},
   {31},
   {32},
   {32},
   {32},
   {  } ];

deadline = array2d(1..32, 1..3, [8, 2, 5, 15, 3, 5, 16, 2, 1, 17, 2, 4, 18, 1, 0, 32, 1, 3, 39, 5, 5, 40, 4, 2, 42, 1, 4, 42, 5, 0, 45, 1, 4, 46, 4, 0, 47, 2, 1, 55, 0, 2, 55, 5, 0, 64, 5, 3, 65, 5, 0, 67, 5, 5, 69, 3, 0, 70, 0, 1, 73, 3, 4, 73, 3, 5, 78, 5, 0, 79, 5, 0, 83, 4, 5, 85, 3, 2, 89, 3, 2, 92, 4, 2, 92, 1, 3, 93, 3, 2, 93, 1, 3, 105, 4, 4]);
