n_res = 4;
rc = [ 14, 12, 18, 10 ];
n_tasks = 32;
d = [0, 3, 2, 9, 3, 10, 2, 2, 10, 5, 2, 5, 3, 4, 8, 3, 4, 3, 10, 3, 8, 10, 8, 8, 6, 10, 9, 1, 9, 9, 1, 0];
rr = array2d(1..4, 1..32, [0, 3, 3, 8, 0, 0, 2, 10, 0, 0, 0, 0, 7, 5, 0, 8, 6, 0, 0, 0, 0, 0, 0, 0, 0, 0, 0, 0, 0, 2, 0, 0, 0, 0, 0, 0, 0, 0, 0, 0, 0, 0, 0, 9, 0, 0, 0, 0, 0, 0, 0, 6, 0, 0, 5, 0, 7, 0, 0, 0, 0, 0, 6, 0, 0, 0, 0, 0, 3, 0, 0, 0, 4, 3, 4, 0, 0, 0, 6, 0, 0, 6, 10, 0, 0, 6, 0, 0, 0, 1, 0, 8, 5, 0, 0, 0, 0, 0, 0, 0, 0, 6, 0, 0, 0, 0, 0, 0, 0, 0, 0, 0, 0, 0, 0, 0, 5, 0, 0, 7, 0, 0, 5, 0, 0, 0, 0, 0]);

suc = [
   {2, 3, 4},
   {6},
   {29, 5, 14},
   {17},
   {8, 24, 19},
   {11, 14, 7},
   {18},
   {9, 13, 15},
   {10},
   {21},
   {16, 12},
   {18, 20},
   {21},
   {23},
   {18},
   {25},
   {30},
   {28},
   {27, 23},
   {24, 26, 22},
   {26},
   {25, 27},
   {26},
   {31},
   {30, 31},
   {28},
   {30},
   {31},
   {32},
   {32},
   {32},
   {  } ];

deadline = array2d(1..32, 1..3, [18, 1, 5, 21, 1, 3, 21, 5, 1, 35, 4, 4, 37, 2, 3, 38, 1, 3, 38, 2, 3, 41, 4, 5, 43, 2, 3, 46, 1, 2, 50, 2, 2, 52, 5, 5, 53, 2, 1, 56, 1, 1, 59, 4, 3, 63, 4, 3, 65, 2, 0, 67, 1, 0, 76, 0, 4, 76, 0, 3, 78, 2, 0, 81, 2, 2, 91, 0, 1, 95, 2, 2, 98, 2, 4, 99, 5, 0, 104, 4, 0, 108, 1, 2, 122, 0, 2, 125, 4, 2, 125, 2, 1, 126, 0, 5]);
