n_res = 4;
rc = [ 15, 17, 19, 16 ];
n_tasks = 32;
d = [0, 10, 6, 5, 8, 5, 10, 7, 6, 9, 8, 10, 5, 3, 6, 3, 1, 7, 2, 8, 9, 1, 4, 9, 3, 5, 6, 10, 1, 4, 6, 0];
rr = array2d(1..4, 1..32, [0, 4, 0, 0, 4, 0, 0, 0, 3, 3, 0, 0, 0, 7, 0, 2, 6, 0, 7, 0, 6, 9, 0, 3, 9, 2, 0, 0, 0, 0, 4, 0, 0, 10, 0, 5, 8, 2, 0, 0, 0, 3, 8, 3, 6, 0, 0, 0, 0, 0, 9, 0, 0, 0, 6, 10, 0, 2, 1, 0, 0, 5, 4, 0, 0, 5, 7, 0, 0, 0, 9, 9, 10, 4, 0, 0, 0, 0, 3, 3, 0, 8, 7, 0, 1, 3, 2, 0, 4, 0, 0, 0, 7, 0, 0, 0, 0, 0, 0, 9, 0, 0, 0, 5, 0, 2, 6, 0, 3, 0, 2, 0, 10, 3, 3, 2, 0, 0, 6, 10, 2, 0, 3, 3, 8, 10, 0, 0]);

suc = [
   {2, 3, 4},
   {8, 17, 18},
   {12, 5, 6},
   {24, 10, 22},
   {14, 7},
   {9, 14},
   {10, 13},
   {25, 10, 11},
   {17},
   {27, 23, 15},
   {15},
   {24},
   {24, 18, 15},
   {16, 18, 22},
   {19, 20},
   {17, 27, 21},
   {28},
   {29},
   {30},
   {21},
   {26, 30},
   {26, 30},
   {29, 31},
   {27, 31},
   {26},
   {28, 31},
   {28},
   {29},
   {32},
   {32},
   {32},
   {  } ];

deadline = array2d(1..32, 1..3, [1, 2, 1, 2, 3, 1, 3, 1, 1, 4, 1, 5, 10, 5, 1, 13, 5, 4, 19, 4, 0, 29, 3, 4, 36, 3, 1, 38, 3, 2, 39, 5, 0, 40, 5, 5, 45, 3, 1, 50, 3, 4, 54, 2, 3, 56, 2, 3, 57, 5, 1, 57, 2, 2, 58, 1, 5, 69, 5, 2, 70, 2, 0, 75, 1, 2, 76, 1, 2, 83, 2, 3, 86, 3, 2, 103, 0, 0, 120, 4, 5, 127, 3, 4, 164, 1, 4, 170, 1, 5, 179, 2, 5, 180, 0, 4]);
