n_res = 4;
rc = [ 24, 25, 19, 15 ];
n_tasks = 32;
d = [0, 5, 2, 7, 7, 7, 10, 1, 3, 2, 3, 6, 3, 10, 3, 10, 3, 9, 10, 4, 10, 7, 5, 5, 8, 9, 6, 1, 2, 4, 2, 0];
rr = array2d(1..4, 1..32, [0, 9, 7, 4, 8, 0, 6, 2, 0, 0, 6, 0, 0, 3, 8, 9, 8, 9, 0, 7, 0, 1, 0, 1, 0, 7, 6, 4, 8, 9, 10, 0, 0, 0, 6, 0, 10, 1, 0, 10, 8, 0, 0, 3, 0, 0, 8, 0, 0, 7, 10, 9, 7, 0, 0, 0, 10, 7, 0, 5, 0, 0, 0, 0, 0, 6, 0, 9, 10, 1, 5, 0, 0, 0, 1, 0, 1, 8, 0, 0, 9, 0, 5, 0, 2, 0, 7, 0, 4, 0, 1, 0, 4, 7, 0, 0, 0, 0, 0, 0, 0, 2, 2, 9, 10, 9, 7, 0, 8, 0, 0, 0, 0, 0, 0, 0, 0, 8, 0, 0, 0, 0, 0, 5, 8, 0, 0, 0]);

suc = [
   {2, 3, 4},
   {10, 28, 5},
   {9, 13, 6},
   {26, 15, 7},
   {8, 19, 20},
   {24, 18, 12},
   {24},
   {9, 17},
   {11, 21},
   {14, 22},
   {27},
   {28},
   {30},
   {16, 25},
   {20},
   {30},
   {23},
   {23},
   {26, 21},
   {21},
   {31},
   {29},
   {31},
   {30},
   {31},
   {27},
   {29},
   {29},
   {32},
   {32},
   {32},
   {  } ];

deadline = array2d(1..32, 1..3, [4, 4, 3, 16, 1, 4, 17, 0, 5, 20, 5, 5, 24, 3, 5, 24, 3, 1, 27, 3, 0, 28, 5, 0, 28, 4, 4, 29, 4, 5, 36, 5, 4, 36, 0, 1, 37, 0, 4, 39, 0, 0, 45, 0, 2, 46, 2, 1, 52, 4, 3, 54, 0, 5, 57, 2, 0, 58, 0, 0, 67, 1, 3, 67, 5, 2, 69, 1, 3, 70, 2, 4, 71, 5, 4, 72, 1, 1, 73, 4, 3, 73, 4, 0, 77, 1, 4, 82, 1, 5, 85, 5, 4, 90, 5, 3]);
