n_res = 4;
rc = [ 10, 13, 14, 21 ];
n_tasks = 32;
d = [0, 1, 6, 4, 8, 4, 1, 4, 3, 10, 3, 3, 1, 7, 4, 10, 3, 6, 4, 5, 5, 9, 4, 9, 2, 6, 9, 10, 2, 6, 9, 0];
rr = array2d(1..4, 1..32, [0, 0, 3, 6, 8, 0, 0, 0, 0, 0, 0, 9, 0, 0, 0, 0, 0, 0, 0, 0, 0, 0, 0, 0, 0, 0, 0, 0, 0, 0, 0, 0, 0, 0, 0, 0, 0, 0, 0, 0, 9, 0, 0, 0, 8, 0, 0, 0, 7, 1, 9, 0, 4, 0, 0, 0, 0, 2, 0, 1, 5, 1, 0, 0, 0, 0, 0, 0, 0, 0, 6, 0, 0, 7, 0, 0, 0, 0, 0, 0, 0, 0, 0, 0, 0, 8, 8, 1, 0, 0, 8, 0, 0, 0, 0, 0, 0, 7, 0, 0, 0, 7, 0, 3, 0, 0, 8, 0, 0, 10, 1, 10, 0, 0, 0, 8, 0, 0, 0, 0, 6, 0, 0, 0, 0, 0, 2, 0]);

suc = [
   {2, 3, 4},
   {8, 16, 10},
   {18, 11, 20},
   {8, 5},
   {17, 6, 7},
   {12, 21, 15},
   {11, 13, 14},
   {9, 12, 17},
   {20, 21, 14},
   {28, 22, 15},
   {16, 24, 23},
   {25, 26, 19},
   {16, 24, 18},
   {28, 22},
   {20, 30},
   {27, 19},
   {18, 26, 21},
   {19, 30, 31},
   {29},
   {25, 27},
   {24, 28, 23},
   {25, 26, 23},
   {30},
   {27},
   {29},
   {29},
   {31},
   {31},
   {32},
   {32},
   {32},
   {  } ];

deadline = array2d(1..32, 1..3, [1, 1, 4, 2, 2, 4, 10, 4, 0, 11, 4, 4, 12, 5, 4, 18, 5, 5, 18, 2, 1, 24, 2, 4, 26, 0, 4, 30, 3, 2, 32, 2, 3, 45, 4, 0, 47, 0, 4, 50, 1, 2, 51, 5, 0, 64, 2, 4, 69, 3, 3, 80, 0, 2, 81, 2, 3, 86, 1, 2, 86, 0, 0, 86, 0, 3, 88, 5, 5, 91, 4, 0, 100, 5, 5, 106, 5, 1, 109, 5, 1, 109, 2, 4, 115, 3, 5, 115, 1, 0, 117, 4, 0, 117, 5, 2]);
