n_res = 4;
rc = [ 32, 20, 31, 23 ];
n_tasks = 32;
d = [0, 6, 1, 5, 6, 10, 10, 4, 9, 2, 4, 6, 7, 9, 9, 6, 5, 2, 8, 9, 6, 5, 4, 10, 2, 3, 3, 6, 5, 4, 7, 0];
rr = array2d(1..4, 1..32, [0, 0, 2, 0, 9, 6, 8, 0, 9, 0, 10, 1, 3, 10, 10, 0, 0, 0, 7, 8, 5, 0, 8, 0, 0, 0, 0, 0, 0, 2, 7, 0, 0, 0, 7, 7, 0, 0, 0, 1, 2, 0, 5, 10, 0, 4, 0, 7, 0, 0, 2, 0, 1, 0, 0, 5, 0, 9, 1, 0, 0, 0, 0, 0, 0, 2, 0, 0, 3, 0, 0, 0, 0, 0, 0, 0, 5, 0, 8, 1, 0, 0, 0, 3, 5, 0, 0, 9, 5, 7, 10, 10, 5, 10, 2, 0, 0, 0, 7, 0, 10, 0, 5, 4, 0, 9, 2, 0, 9, 0, 3, 7, 4, 2, 0, 1, 0, 9, 0, 4, 2, 5, 0, 0, 10, 0, 0, 0]);

suc = [
   {2, 3, 4},
   {8, 11, 20},
   {14, 6, 7},
   {9, 21, 5},
   {10, 28, 15},
   {11, 12, 13},
   {8, 19},
   {16, 17, 10},
   {10, 14, 22},
   {18, 13, 31},
   {25, 18, 21},
   {25, 20, 23},
   {24},
   {25, 26, 19},
   {16, 17, 19},
   {27, 22},
   {18, 23},
   {26},
   {24, 31, 23},
   {24, 28, 21},
   {26, 22},
   {30},
   {29},
   {29},
   {27, 28, 30},
   {27, 30},
   {29},
   {31},
   {32},
   {32},
   {32},
   {  } ];

deadline = array2d(1..32, 1..3, [7, 5, 0, 8, 1, 1, 13, 2, 0, 18, 4, 0, 19, 1, 2, 22, 5, 3, 23, 4, 2, 23, 3, 2, 24, 5, 0, 27, 5, 1, 27, 5, 3, 42, 0, 1, 43, 2, 0, 44, 1, 1, 46, 5, 5, 51, 0, 3, 56, 0, 4, 68, 1, 5, 72, 5, 2, 87, 0, 1, 89, 5, 2, 91, 2, 3, 92, 2, 2, 95, 0, 0, 96, 4, 1, 99, 0, 4, 100, 5, 5, 102, 4, 0, 102, 4, 3, 109, 1, 2, 111, 4, 0, 111, 0, 3]);
