n_res = 4;
rc = [ 9, 10, 31, 12 ];
n_tasks = 32;
d = [0, 7, 8, 8, 7, 6, 7, 8, 7, 10, 5, 3, 3, 1, 1, 5, 9, 5, 1, 3, 9, 5, 6, 8, 10, 3, 8, 8, 6, 9, 6, 0];
rr = array2d(1..4, 1..32, [0, 0, 9, 0, 0, 0, 0, 0, 0, 0, 0, 0, 0, 4, 0, 0, 0, 0, 7, 0, 0, 0, 0, 0, 0, 6, 0, 1, 8, 0, 0, 0, 0, 0, 0, 7, 0, 0, 0, 0, 2, 0, 0, 0, 6, 0, 0, 0, 1, 0, 0, 0, 0, 0, 0, 0, 0, 0, 0, 0, 0, 10, 0, 0, 0, 0, 0, 0, 9, 0, 0, 7, 0, 2, 0, 6, 0, 0, 7, 0, 0, 0, 0, 0, 3, 10, 7, 8, 6, 0, 9, 0, 0, 0, 7, 0, 0, 10, 0, 0, 0, 1, 2, 0, 0, 0, 1, 0, 0, 0, 0, 9, 0, 7, 0, 5, 0, 0, 0, 0, 0, 0, 0, 0, 0, 0, 0, 0]);

suc = [
   {2, 3, 4},
   {8},
   {24, 10, 12},
   {5, 6, 15},
   {26, 11, 7},
   {24, 9, 18},
   {17},
   {9, 21},
   {20, 28, 23},
   {16, 14},
   {25, 13, 14},
   {25, 26, 13},
   {29},
   {28},
   {18, 19},
   {17, 26, 20},
   {27, 18, 19},
   {21, 23},
   {31, 23},
   {30},
   {22},
   {29},
   {29},
   {25, 27},
   {31},
   {28, 30},
   {30},
   {31},
   {32},
   {32},
   {32},
   {  } ];

deadline = array2d(1..32, 1..3, [1, 0, 1, 2, 3, 5, 11, 1, 1, 18, 1, 2, 21, 5, 5, 28, 5, 0, 29, 0, 2, 32, 5, 2, 33, 2, 2, 33, 4, 5, 38, 0, 0, 40, 2, 1, 48, 0, 0, 50, 4, 2, 50, 3, 5, 61, 4, 0, 64, 4, 1, 79, 2, 5, 81, 0, 1, 83, 0, 2, 89, 1, 4, 98, 0, 1, 100, 5, 2, 101, 1, 3, 106, 3, 2, 106, 2, 0, 117, 3, 2, 122, 5, 1, 124, 1, 2, 125, 5, 2, 136, 0, 1, 140, 3, 5]);
