n_res = 4;
rc = [ 13, 11, 11, 9 ];
n_tasks = 32;
d = [0, 10, 4, 3, 1, 5, 4, 6, 4, 4, 7, 2, 3, 5, 6, 10, 4, 3, 7, 9, 4, 3, 9, 3, 10, 8, 4, 8, 1, 10, 9, 0];
rr = array2d(1..4, 1..32, [0, 0, 0, 0, 6, 0, 0, 0, 5, 0, 10, 0, 3, 0, 0, 0, 0, 9, 7, 0, 0, 0, 0, 0, 0, 0, 0, 0, 0, 0, 0, 0, 0, 0, 9, 0, 0, 0, 10, 0, 0, 0, 0, 0, 0, 0, 0, 9, 0, 0, 0, 0, 2, 0, 0, 6, 0, 4, 0, 0, 8, 3, 4, 0, 0, 5, 0, 1, 0, 4, 0, 0, 0, 0, 0, 9, 0, 0, 8, 0, 8, 0, 0, 0, 0, 3, 9, 0, 2, 0, 4, 4, 0, 0, 0, 0, 0, 0, 0, 0, 0, 0, 0, 7, 0, 8, 0, 0, 0, 3, 0, 0, 0, 0, 0, 4, 0, 0, 0, 0, 0, 0, 0, 0, 0, 0, 0, 0]);

suc = [
   {2, 3, 4},
   {7},
   {6},
   {9, 5, 6},
   {8, 19, 21},
   {23},
   {19},
   {17, 10, 15},
   {24, 18, 14},
   {18, 11, 23},
   {12, 13, 22},
   {16},
   {20, 28},
   {27, 20},
   {24, 31},
   {26, 20},
   {27, 22, 23},
   {25},
   {26, 22, 31},
   {25},
   {25, 26},
   {30},
   {24, 28},
   {29, 30},
   {29, 31},
   {27, 29},
   {28},
   {30},
   {32},
   {32},
   {32},
   {  } ];

deadline = array2d(1..32, 1..3, [8, 0, 0, 20, 3, 2, 30, 4, 3, 33, 1, 3, 34, 1, 3, 35, 0, 0, 42, 4, 1, 44, 3, 1, 48, 1, 5, 51, 0, 5, 62, 1, 1, 66, 1, 3, 73, 1, 0, 75, 0, 4, 76, 2, 0, 95, 0, 0, 95, 0, 2, 95, 5, 1, 100, 0, 4, 101, 3, 3, 108, 1, 4, 112, 1, 3, 113, 0, 3, 114, 3, 3, 121, 2, 1, 127, 2, 3, 127, 1, 5, 143, 2, 4, 146, 0, 1, 149, 0, 5, 153, 0, 4, 157, 4, 5]);
