n_res = 4;
rc = [ 30, 25, 36, 32 ];
n_tasks = 32;
d = [0, 10, 9, 8, 6, 1, 10, 10, 10, 8, 4, 10, 4, 8, 9, 1, 10, 1, 4, 2, 7, 2, 8, 6, 5, 6, 5, 2, 7, 8, 6, 0];
rr = array2d(1..4, 1..32, [0, 2, 10, 5, 4, 2, 2, 5, 4, 9, 4, 1, 6, 3, 3, 1, 5, 8, 7, 9, 4, 4, 5, 5, 3, 4, 4, 1, 7, 6, 10, 0, 0, 3, 4, 9, 6, 5, 10, 3, 3, 5, 4, 7, 5, 2, 5, 5, 3, 8, 9, 1, 5, 3, 3, 4, 6, 2, 3, 9, 3, 3, 5, 0, 0, 9, 1, 2, 3, 8, 8, 4, 2, 4, 7, 7, 2, 5, 7, 8, 6, 2, 9, 9, 9, 4, 2, 9, 1, 10, 10, 9, 7, 10, 6, 0, 0, 6, 6, 6, 6, 7, 5, 6, 7, 3, 7, 5, 6, 10, 5, 7, 3, 7, 2, 1, 4, 7, 8, 1, 5, 7, 9, 3, 2, 3, 1, 0]);

suc = [
   {2, 3, 4},
   {8, 6},
   {5, 6, 7},
   {16, 18, 22},
   {25, 11, 12},
   {9},
   {16, 12, 20},
   {16, 9},
   {10, 26, 22},
   {25, 29, 23},
   {14, 22},
   {31, 13, 15},
   {24, 17},
   {21, 15},
   {27},
   {17, 19},
   {27},
   {26, 29},
   {25},
   {27, 29, 23},
   {31},
   {24, 28},
   {24},
   {30},
   {28, 30},
   {28},
   {30},
   {31},
   {32},
   {32},
   {32},
   {  } ];

deadline = array2d(1..32, 1..3, [8, 2, 0, 16, 3, 0, 22, 1, 4, 25, 4, 5, 25, 4, 4, 25, 4, 3, 29, 0, 5, 29, 1, 4, 34, 3, 2, 36, 3, 1, 57, 0, 4, 57, 0, 5, 62, 5, 2, 70, 3, 2, 74, 3, 5, 77, 2, 0, 84, 3, 4, 101, 3, 3, 103, 4, 1, 109, 3, 5, 114, 2, 4, 128, 3, 3, 140, 1, 2, 141, 5, 0, 142, 5, 5, 143, 3, 5, 145, 5, 4, 148, 1, 1, 149, 0, 4, 149, 0, 5, 150, 1, 2, 150, 1, 4]);
