n_res = 4;
rc = [ 11, 10, 8, 10 ];
n_tasks = 32;
d = [0, 6, 6, 7, 6, 10, 7, 10, 4, 6, 8, 8, 8, 4, 2, 5, 2, 8, 1, 2, 7, 6, 9, 1, 5, 5, 2, 7, 2, 10, 9, 0];
rr = array2d(1..4, 1..32, [0, 0, 0, 0, 4, 0, 0, 0, 0, 2, 1, 0, 1, 0, 10, 2, 0, 0, 0, 0, 0, 0, 4, 0, 10, 0, 0, 2, 0, 7, 0, 0, 0, 0, 0, 0, 0, 0, 6, 0, 7, 0, 0, 4, 0, 0, 0, 0, 1, 0, 0, 0, 8, 3, 0, 0, 0, 0, 0, 0, 0, 0, 0, 0, 0, 0, 0, 0, 0, 8, 0, 0, 0, 0, 0, 0, 0, 0, 0, 0, 0, 0, 6, 1, 0, 0, 0, 3, 0, 8, 2, 0, 3, 0, 0, 0, 0, 2, 8, 2, 0, 0, 0, 9, 0, 0, 0, 0, 0, 7, 0, 0, 0, 4, 0, 0, 0, 0, 0, 0, 0, 0, 0, 0, 0, 0, 8, 0]);

suc = [
   {2, 3, 4},
   {11, 20, 28},
   {10, 6},
   {10, 5, 7},
   {8, 9, 21},
   {26, 11, 21},
   {21, 12, 13},
   {16, 19, 15},
   {11, 13, 23},
   {25, 20, 14},
   {18, 22},
   {17, 14, 22},
   {19, 22, 31},
   {16, 30, 15},
   {18, 23},
   {24, 27, 31},
   {18, 19, 23},
   {27},
   {25, 27, 20},
   {24, 26},
   {24, 28, 30},
   {25},
   {26, 28},
   {29},
   {30},
   {29},
   {29},
   {31},
   {32},
   {32},
   {32},
   {  } ];

deadline = array2d(1..32, 1..3, [6, 4, 1, 7, 4, 0, 8, 2, 2, 10, 4, 3, 11, 5, 5, 17, 2, 1, 23, 2, 0, 25, 3, 1, 33, 0, 3, 36, 4, 2, 51, 1, 1, 56, 5, 2, 58, 5, 2, 59, 5, 0, 61, 3, 5, 64, 5, 1, 64, 4, 0, 65, 4, 2, 66, 0, 1, 69, 5, 2, 72, 0, 2, 76, 5, 0, 84, 4, 0, 84, 0, 0, 94, 4, 5, 117, 1, 4, 118, 1, 1, 119, 5, 0, 120, 5, 3, 130, 5, 1, 132, 2, 1, 132, 0, 3]);
