n_res = 4;
rc = [ 23, 32, 31, 26 ];
n_tasks = 32;
d = [0, 5, 4, 1, 9, 4, 6, 3, 9, 1, 1, 10, 3, 9, 10, 8, 4, 4, 3, 5, 9, 8, 5, 10, 1, 6, 10, 2, 9, 6, 10, 0];
rr = array2d(1..4, 1..32, [0, 8, 8, 10, 8, 10, 4, 8, 7, 4, 3, 3, 3, 6, 4, 8, 3, 1, 5, 2, 3, 7, 2, 1, 1, 4, 7, 2, 3, 1, 4, 0, 0, 3, 7, 6, 1, 3, 4, 5, 7, 10, 2, 10, 8, 3, 10, 1, 7, 7, 4, 6, 6, 4, 2, 8, 1, 6, 7, 8, 2, 5, 4, 0, 0, 5, 3, 9, 7, 2, 1, 10, 4, 1, 8, 1, 10, 6, 1, 7, 10, 2, 6, 4, 5, 5, 5, 10, 6, 2, 10, 10, 3, 2, 2, 0, 0, 6, 6, 1, 3, 3, 7, 10, 6, 1, 7, 3, 7, 3, 4, 7, 5, 2, 9, 3, 7, 9, 7, 10, 9, 10, 7, 8, 4, 3, 4, 0]);

suc = [
   {2, 3, 4},
   {16, 10, 7},
   {12, 5, 6},
   {17, 19, 21},
   {17, 11, 14},
   {8, 9, 13},
   {8},
   {24, 18, 11},
   {27, 22, 23},
   {17, 18, 11},
   {25, 20, 15},
   {24, 18, 22},
   {24, 23, 15},
   {16, 26, 21},
   {29, 21},
   {25, 19, 23},
   {26, 20, 28},
   {25, 26, 19},
   {20, 31},
   {30},
   {22},
   {28},
   {28, 31},
   {29, 31},
   {27, 30},
   {27},
   {29},
   {30},
   {32},
   {32},
   {32},
   {  } ];

deadline = array2d(1..32, 1..3, [2, 4, 2, 7, 1, 5, 11, 5, 2, 19, 1, 0, 23, 4, 4, 27, 0, 3, 31, 5, 2, 33, 0, 1, 37, 5, 3, 38, 0, 1, 40, 3, 3, 42, 3, 4, 43, 0, 2, 50, 4, 1, 56, 5, 3, 63, 4, 0, 66, 4, 2, 66, 1, 4, 69, 5, 0, 76, 1, 5, 80, 3, 2, 80, 5, 2, 84, 1, 3, 86, 2, 0, 87, 3, 2, 88, 3, 3, 100, 4, 1, 107, 2, 3, 109, 2, 0, 109, 2, 1, 110, 1, 5, 114, 2, 3]);
