n_res = 4;
rc = [ 14, 12, 12, 11 ];
n_tasks = 32;
d = [0, 3, 4, 2, 10, 9, 5, 3, 9, 5, 7, 6, 1, 9, 4, 8, 9, 9, 4, 2, 4, 2, 5, 4, 9, 1, 10, 8, 7, 7, 8, 0];
rr = array2d(1..4, 1..32, [0, 0, 4, 4, 6, 0, 4, 5, 4, 10, 8, 2, 0, 5, 1, 2, 5, 1, 0, 0, 9, 5, 0, 3, 0, 4, 6, 6, 6, 9, 0, 0, 0, 0, 9, 0, 2, 9, 0, 3, 0, 4, 0, 9, 0, 4, 0, 0, 0, 7, 10, 0, 3, 0, 3, 0, 3, 0, 0, 5, 0, 0, 0, 0, 0, 0, 1, 2, 10, 10, 0, 5, 6, 0, 9, 0, 4, 0, 0, 0, 0, 0, 6, 0, 0, 0, 0, 5, 6, 4, 0, 0, 0, 0, 4, 0, 0, 4, 4, 0, 0, 0, 0, 2, 0, 0, 0, 2, 0, 6, 0, 9, 1, 6, 0, 6, 0, 0, 1, 4, 8, 0, 0, 10, 0, 0, 0, 0]);

suc = [
   {2, 3, 4},
   {21, 26, 5},
   {16},
   {14},
   {8, 10, 6},
   {9, 12, 7},
   {17, 18, 11},
   {20},
   {11, 15},
   {12, 28},
   {13},
   {19, 15},
   {30},
   {23},
   {30},
   {18},
   {24},
   {24},
   {22},
   {27},
   {24, 27, 31},
   {31},
   {27, 28},
   {25},
   {29},
   {30, 31},
   {29},
   {29},
   {32},
   {32},
   {32},
   {  } ];

deadline = array2d(1..32, 1..3, [14, 4, 4, 15, 3, 0, 17, 4, 0, 19, 2, 1, 25, 0, 5, 35, 4, 1, 53, 0, 4, 54, 2, 4, 59, 5, 2, 61, 4, 3, 64, 1, 2, 64, 3, 5, 68, 2, 5, 74, 2, 2, 76, 0, 1, 77, 0, 1, 78, 1, 2, 81, 1, 5, 86, 1, 2, 89, 4, 0, 91, 0, 0, 93, 0, 2, 95, 5, 3, 105, 5, 5, 107, 1, 0, 114, 5, 5, 117, 0, 4, 119, 0, 5, 125, 1, 4, 137, 0, 0, 138, 2, 5, 140, 1, 3]);
