n_res = 4;
rc = [ 24, 10, 22, 15 ];
n_tasks = 32;
d = [0, 6, 10, 8, 3, 1, 8, 10, 1, 9, 4, 10, 4, 9, 5, 3, 7, 9, 2, 6, 1, 1, 1, 3, 6, 9, 10, 5, 6, 9, 3, 0];
rr = array2d(1..4, 1..32, [0, 0, 2, 0, 0, 10, 5, 2, 0, 4, 0, 0, 9, 3, 1, 9, 0, 0, 0, 9, 9, 4, 9, 0, 0, 7, 0, 0, 0, 8, 0, 0, 0, 1, 0, 0, 3, 0, 0, 0, 2, 0, 1, 1, 0, 0, 0, 0, 0, 4, 0, 0, 3, 1, 6, 8, 3, 0, 3, 1, 5, 0, 0, 0, 0, 9, 0, 5, 6, 0, 10, 3, 5, 0, 5, 10, 6, 0, 2, 2, 0, 5, 5, 0, 0, 3, 2, 3, 0, 0, 5, 2, 0, 0, 9, 0, 0, 2, 0, 8, 8, 0, 1, 0, 8, 0, 0, 9, 0, 1, 7, 0, 6, 5, 0, 0, 0, 4, 0, 0, 0, 0, 0, 0, 1, 1, 0, 0]);

suc = [
   {2, 3, 4},
   {9, 20, 7},
   {11, 5},
   {10, 20, 22},
   {8, 6, 31},
   {16, 24},
   {18, 26},
   {16, 12, 14},
   {11, 29, 23},
   {12},
   {27},
   {23, 13, 15},
   {17, 19, 21},
   {17},
   {18},
   {17, 19, 22},
   {25, 26, 28},
   {28, 21},
   {25, 26, 30},
   {23},
   {25},
   {27},
   {24, 27},
   {28},
   {29},
   {29},
   {30},
   {30},
   {32},
   {32},
   {32},
   {  } ];

deadline = array2d(1..32, 1..3, [5, 4, 2, 9, 1, 1, 11, 4, 0, 26, 5, 1, 38, 0, 3, 44, 2, 0, 46, 5, 0, 47, 0, 3, 48, 3, 0, 58, 4, 5, 64, 1, 0, 74, 4, 2, 86, 3, 3, 88, 0, 0, 89, 5, 0, 95, 4, 5, 95, 1, 5, 98, 4, 4, 103, 3, 3, 108, 2, 5, 113, 5, 3, 113, 2, 3, 120, 0, 4, 121, 1, 3, 124, 3, 4, 130, 4, 1, 131, 4, 3, 135, 0, 2, 138, 5, 4, 147, 4, 3, 151, 1, 0, 151, 2, 3]);
