n_res = 4;
rc = [ 40, 29, 22, 29 ];
n_tasks = 32;
d = [0, 6, 5, 3, 3, 8, 6, 8, 8, 6, 10, 8, 8, 6, 5, 2, 9, 7, 5, 4, 3, 10, 8, 6, 1, 8, 6, 5, 8, 1, 9, 0];
rr = array2d(1..4, 1..32, [0, 5, 5, 8, 3, 7, 1, 0, 0, 0, 9, 0, 5, 0, 10, 8, 0, 5, 0, 2, 0, 0, 0, 0, 9, 7, 5, 0, 0, 10, 0, 0, 0, 0, 2, 0, 0, 6, 0, 7, 0, 8, 0, 0, 2, 0, 7, 3, 0, 5, 4, 0, 6, 5, 0, 7, 5, 0, 0, 0, 9, 0, 8, 0, 0, 0, 8, 0, 5, 0, 1, 0, 9, 2, 0, 2, 2, 0, 2, 0, 0, 0, 0, 8, 0, 0, 0, 0, 6, 4, 8, 10, 0, 5, 0, 0, 0, 0, 10, 0, 0, 0, 0, 9, 0, 0, 0, 7, 0, 5, 4, 1, 9, 6, 1, 0, 5, 3, 9, 3, 0, 0, 7, 0, 5, 7, 0, 0]);

suc = [
   {2, 3, 4},
   {8, 5},
   {9, 11, 20},
   {9, 12},
   {6},
   {22, 7},
   {29},
   {25, 14, 15},
   {10, 13, 23},
   {19},
   {12, 21},
   {29},
   {16, 17},
   {24, 18},
   {18, 22},
   {18, 21},
   {24, 31},
   {28},
   {24},
   {27},
   {30},
   {28},
   {29},
   {26},
   {26},
   {27},
   {30},
   {31},
   {32},
   {32},
   {32},
   {  } ];

deadline = array2d(1..32, 1..3, [3, 5, 0, 4, 1, 3, 7, 2, 5, 13, 5, 4, 15, 3, 3, 23, 4, 2, 24, 5, 5, 30, 4, 2, 37, 2, 5, 43, 1, 1, 47, 0, 3, 49, 1, 0, 51, 0, 5, 52, 0, 2, 56, 2, 5, 72, 5, 0, 72, 2, 1, 79, 1, 4, 85, 4, 4, 85, 5, 2, 88, 3, 3, 90, 0, 4, 91, 5, 2, 94, 1, 1, 95, 3, 2, 103, 5, 4, 103, 5, 3, 103, 5, 2, 105, 5, 5, 109, 5, 3, 124, 0, 0, 127, 2, 0]);
