n_res = 4;
rc = [ 29, 24, 34, 23 ];
n_tasks = 32;
d = [0, 10, 8, 5, 2, 5, 10, 3, 6, 4, 4, 10, 2, 2, 1, 10, 7, 1, 6, 6, 2, 9, 7, 5, 8, 9, 9, 9, 7, 2, 3, 0];
rr = array2d(1..4, 1..32, [0, 0, 7, 3, 1, 5, 1, 4, 10, 1, 10, 2, 7, 2, 0, 3, 9, 0, 0, 0, 1, 10, 8, 0, 0, 2, 0, 7, 3, 1, 0, 0, 0, 3, 0, 1, 5, 3, 3, 0, 9, 0, 0, 7, 1, 9, 9, 4, 10, 3, 8, 0, 5, 10, 0, 0, 9, 0, 5, 0, 1, 0, 7, 0, 0, 0, 4, 7, 7, 9, 8, 1, 5, 0, 7, 10, 0, 7, 10, 9, 0, 9, 8, 7, 10, 1, 1, 9, 3, 10, 3, 7, 10, 8, 9, 0, 0, 6, 7, 9, 8, 5, 7, 7, 10, 6, 4, 1, 0, 10, 10, 0, 8, 0, 0, 3, 4, 2, 2, 9, 0, 7, 6, 5, 1, 0, 8, 0]);

suc = [
   {2, 3, 4},
   {12, 5, 7},
   {5, 6, 14},
   {17, 5, 6},
   {29, 22},
   {8, 9, 19},
   {8, 14},
   {11, 22, 15},
   {10},
   {16, 18, 13},
   {18, 26},
   {17, 18, 23},
   {25, 28, 21},
   {16, 17, 20},
   {25, 20, 23},
   {23},
   {24, 19, 22},
   {24, 20, 21},
   {26, 29, 21},
   {27},
   {27},
   {25, 27, 28},
   {24, 30},
   {28, 29},
   {26, 31},
   {30},
   {30, 31},
   {31},
   {32},
   {32},
   {32},
   {  } ];

deadline = array2d(1..32, 1..3, [1, 0, 2, 5, 4, 1, 9, 5, 0, 13, 1, 3, 23, 3, 2, 28, 5, 3, 39, 4, 1, 48, 3, 4, 48, 4, 3, 53, 1, 4, 56, 4, 3, 62, 1, 3, 64, 0, 3, 75, 3, 2, 78, 2, 0, 86, 1, 5, 93, 3, 0, 95, 1, 2, 97, 4, 5, 101, 4, 1, 103, 4, 2, 105, 4, 2, 105, 5, 5, 107, 3, 5, 108, 1, 4, 110, 2, 2, 118, 1, 4, 127, 3, 5, 128, 4, 1, 129, 5, 5, 138, 1, 4, 141, 4, 1]);
