n_res = 4;
rc = [ 13, 13, 12, 15 ];
n_tasks = 32;
d = [0, 10, 4, 1, 3, 5, 10, 1, 4, 6, 8, 7, 7, 4, 3, 10, 3, 4, 3, 7, 5, 1, 10, 8, 1, 6, 4, 7, 6, 9, 4, 0];
rr = array2d(1..4, 1..32, [0, 5, 10, 5, 0, 3, 0, 0, 5, 1, 2, 0, 10, 0, 9, 3, 10, 0, 6, 0, 0, 2, 0, 1, 1, 0, 0, 0, 0, 0, 9, 0, 0, 0, 0, 0, 0, 0, 0, 4, 0, 4, 0, 10, 0, 6, 0, 5, 4, 1, 6, 6, 0, 8, 0, 0, 0, 3, 0, 9, 7, 0, 0, 0, 0, 0, 5, 1, 10, 0, 5, 0, 0, 4, 0, 7, 0, 0, 3, 0, 3, 0, 0, 0, 5, 2, 0, 8, 0, 0, 4, 0, 0, 4, 1, 0, 0, 8, 0, 0, 5, 0, 0, 0, 7, 8, 1, 6, 5, 0, 10, 0, 10, 1, 1, 0, 0, 1, 1, 2, 8, 8, 0, 0, 0, 4, 7, 0]);

suc = [
   {2, 3, 4},
   {12, 23},
   {8, 17, 5},
   {24, 19, 6},
   {10, 26, 7},
   {16, 28, 22},
   {9},
   {11},
   {24},
   {13, 22},
   {25, 15},
   {26},
   {14},
   {20, 28},
   {24},
   {21},
   {18},
   {27},
   {20, 21, 30},
   {29},
   {23},
   {25, 30},
   {27},
   {27},
   {31},
   {29},
   {29},
   {31},
   {32},
   {32},
   {32},
   {  } ];

deadline = array2d(1..32, 1..3, [5, 2, 0, 9, 5, 4, 13, 4, 2, 20, 5, 1, 21, 1, 2, 25, 5, 4, 28, 0, 2, 28, 0, 2, 42, 3, 0, 42, 5, 5, 55, 4, 5, 55, 3, 3, 58, 4, 2, 59, 0, 2, 61, 0, 3, 66, 1, 2, 75, 1, 0, 77, 3, 0, 77, 4, 4, 78, 1, 0, 79, 5, 2, 80, 3, 0, 84, 3, 1, 89, 5, 5, 93, 0, 5, 93, 1, 1, 94, 4, 3, 95, 0, 4, 97, 4, 3, 99, 2, 5, 100, 4, 5, 102, 5, 1]);
