n_res = 4;
rc = [ 30, 28, 26, 33 ];
n_tasks = 32;
d = [0, 7, 3, 5, 4, 3, 4, 1, 2, 4, 7, 1, 5, 7, 3, 4, 9, 5, 6, 5, 10, 6, 7, 5, 3, 1, 6, 3, 5, 6, 6, 0];
rr = array2d(1..4, 1..32, [0, 2, 10, 3, 10, 5, 2, 6, 10, 6, 6, 9, 1, 9, 8, 6, 7, 10, 4, 2, 3, 8, 3, 5, 8, 7, 3, 10, 6, 1, 5, 0, 0, 2, 2, 4, 5, 5, 1, 3, 10, 5, 8, 7, 4, 9, 5, 4, 6, 3, 7, 1, 4, 6, 1, 9, 3, 3, 4, 7, 10, 8, 8, 0, 0, 6, 5, 4, 7, 8, 8, 6, 10, 6, 10, 1, 2, 6, 1, 6, 2, 4, 3, 7, 1, 3, 5, 1, 1, 5, 3, 3, 1, 5, 6, 0, 0, 2, 9, 8, 7, 8, 9, 10, 6, 8, 1, 5, 3, 10, 2, 9, 1, 8, 8, 9, 6, 7, 8, 2, 5, 4, 10, 4, 10, 9, 3, 0]);

suc = [
   {2, 3, 4},
   {15},
   {8, 10, 6},
   {5},
   {25, 7},
   {9, 19, 13},
   {11},
   {14, 23},
   {12, 31},
   {16, 26, 20},
   {27},
   {17, 22},
   {16},
   {18, 20},
   {29, 21, 23},
   {28, 22},
   {25},
   {24, 30},
   {21},
   {22},
   {30},
   {25},
   {30},
   {28},
   {29},
   {31},
   {28},
   {29},
   {32},
   {32},
   {32},
   {  } ];

deadline = array2d(1..32, 1..3, [1, 5, 5, 5, 0, 2, 8, 3, 2, 11, 3, 3, 13, 1, 2, 17, 0, 5, 23, 3, 5, 26, 1, 3, 28, 1, 1, 28, 2, 5, 29, 3, 0, 30, 2, 5, 32, 4, 2, 37, 4, 3, 40, 1, 2, 40, 1, 3, 42, 5, 0, 46, 4, 2, 50, 1, 2, 51, 0, 3, 51, 3, 3, 51, 1, 5, 54, 5, 5, 57, 4, 5, 58, 3, 4, 60, 0, 0, 62, 3, 1, 68, 0, 5, 73, 1, 4, 74, 3, 4, 79, 1, 1, 82, 0, 1]);
