n_res = 4;
rc = [ 10, 22, 26, 13 ];
n_tasks = 32;
d = [0, 4, 7, 7, 8, 2, 2, 2, 2, 2, 9, 2, 3, 7, 3, 7, 4, 1, 5, 1, 3, 2, 10, 6, 8, 5, 5, 4, 6, 7, 8, 0];
rr = array2d(1..4, 1..32, [0, 0, 0, 4, 0, 0, 0, 0, 0, 0, 0, 0, 10, 0, 0, 0, 0, 0, 0, 0, 0, 0, 0, 0, 0, 3, 0, 0, 0, 0, 0, 0, 0, 0, 0, 0, 0, 0, 0, 0, 0, 0, 0, 0, 0, 0, 0, 0, 3, 0, 0, 1, 5, 8, 9, 10, 5, 0, 0, 7, 0, 3, 0, 0, 0, 3, 6, 0, 4, 3, 10, 6, 0, 10, 6, 6, 0, 0, 0, 1, 0, 0, 0, 0, 0, 0, 0, 0, 0, 0, 0, 0, 4, 0, 0, 0, 0, 0, 0, 0, 0, 0, 0, 0, 6, 0, 0, 0, 0, 6, 7, 0, 0, 4, 9, 0, 0, 0, 0, 0, 0, 0, 10, 0, 0, 0, 2, 0]);

suc = [
   {2, 3, 4},
   {9, 6, 7},
   {10, 22},
   {5},
   {21},
   {8, 19, 30},
   {12},
   {26, 11},
   {14},
   {16, 18},
   {24, 18, 13},
   {16, 15},
   {15},
   {19},
   {17, 20, 31},
   {23},
   {28},
   {29},
   {25, 27},
   {28},
   {30, 23},
   {23},
   {25, 27},
   {31},
   {26},
   {31},
   {28},
   {29},
   {32},
   {32},
   {32},
   {  } ];

deadline = array2d(1..32, 1..3, [1, 3, 4, 1, 4, 5, 3, 0, 4, 6, 0, 0, 7, 3, 5, 8, 2, 0, 9, 0, 2, 16, 2, 1, 21, 5, 3, 25, 2, 2, 29, 5, 3, 29, 5, 1, 30, 0, 4, 30, 1, 2, 31, 5, 1, 55, 1, 0, 57, 0, 2, 60, 1, 4, 61, 0, 0, 62, 0, 4, 67, 0, 5, 77, 4, 4, 79, 1, 1, 88, 1, 0, 98, 2, 2, 101, 3, 3, 101, 4, 3, 103, 2, 5, 108, 3, 3, 112, 1, 4, 116, 4, 3, 116, 1, 4]);
