n_res = 4;
rc = [ 11, 11, 9, 7 ];
n_tasks = 32;
d = [0, 1, 2, 9, 7, 1, 9, 7, 5, 4, 1, 7, 3, 3, 10, 2, 10, 6, 8, 10, 2, 2, 6, 7, 10, 2, 7, 4, 10, 10, 4, 0];
rr = array2d(1..4, 1..32, [0, 0, 0, 0, 0, 9, 0, 0, 9, 0, 4, 0, 0, 0, 0, 0, 1, 0, 0, 0, 0, 0, 0, 9, 4, 0, 7, 0, 0, 1, 0, 0, 0, 0, 2, 9, 9, 0, 0, 0, 0, 0, 0, 0, 0, 0, 0, 2, 0, 0, 7, 0, 0, 0, 0, 0, 0, 0, 0, 0, 1, 0, 0, 0, 0, 0, 0, 0, 0, 0, 8, 0, 0, 6, 0, 7, 0, 2, 1, 0, 0, 7, 0, 0, 4, 1, 0, 0, 0, 0, 0, 1, 0, 0, 3, 0, 0, 1, 0, 0, 0, 0, 0, 3, 0, 0, 0, 0, 5, 0, 0, 0, 0, 0, 0, 6, 0, 0, 1, 0, 0, 3, 0, 0, 0, 0, 0, 0]);

suc = [
   {2, 3, 4},
   {17, 11, 5},
   {10, 13, 7},
   {8, 17, 11},
   {9, 20, 6},
   {8, 12, 21},
   {8, 20, 15},
   {24, 19, 14},
   {16, 21, 15},
   {17, 11, 20},
   {16, 12},
   {25, 18},
   {24, 27, 19},
   {25, 27, 22},
   {26, 23},
   {25, 18, 27},
   {30, 23},
   {24, 19, 22},
   {31},
   {26, 29, 23},
   {29, 22},
   {30},
   {31},
   {26},
   {28},
   {28, 30},
   {28, 29},
   {31},
   {32},
   {32},
   {32},
   {  } ];

deadline = array2d(1..32, 1..3, [1, 0, 0, 2, 0, 5, 4, 0, 2, 5, 5, 0, 13, 0, 0, 16, 3, 4, 17, 5, 1, 17, 3, 5, 19, 4, 5, 19, 1, 0, 20, 2, 3, 20, 1, 3, 22, 2, 0, 25, 4, 4, 39, 2, 1, 42, 3, 5, 46, 5, 4, 49, 4, 5, 50, 2, 5, 55, 1, 4, 58, 2, 2, 62, 3, 0, 75, 5, 0, 76, 1, 1, 78, 4, 1, 83, 3, 4, 89, 3, 4, 93, 2, 4, 93, 1, 3, 96, 3, 1, 101, 4, 2, 102, 5, 1]);
