n_res = 4;
rc = [ 14, 9, 15, 17 ];
n_tasks = 32;
d = [0, 4, 5, 10, 8, 8, 5, 7, 8, 3, 9, 3, 6, 6, 8, 6, 10, 2, 6, 6, 4, 1, 2, 8, 5, 3, 5, 1, 3, 9, 2, 0];
rr = array2d(1..4, 1..32, [0, 0, 0, 2, 0, 0, 0, 0, 0, 0, 0, 0, 0, 0, 0, 0, 8, 7, 0, 4, 0, 0, 0, 0, 0, 0, 0, 0, 0, 0, 10, 0, 0, 9, 0, 0, 0, 0, 0, 0, 0, 0, 2, 0, 0, 5, 0, 0, 0, 0, 1, 0, 0, 0, 0, 0, 8, 0, 2, 0, 0, 0, 0, 0, 0, 0, 7, 0, 0, 0, 9, 6, 0, 0, 0, 0, 2, 0, 0, 8, 0, 0, 0, 0, 0, 0, 0, 8, 0, 0, 0, 9, 0, 0, 0, 0, 0, 0, 0, 0, 8, 6, 0, 0, 3, 1, 0, 9, 0, 0, 6, 0, 0, 0, 0, 0, 9, 9, 7, 0, 0, 1, 0, 0, 3, 2, 0, 0]);

suc = [
   {2, 3, 4},
   {19, 12, 5},
   {9, 15},
   {10, 6, 7},
   {8, 17, 14},
   {13, 14},
   {16, 24, 15},
   {13},
   {17, 19, 14},
   {11, 22, 15},
   {18},
   {22},
   {26},
   {16, 29, 23},
   {20},
   {30},
   {27, 29},
   {21},
   {24, 23},
   {26, 28},
   {25, 31},
   {28, 23},
   {25},
   {26, 27, 28},
   {27},
   {29, 31},
   {30},
   {30, 31},
   {32},
   {32},
   {32},
   {  } ];

deadline = array2d(1..32, 1..3, [4, 2, 2, 10, 2, 5, 12, 3, 2, 14, 2, 4, 21, 1, 4, 42, 5, 0, 55, 1, 2, 58, 4, 0, 59, 1, 3, 59, 1, 0, 61, 5, 0, 61, 4, 3, 62, 2, 5, 64, 4, 0, 66, 0, 3, 69, 1, 1, 72, 2, 4, 73, 1, 2, 74, 4, 2, 78, 2, 1, 82, 0, 5, 83, 5, 3, 87, 1, 1, 89, 4, 0, 89, 4, 3, 93, 0, 5, 99, 2, 4, 104, 5, 2, 104, 5, 0, 112, 3, 3, 114, 4, 4, 114, 2, 3]);
