n_res = 4;
rc = [ 12, 11, 14, 10 ];
n_tasks = 32;
d = [0, 3, 4, 4, 9, 10, 10, 3, 5, 6, 5, 2, 3, 3, 1, 7, 6, 5, 2, 8, 6, 8, 8, 8, 2, 8, 1, 6, 6, 6, 1, 0];
rr = array2d(1..4, 1..32, [0, 0, 9, 0, 0, 0, 0, 0, 0, 0, 0, 0, 10, 0, 0, 0, 0, 7, 0, 8, 0, 0, 0, 0, 0, 4, 0, 3, 0, 0, 0, 0, 0, 7, 0, 10, 0, 0, 0, 0, 0, 0, 0, 0, 0, 0, 0, 8, 0, 0, 0, 0, 0, 0, 0, 3, 5, 0, 0, 0, 0, 8, 1, 0, 0, 0, 0, 0, 1, 10, 10, 0, 0, 8, 0, 0, 0, 0, 0, 0, 0, 0, 0, 0, 1, 6, 0, 0, 0, 0, 8, 0, 7, 0, 0, 0, 0, 0, 0, 0, 0, 0, 0, 1, 6, 0, 1, 3, 0, 3, 7, 0, 6, 0, 3, 0, 0, 0, 9, 0, 0, 0, 0, 0, 0, 0, 0, 0]);

suc = [
   {2, 3, 4},
   {8, 5, 6},
   {16, 18, 11},
   {9, 14},
   {10, 11, 7},
   {18, 12, 22},
   {16, 9, 12},
   {18, 26, 15},
   {29, 22, 15},
   {16, 17, 25},
   {19, 20, 14},
   {24, 20, 13},
   {17, 21, 14},
   {23, 29, 15},
   {25, 27},
   {24, 19, 23},
   {27, 28},
   {21},
   {26, 22},
   {25, 21, 23},
   {28, 29},
   {28},
   {31},
   {26},
   {30},
   {27, 31},
   {30},
   {30, 31},
   {32},
   {32},
   {32},
   {  } ];

deadline = array2d(1..32, 1..3, [4, 5, 2, 9, 2, 2, 11, 5, 5, 15, 2, 3, 16, 5, 3, 22, 3, 0, 24, 0, 2, 27, 4, 1, 30, 4, 0, 30, 4, 4, 30, 4, 0, 32, 0, 5, 34, 0, 0, 39, 3, 4, 40, 3, 3, 53, 4, 5, 58, 4, 0, 69, 0, 4, 76, 4, 2, 78, 5, 3, 92, 0, 2, 92, 5, 3, 97, 2, 5, 98, 2, 3, 106, 2, 1, 107, 1, 5, 107, 1, 2, 109, 4, 5, 111, 1, 3, 112, 2, 5, 118, 4, 0, 127, 3, 1]);
