n_res = 4;
rc = [ 15, 14, 10, 13 ];
n_tasks = 32;
d = [0, 2, 7, 9, 7, 6, 2, 2, 8, 6, 8, 2, 1, 9, 3, 7, 2, 3, 7, 8, 6, 6, 2, 3, 8, 6, 9, 4, 8, 2, 9, 0];
rr = array2d(1..4, 1..32, [0, 0, 0, 8, 2, 8, 0, 0, 0, 1, 10, 7, 9, 9, 0, 0, 0, 0, 3, 0, 4, 0, 6, 4, 7, 6, 0, 0, 4, 0, 5, 0, 0, 9, 0, 6, 9, 0, 8, 10, 3, 0, 6, 3, 0, 0, 4, 9, 0, 0, 3, 2, 0, 0, 10, 7, 0, 10, 3, 0, 8, 4, 0, 0, 0, 0, 2, 0, 2, 2, 0, 7, 0, 0, 0, 0, 0, 3, 0, 5, 2, 5, 0, 0, 0, 2, 0, 0, 6, 5, 0, 0, 9, 0, 0, 0, 0, 0, 0, 3, 0, 0, 0, 0, 0, 10, 6, 0, 3, 9, 2, 0, 0, 9, 7, 9, 0, 0, 5, 0, 0, 0, 9, 8, 10, 5, 5, 0]);

suc = [
   {2, 3, 4},
   {5, 6, 7},
   {10, 14, 15},
   {8, 5, 7},
   {17, 12, 13},
   {18, 11, 13},
   {9, 28, 14},
   {25, 14, 22},
   {12, 21, 31},
   {11},
   {16, 17},
   {16, 24},
   {16, 19, 22},
   {24, 21, 23},
   {25, 20, 22},
   {30},
   {19, 20},
   {25, 19, 21},
   {28, 29, 23},
   {27, 23},
   {26, 29},
   {24, 27},
   {26, 31},
   {29},
   {26, 27, 31},
   {30},
   {28},
   {30},
   {32},
   {32},
   {32},
   {  } ];

deadline = array2d(1..32, 1..3, [3, 5, 0, 5, 0, 2, 7, 5, 3, 7, 0, 5, 9, 1, 1, 10, 1, 5, 16, 3, 0, 19, 2, 4, 21, 3, 0, 26, 2, 3, 30, 1, 0, 32, 1, 3, 36, 4, 2, 45, 4, 5, 47, 2, 4, 47, 0, 3, 47, 1, 4, 48, 3, 0, 51, 2, 3, 53, 1, 5, 60, 4, 0, 60, 5, 2, 65, 2, 2, 67, 5, 3, 69, 5, 4, 77, 1, 5, 85, 4, 5, 98, 0, 5, 100, 3, 5, 107, 5, 2, 111, 3, 2, 115, 3, 0]);
