n_res = 4;
rc = [ 19, 19, 25, 14 ];
n_tasks = 32;
d = [0, 10, 10, 4, 9, 5, 7, 2, 7, 2, 3, 7, 5, 2, 7, 9, 3, 7, 5, 3, 6, 6, 4, 6, 7, 10, 9, 5, 10, 5, 3, 0];
rr = array2d(1..4, 1..32, [0, 4, 10, 5, 9, 4, 9, 0, 1, 9, 0, 7, 0, 0, 0, 0, 0, 4, 9, 0, 4, 0, 10, 7, 4, 9, 3, 0, 0, 0, 8, 0, 0, 0, 0, 0, 5, 4, 3, 0, 2, 10, 0, 9, 0, 0, 0, 10, 0, 4, 5, 7, 1, 4, 0, 0, 0, 3, 0, 0, 0, 0, 0, 0, 0, 0, 0, 0, 0, 7, 0, 8, 0, 0, 0, 10, 0, 4, 10, 0, 4, 0, 0, 10, 0, 0, 7, 8, 3, 9, 5, 6, 0, 5, 0, 0, 0, 7, 0, 0, 0, 9, 5, 0, 0, 7, 10, 3, 8, 0, 7, 0, 1, 7, 0, 0, 0, 4, 4, 0, 0, 2, 0, 7, 2, 4, 0, 0]);

suc = [
   {2, 3, 4},
   {6, 22},
   {5},
   {20, 7},
   {8, 11, 20},
   {17, 14, 15},
   {10, 15},
   {9, 31},
   {18},
   {11, 13},
   {12},
   {29},
   {24, 28},
   {16, 18},
   {26, 27},
   {21},
   {25, 19},
   {19},
   {23},
   {22},
   {31},
   {28},
   {29},
   {29, 30},
   {27},
   {28},
   {30, 31},
   {30},
   {32},
   {32},
   {32},
   {  } ];

deadline = array2d(1..32, 1..3, [4, 0, 3, 5, 0, 1, 6, 1, 0, 11, 3, 0, 15, 5, 5, 19, 2, 2, 19, 0, 5, 28, 4, 3, 34, 1, 0, 36, 1, 4, 40, 2, 2, 46, 4, 0, 49, 0, 5, 49, 0, 3, 52, 5, 4, 52, 5, 0, 54, 0, 3, 65, 0, 3, 66, 4, 1, 66, 0, 4, 72, 3, 3, 92, 5, 4, 93, 5, 5, 93, 4, 3, 94, 5, 2, 94, 5, 2, 96, 5, 2, 98, 4, 3, 110, 1, 2, 112, 4, 4, 119, 4, 1, 122, 2, 0]);
