n_res = 4;
rc = [ 12, 12, 15, 15 ];
n_tasks = 32;
d = [0, 4, 6, 9, 1, 1, 3, 10, 9, 7, 3, 4, 6, 3, 7, 4, 2, 9, 1, 7, 7, 2, 1, 4, 5, 7, 2, 1, 8, 9, 10, 0];
rr = array2d(1..4, 1..32, [0, 1, 3, 4, 0, 7, 3, 4, 6, 2, 4, 4, 5, 5, 2, 0, 2, 2, 1, 1, 5, 10, 0, 2, 0, 3, 10, 8, 8, 8, 4, 0, 0, 0, 0, 0, 3, 0, 8, 1, 3, 0, 3, 7, 3, 0, 2, 7, 0, 4, 0, 7, 6, 0, 0, 0, 3, 1, 5, 4, 9, 2, 0, 0, 0, 0, 9, 9, 9, 9, 0, 7, 3, 9, 9, 10, 3, 0, 0, 2, 8, 0, 0, 2, 2, 4, 6, 0, 8, 5, 3, 2, 7, 1, 8, 0, 0, 1, 0, 0, 8, 10, 10, 6, 3, 9, 3, 2, 10, 7, 4, 3, 10, 4, 5, 0, 10, 3, 4, 10, 9, 0, 4, 0, 0, 10, 6, 0]);

suc = [
   {2, 3, 4},
   {23, 6, 14},
   {8, 9, 5},
   {9, 11, 17},
   {24, 17, 12},
   {9, 10, 7},
   {8, 12, 21},
   {22, 30},
   {24, 22, 15},
   {18, 12},
   {19, 13, 15},
   {16, 20},
   {16, 24, 23},
   {26, 19, 15},
   {20, 21},
   {26},
   {31, 23},
   {26, 19, 20},
   {28, 21, 22},
   {25},
   {27, 30},
   {31},
   {25, 29},
   {25, 27, 29},
   {28},
   {27, 28, 29},
   {31},
   {30},
   {32},
   {32},
   {32},
   {  } ];

deadline = array2d(1..32, 1..3, [5, 5, 1, 9, 4, 1, 12, 1, 1, 12, 3, 1, 15, 5, 4, 23, 3, 2, 30, 0, 2, 32, 4, 0, 33, 0, 2, 34, 5, 2, 36, 4, 3, 38, 4, 5, 38, 0, 3, 40, 3, 4, 40, 4, 5, 41, 0, 1, 51, 0, 3, 54, 2, 3, 56, 3, 2, 57, 1, 5, 58, 4, 4, 58, 5, 2, 71, 1, 1, 73, 1, 3, 85, 0, 1, 86, 5, 3, 93, 5, 3, 98, 4, 0, 102, 5, 2, 102, 1, 5, 104, 4, 0, 105, 0, 1]);
