n_res = 4;
rc = [ 18, 14, 19, 14 ];
n_tasks = 32;
d = [0, 9, 3, 9, 3, 7, 10, 1, 5, 9, 3, 4, 8, 9, 9, 1, 9, 1, 2, 2, 6, 4, 9, 9, 8, 4, 1, 1, 7, 9, 4, 0];
rr = array2d(1..4, 1..32, [0, 9, 0, 8, 0, 0, 0, 0, 0, 0, 0, 5, 0, 1, 0, 0, 0, 0, 0, 0, 7, 0, 0, 0, 5, 9, 6, 0, 0, 0, 0, 0, 0, 0, 0, 0, 0, 0, 8, 0, 0, 0, 6, 0, 0, 0, 0, 0, 0, 0, 0, 0, 0, 0, 0, 5, 0, 0, 0, 0, 5, 0, 7, 0, 0, 0, 4, 0, 3, 5, 0, 5, 0, 2, 0, 0, 3, 0, 0, 0, 0, 0, 6, 0, 0, 1, 0, 0, 0, 0, 0, 0, 0, 1, 0, 0, 0, 0, 0, 0, 0, 0, 0, 0, 10, 0, 0, 0, 0, 0, 4, 7, 3, 10, 0, 8, 0, 0, 10, 0, 0, 0, 0, 3, 0, 0, 0, 0]);

suc = [
   {2, 3, 4},
   {25, 12, 6},
   {28, 5, 7},
   {9, 11, 17},
   {17, 18},
   {10, 20, 22},
   {8, 13, 14},
   {16, 23},
   {26, 14, 15},
   {24, 28, 21},
   {16, 24, 19},
   {26},
   {25},
   {21, 22},
   {20},
   {27, 21},
   {20},
   {24, 27},
   {28},
   {23},
   {29, 31},
   {27, 23},
   {29, 31},
   {30, 31},
   {26},
   {30},
   {30},
   {29},
   {32},
   {32},
   {32},
   {  } ];

deadline = array2d(1..32, 1..3, [4, 2, 3, 5, 2, 5, 5, 0, 0, 11, 1, 2, 13, 2, 0, 14, 0, 2, 15, 2, 0, 23, 0, 4, 25, 0, 3, 28, 0, 2, 30, 2, 3, 32, 0, 3, 32, 3, 3, 35, 1, 4, 41, 3, 5, 41, 1, 3, 48, 1, 2, 52, 2, 2, 55, 4, 4, 61, 3, 1, 64, 0, 3, 64, 0, 5, 67, 4, 1, 68, 5, 5, 73, 4, 5, 80, 0, 0, 81, 5, 3, 85, 1, 2, 89, 5, 0, 95, 5, 1, 97, 3, 2, 104, 4, 0]);
