n_res = 4;
rc = [ 18, 11, 16, 23 ];
n_tasks = 32;
d = [0, 6, 5, 9, 1, 7, 7, 3, 3, 7, 2, 3, 3, 10, 3, 4, 7, 6, 2, 2, 10, 7, 1, 3, 9, 1, 5, 4, 8, 8, 3, 0];
rr = array2d(1..4, 1..32, [0, 7, 5, 3, 6, 0, 8, 6, 1, 4, 2, 8, 0, 0, 0, 0, 10, 10, 0, 0, 3, 5, 0, 3, 1, 9, 0, 0, 10, 0, 8, 0, 0, 8, 0, 0, 0, 0, 6, 0, 2, 0, 0, 1, 4, 4, 0, 8, 0, 0, 0, 5, 0, 5, 0, 0, 0, 0, 6, 0, 3, 2, 4, 0, 0, 0, 0, 10, 10, 10, 0, 5, 5, 10, 0, 5, 8, 0, 4, 0, 0, 2, 0, 0, 4, 0, 0, 0, 0, 0, 0, 0, 0, 9, 0, 0, 0, 0, 0, 0, 10, 6, 4, 5, 9, 0, 0, 7, 0, 0, 10, 0, 0, 7, 10, 0, 1, 7, 6, 2, 4, 0, 3, 7, 0, 8, 0, 0]);

suc = [
   {2, 3, 4},
   {9, 17, 7},
   {20},
   {5},
   {8, 25, 6},
   {10, 11, 12},
   {16, 19, 14},
   {13},
   {18, 15},
   {17},
   {17},
   {26, 31},
   {14},
   {24, 30},
   {29},
   {28, 21, 22},
   {23},
   {19, 30},
   {21},
   {23},
   {27},
   {23},
   {24, 31},
   {27},
   {27},
   {28},
   {29},
   {30},
   {32},
   {32},
   {32},
   {  } ];

deadline = array2d(1..32, 1..3, [6, 2, 1, 14, 1, 1, 21, 2, 3, 23, 1, 0, 23, 5, 2, 29, 0, 2, 30, 2, 2, 31, 3, 1, 50, 4, 5, 53, 4, 0, 59, 1, 1, 66, 1, 4, 67, 0, 2, 69, 3, 2, 73, 0, 2, 76, 5, 4, 79, 2, 1, 79, 0, 4, 86, 3, 3, 88, 2, 4, 93, 1, 0, 97, 5, 2, 97, 2, 5, 98, 4, 0, 104, 0, 3, 104, 5, 2, 105, 3, 5, 108, 2, 0, 111, 3, 0, 111, 1, 2, 118, 2, 2, 119, 1, 4]);
