n_res = 4;
rc = [ 21, 22, 27, 18 ];
n_tasks = 32;
d = [0, 9, 1, 1, 2, 9, 8, 5, 1, 8, 2, 10, 4, 4, 8, 7, 10, 10, 7, 7, 10, 4, 3, 7, 9, 6, 4, 5, 10, 4, 5, 0];
rr = array2d(1..4, 1..32, [0, 0, 0, 2, 0, 9, 4, 4, 0, 0, 3, 5, 3, 0, 0, 0, 0, 0, 0, 0, 7, 6, 0, 1, 0, 0, 5, 0, 8, 10, 4, 0, 0, 0, 4, 0, 5, 0, 7, 7, 0, 7, 0, 0, 0, 3, 1, 0, 6, 10, 0, 9, 2, 0, 6, 0, 5, 3, 0, 9, 4, 5, 6, 0, 0, 6, 4, 0, 0, 0, 5, 3, 9, 4, 5, 0, 0, 7, 0, 9, 0, 0, 3, 4, 6, 0, 3, 8, 0, 9, 3, 0, 0, 0, 9, 0, 0, 0, 6, 0, 0, 8, 0, 2, 0, 0, 3, 0, 0, 0, 0, 0, 0, 3, 5, 6, 0, 5, 0, 10, 0, 10, 0, 0, 7, 1, 0, 0]);

suc = [
   {2, 3, 4},
   {30, 6, 14},
   {29, 5},
   {8, 10, 7},
   {9, 12, 17},
   {23},
   {24, 9, 11},
   {28},
   {22},
   {21, 15},
   {15},
   {16, 13},
   {19},
   {18},
   {26},
   {20},
   {20},
   {26, 27},
   {25, 28},
   {22, 30},
   {25},
   {28},
   {26},
   {25, 31},
   {30},
   {29},
   {29},
   {31},
   {32},
   {32},
   {32},
   {  } ];

deadline = array2d(1..32, 1..3, [2, 5, 5, 5, 2, 0, 6, 3, 5, 7, 0, 1, 7, 1, 4, 8, 1, 2, 9, 0, 3, 19, 1, 1, 31, 5, 4, 34, 2, 1, 35, 4, 3, 36, 5, 5, 42, 2, 5, 45, 1, 3, 49, 0, 3, 52, 3, 2, 52, 0, 0, 54, 0, 0, 56, 2, 0, 64, 1, 0, 65, 5, 5, 69, 4, 5, 69, 5, 0, 72, 4, 3, 72, 4, 4, 79, 4, 1, 84, 2, 3, 87, 2, 3, 91, 0, 2, 97, 2, 4, 97, 0, 1, 101, 3, 4]);
