n_res = 4;
rc = [ 16, 27, 28, 16 ];
n_tasks = 32;
d = [0, 2, 10, 7, 9, 7, 2, 4, 2, 2, 10, 8, 8, 2, 6, 3, 3, 4, 2, 5, 10, 2, 6, 8, 5, 7, 3, 5, 10, 4, 3, 0];
rr = array2d(1..4, 1..32, [0, 0, 0, 3, 6, 0, 0, 1, 1, 0, 0, 10, 0, 0, 0, 3, 0, 0, 5, 0, 2, 0, 5, 0, 9, 5, 0, 0, 0, 0, 0, 0, 0, 3, 8, 4, 4, 8, 5, 4, 2, 0, 6, 8, 0, 0, 0, 1, 4, 5, 0, 0, 0, 0, 0, 0, 0, 0, 0, 0, 3, 6, 1, 0, 0, 0, 10, 10, 10, 1, 10, 0, 0, 2, 1, 4, 7, 0, 0, 0, 0, 0, 6, 9, 0, 0, 4, 0, 10, 0, 9, 0, 1, 6, 7, 0, 0, 0, 3, 8, 0, 0, 3, 0, 0, 10, 1, 0, 1, 7, 3, 9, 0, 0, 0, 4, 0, 9, 2, 5, 0, 0, 5, 8, 0, 9, 2, 0]);

suc = [
   {2, 3, 4},
   {9, 20, 22},
   {18, 6, 15},
   {8, 5, 7},
   {16, 20, 22},
   {17, 13, 23},
   {24, 13},
   {10, 28, 29},
   {11, 12, 14},
   {16},
   {26, 23},
   {24, 18},
   {16, 25, 20},
   {17, 26, 21},
   {25, 19},
   {26},
   {19},
   {29},
   {31},
   {29, 31},
   {23},
   {28, 30},
   {24},
   {25},
   {27, 30},
   {30},
   {28},
   {31},
   {32},
   {32},
   {32},
   {  } ];

deadline = array2d(1..32, 1..3, [1, 5, 1, 3, 5, 3, 12, 2, 3, 13, 5, 2, 14, 1, 1, 17, 4, 4, 23, 0, 3, 31, 3, 2, 32, 0, 5, 33, 4, 0, 33, 1, 1, 34, 3, 5, 40, 3, 4, 43, 3, 3, 44, 1, 3, 44, 4, 4, 50, 4, 4, 58, 1, 3, 59, 5, 2, 60, 4, 2, 73, 1, 2, 74, 5, 0, 81, 0, 4, 82, 4, 2, 91, 2, 3, 101, 2, 2, 102, 5, 3, 103, 0, 2, 112, 3, 1, 115, 3, 0, 117, 0, 1, 117, 4, 5]);
