n_res = 4;
rc = [ 23, 22, 22, 23 ];
n_tasks = 32;
d = [0, 7, 9, 8, 9, 5, 9, 3, 2, 6, 2, 7, 3, 7, 6, 4, 1, 10, 10, 2, 8, 10, 6, 6, 10, 1, 3, 8, 6, 6, 9, 0];
rr = array2d(1..4, 1..32, [0, 0, 10, 5, 0, 1, 8, 6, 10, 10, 0, 0, 1, 9, 5, 0, 6, 10, 1, 6, 10, 1, 0, 4, 0, 1, 0, 9, 7, 0, 4, 0, 0, 10, 5, 5, 10, 0, 4, 0, 5, 6, 3, 7, 0, 4, 0, 8, 8, 0, 7, 1, 10, 10, 1, 4, 0, 9, 8, 6, 1, 1, 6, 0, 0, 0, 5, 0, 4, 8, 10, 2, 6, 3, 2, 8, 0, 7, 0, 6, 0, 1, 0, 0, 7, 4, 8, 9, 0, 4, 0, 8, 1, 1, 10, 0, 0, 5, 5, 1, 4, 7, 0, 2, 7, 0, 0, 2, 3, 5, 5, 3, 5, 1, 9, 7, 0, 9, 5, 5, 10, 0, 10, 3, 1, 5, 9, 0]);

suc = [
   {2, 3, 4},
   {20, 5, 6},
   {18},
   {17, 26, 27},
   {9, 12, 7},
   {19, 30},
   {8},
   {14, 31},
   {10, 11},
   {15},
   {29},
   {16, 13, 22},
   {23},
   {21, 22, 23},
   {17},
   {24, 25},
   {28},
   {27},
   {31},
   {28},
   {25},
   {29},
   {29},
   {26},
   {27},
   {28},
   {30},
   {30, 31},
   {32},
   {32},
   {32},
   {  } ];

deadline = array2d(1..32, 1..3, [6, 0, 0, 8, 0, 2, 13, 3, 4, 15, 1, 4, 18, 1, 0, 23, 4, 3, 41, 2, 0, 51, 4, 5, 55, 0, 2, 58, 0, 4, 65, 0, 1, 69, 3, 4, 71, 3, 4, 75, 2, 3, 100, 5, 5, 105, 1, 4, 107, 5, 1, 108, 1, 0, 108, 3, 1, 110, 4, 1, 113, 0, 5, 115, 1, 2, 115, 3, 3, 118, 1, 0, 120, 0, 2, 122, 5, 0, 123, 4, 1, 128, 5, 4, 141, 0, 5, 147, 0, 5, 150, 0, 3, 154, 3, 1]);
