n_res = 4;
rc = [ 13, 12, 15, 13 ];
n_tasks = 32;
d = [0, 3, 5, 8, 5, 3, 5, 3, 10, 6, 7, 8, 7, 1, 8, 4, 6, 3, 9, 6, 5, 6, 7, 3, 9, 10, 6, 2, 9, 1, 5, 0];
rr = array2d(1..4, 1..32, [0, 3, 8, 10, 0, 0, 7, 9, 0, 0, 6, 3, 5, 5, 0, 0, 1, 2, 0, 3, 9, 9, 2, 5, 2, 2, 1, 10, 5, 5, 7, 0, 0, 6, 6, 0, 6, 1, 7, 3, 1, 7, 1, 3, 7, 2, 0, 9, 2, 0, 8, 0, 7, 0, 6, 0, 0, 8, 0, 3, 2, 9, 0, 0, 0, 0, 0, 10, 6, 4, 7, 9, 7, 5, 2, 4, 5, 0, 1, 0, 0, 10, 10, 2, 8, 7, 0, 8, 8, 1, 5, 6, 10, 8, 6, 0, 0, 7, 2, 3, 0, 1, 10, 3, 2, 2, 6, 0, 7, 2, 8, 2, 6, 0, 0, 10, 8, 0, 3, 1, 0, 0, 7, 5, 8, 5, 7, 0]);

suc = [
   {2, 3, 4},
   {5, 6, 7},
   {16, 21, 13},
   {8, 10, 20},
   {9, 11, 12},
   {8, 25, 22},
   {9, 14, 15},
   {11, 28},
   {24, 17, 20},
   {12, 21, 15},
   {13, 14, 15},
   {16, 18, 29},
   {17, 19},
   {26, 19, 23},
   {24, 17, 18},
   {24, 22},
   {27, 23},
   {19},
   {30},
   {21, 22},
   {25, 26, 23},
   {31},
   {29, 31},
   {26, 30},
   {27, 28, 30},
   {27},
   {31},
   {29},
   {32},
   {32},
   {32},
   {  } ];

deadline = array2d(1..32, 1..3, [1, 4, 4, 4, 0, 4, 5, 1, 3, 7, 4, 2, 13, 1, 2, 20, 4, 0, 23, 1, 4, 24, 1, 4, 27, 0, 4, 28, 0, 3, 33, 1, 5, 36, 5, 4, 36, 5, 0, 41, 5, 1, 43, 3, 1, 46, 5, 3, 50, 5, 3, 52, 3, 3, 53, 2, 5, 56, 1, 1, 58, 2, 4, 59, 2, 1, 76, 5, 0, 76, 4, 1, 77, 0, 0, 79, 3, 0, 82, 2, 0, 93, 2, 0, 99, 5, 5, 112, 3, 5, 114, 0, 4, 116, 3, 5]);
