n_res = 4;
rc = [ 25, 30, 22, 29 ];
n_tasks = 32;
d = [0, 6, 5, 4, 7, 5, 8, 10, 10, 8, 4, 4, 4, 8, 9, 2, 9, 1, 5, 2, 4, 2, 6, 6, 4, 6, 6, 1, 4, 2, 9, 0];
rr = array2d(1..4, 1..32, [0, 3, 8, 0, 2, 4, 5, 0, 0, 9, 8, 4, 2, 8, 3, 9, 8, 0, 0, 8, 0, 3, 9, 8, 9, 5, 5, 4, 2, 7, 2, 0, 0, 5, 1, 3, 5, 3, 6, 1, 9, 2, 0, 3, 0, 10, 10, 0, 9, 10, 0, 9, 1, 1, 3, 0, 4, 0, 4, 1, 0, 8, 3, 0, 0, 0, 7, 7, 9, 5, 8, 0, 1, 1, 8, 0, 4, 9, 0, 7, 5, 4, 2, 4, 10, 0, 10, 7, 8, 8, 4, 0, 10, 2, 0, 0, 0, 3, 0, 3, 2, 5, 9, 2, 10, 2, 0, 0, 5, 4, 0, 0, 5, 10, 7, 2, 9, 0, 4, 0, 3, 3, 0, 10, 0, 6, 4, 0]);

suc = [
   {2, 3, 4},
   {9},
   {8, 16, 5},
   {15},
   {9, 19, 6},
   {10, 31, 7},
   {11, 12},
   {14, 23},
   {13},
   {18, 21, 23},
   {26, 13, 15},
   {20, 13},
   {17, 22},
   {17, 18, 20},
   {17, 20, 23},
   {26},
   {24},
   {22},
   {27, 30},
   {28, 29},
   {24, 26},
   {25, 29},
   {24, 25, 27},
   {30},
   {28},
   {27, 28},
   {29},
   {30},
   {32},
   {32},
   {32},
   {  } ];

deadline = array2d(1..32, 1..3, [3, 0, 1, 3, 2, 0, 5, 2, 1, 9, 5, 1, 19, 2, 3, 19, 3, 3, 22, 2, 2, 38, 3, 0, 39, 3, 4, 45, 0, 4, 50, 0, 1, 51, 1, 1, 55, 1, 0, 58, 4, 3, 59, 1, 5, 72, 5, 4, 81, 2, 0, 85, 3, 4, 85, 0, 4, 86, 3, 1, 91, 2, 5, 95, 2, 1, 98, 0, 1, 100, 3, 3, 103, 4, 4, 110, 0, 1, 116, 4, 1, 117, 3, 2, 126, 0, 2, 130, 0, 1, 131, 5, 1, 134, 5, 4]);
