n_res = 4;
rc = [ 16, 28, 25, 16 ];
n_tasks = 32;
d = [0, 9, 8, 3, 9, 1, 5, 5, 4, 9, 10, 2, 1, 1, 8, 8, 7, 9, 4, 1, 9, 10, 4, 5, 5, 8, 2, 8, 9, 5, 3, 0];
rr = array2d(1..4, 1..32, [0, 0, 0, 10, 0, 4, 6, 0, 0, 0, 1, 8, 6, 0, 0, 6, 0, 3, 4, 0, 0, 0, 7, 0, 0, 0, 8, 9, 4, 6, 5, 0, 0, 0, 1, 0, 0, 3, 0, 0, 0, 5, 0, 0, 2, 9, 10, 0, 9, 9, 8, 0, 9, 2, 0, 9, 0, 0, 0, 1, 6, 8, 7, 0, 0, 1, 0, 1, 1, 6, 0, 2, 0, 10, 10, 0, 0, 0, 3, 7, 8, 0, 0, 6, 6, 4, 0, 1, 0, 0, 4, 0, 7, 3, 0, 0, 0, 7, 0, 0, 6, 0, 0, 0, 4, 10, 2, 0, 0, 0, 0, 0, 0, 0, 7, 6, 8, 0, 9, 0, 8, 6, 4, 0, 0, 0, 10, 0]);

suc = [
   {2, 3, 4},
   {9, 6, 14},
   {8, 10, 7},
   {20, 5, 23},
   {10, 18},
   {16, 17, 24},
   {11},
   {13, 15},
   {26, 30},
   {27, 12},
   {29, 28, 13},
   {17, 28, 15},
   {25, 18, 23},
   {22, 15},
   {19, 21},
   {18, 21},
   {21},
   {30},
   {24},
   {24, 26, 28},
   {31},
   {25, 26, 27},
   {30},
   {25},
   {31},
   {29},
   {29},
   {31},
   {32},
   {32},
   {32},
   {  } ];

deadline = array2d(1..32, 1..3, [5, 0, 3, 7, 2, 1, 12, 2, 5, 16, 5, 1, 18, 4, 3, 20, 3, 0, 23, 5, 1, 26, 4, 2, 32, 3, 3, 35, 2, 1, 40, 3, 0, 44, 2, 4, 49, 5, 2, 52, 0, 2, 56, 3, 1, 66, 1, 1, 69, 5, 5, 73, 1, 2, 75, 0, 0, 77, 3, 1, 85, 3, 4, 93, 0, 4, 94, 3, 0, 100, 2, 1, 101, 2, 2, 107, 2, 0, 111, 5, 2, 111, 4, 2, 112, 1, 4, 113, 1, 2, 117, 4, 3, 120, 5, 5]);
