n_res = 4;
rc = [ 16, 16, 14, 15 ];
n_tasks = 32;
d = [0, 6, 6, 8, 5, 8, 2, 5, 5, 6, 3, 6, 4, 5, 6, 6, 5, 4, 4, 7, 9, 8, 7, 2, 5, 5, 3, 4, 8, 7, 6, 0];
rr = array2d(1..4, 1..32, [0, 3, 10, 0, 9, 10, 0, 5, 0, 7, 3, 8, 6, 9, 0, 0, 0, 3, 8, 8, 0, 3, 4, 1, 0, 0, 4, 8, 8, 0, 10, 0, 0, 5, 2, 2, 3, 9, 6, 5, 8, 9, 6, 1, 0, 4, 8, 10, 0, 1, 6, 7, 3, 1, 1, 6, 5, 3, 0, 0, 4, 2, 6, 0, 0, 9, 7, 6, 5, 5, 7, 0, 0, 5, 4, 5, 6, 3, 0, 4, 3, 7, 8, 0, 9, 0, 8, 10, 2, 6, 5, 6, 7, 2, 9, 0, 0, 3, 0, 10, 9, 0, 0, 2, 7, 9, 0, 0, 3, 8, 8, 0, 8, 0, 8, 5, 10, 10, 10, 0, 5, 9, 0, 1, 5, 8, 0, 0]);

suc = [
   {2, 3, 4},
   {5},
   {11},
   {8, 16, 7},
   {6},
   {19},
   {24, 9, 28},
   {25, 22},
   {10, 12, 14},
   {17, 13, 15},
   {18, 29, 31},
   {17},
   {25, 21},
   {26, 20},
   {29},
   {22},
   {19},
   {27, 23},
   {21, 30},
   {21},
   {22},
   {29},
   {30},
   {27},
   {27},
   {31},
   {30},
   {31},
   {32},
   {32},
   {32},
   {  } ];

deadline = array2d(1..32, 1..3, [16, 4, 0, 17, 3, 2, 19, 0, 3, 19, 2, 3, 21, 3, 1, 25, 4, 1, 29, 3, 2, 29, 2, 0, 30, 5, 5, 31, 0, 3, 33, 2, 2, 39, 2, 3, 40, 0, 2, 40, 4, 4, 53, 4, 4, 60, 4, 1, 61, 2, 0, 63, 4, 5, 63, 5, 1, 68, 2, 0, 73, 4, 4, 80, 3, 1, 89, 5, 4, 90, 1, 0, 94, 2, 2, 102, 0, 2, 104, 5, 4, 111, 2, 2, 114, 4, 0, 117, 0, 3, 121, 1, 5, 127, 1, 0]);
