n_res = 4;
rc = [ 34, 32, 27, 32 ];
n_tasks = 32;
d = [0, 2, 8, 1, 10, 10, 1, 4, 3, 8, 6, 8, 6, 7, 5, 4, 7, 7, 8, 1, 10, 3, 2, 3, 8, 4, 4, 1, 8, 2, 2, 0];
rr = array2d(1..4, 1..32, [0, 2, 4, 9, 1, 7, 5, 7, 8, 4, 3, 5, 10, 5, 9, 5, 3, 10, 8, 8, 6, 9, 1, 9, 3, 5, 3, 4, 4, 1, 8, 0, 0, 5, 8, 9, 2, 10, 3, 10, 1, 7, 8, 3, 6, 9, 10, 1, 9, 5, 8, 2, 9, 6, 2, 9, 1, 7, 10, 1, 5, 4, 8, 0, 0, 8, 1, 5, 5, 1, 8, 3, 6, 7, 6, 6, 1, 9, 1, 4, 8, 5, 6, 4, 2, 5, 7, 2, 4, 9, 2, 2, 4, 8, 6, 0, 0, 7, 6, 9, 6, 7, 7, 4, 1, 8, 6, 9, 8, 7, 9, 9, 3, 7, 10, 4, 6, 4, 1, 2, 10, 7, 5, 4, 1, 3, 6, 0]);

suc = [
   {2, 3, 4},
   {16, 17, 6},
   {12, 5, 23},
   {11, 13, 22},
   {8, 9, 7},
   {25},
   {27, 29, 14},
   {10},
   {15},
   {18, 21},
   {16},
   {17, 18},
   {29},
   {20, 22, 15},
   {17},
   {19},
   {24},
   {27},
   {26},
   {21},
   {30},
   {24},
   {25},
   {25},
   {31},
   {29, 31},
   {28},
   {30},
   {32},
   {32},
   {32},
   {  } ];

deadline = array2d(1..32, 1..3, [1, 2, 0, 5, 0, 3, 15, 3, 2, 16, 1, 5, 25, 0, 4, 25, 2, 1, 27, 4, 0, 28, 4, 3, 33, 5, 3, 38, 2, 1, 38, 2, 3, 40, 0, 4, 50, 0, 4, 54, 5, 4, 57, 1, 1, 65, 5, 4, 70, 0, 1, 72, 2, 5, 77, 5, 3, 79, 5, 3, 81, 3, 4, 83, 2, 4, 84, 5, 3, 89, 1, 3, 92, 0, 0, 97, 4, 2, 97, 2, 3, 99, 5, 4, 105, 5, 2, 113, 5, 1, 120, 1, 5, 126, 3, 0]);
