n_res = 4;
rc = [ 20, 25, 25, 28 ];
n_tasks = 32;
d = [0, 3, 4, 5, 8, 1, 5, 4, 8, 10, 4, 3, 10, 6, 6, 10, 9, 8, 6, 1, 9, 5, 4, 3, 6, 10, 9, 6, 9, 5, 10, 0];
rr = array2d(1..4, 1..32, [0, 7, 6, 4, 8, 1, 8, 4, 2, 3, 1, 7, 6, 4, 1, 7, 5, 8, 5, 7, 7, 6, 2, 6, 2, 5, 4, 8, 9, 2, 5, 0, 0, 8, 5, 10, 2, 1, 4, 5, 3, 9, 7, 5, 5, 10, 7, 5, 5, 2, 5, 5, 10, 7, 1, 9, 3, 6, 3, 9, 7, 9, 2, 0, 0, 10, 3, 10, 8, 6, 5, 9, 8, 4, 2, 4, 6, 3, 4, 5, 9, 1, 7, 8, 1, 3, 7, 7, 1, 6, 4, 7, 10, 8, 7, 0, 0, 4, 1, 10, 1, 10, 7, 3, 1, 7, 9, 9, 5, 6, 10, 4, 9, 6, 3, 4, 6, 9, 2, 2, 4, 4, 2, 9, 3, 1, 9, 0]);

suc = [
   {2, 3, 4},
   {20, 12, 5},
   {9, 5, 7},
   {19, 6, 15},
   {8, 11, 13},
   {16, 12, 14},
   {24, 25, 31},
   {17, 10, 27},
   {12, 14, 23},
   {18, 19, 14},
   {21, 15},
   {17, 26, 13},
   {28, 29, 22},
   {21},
   {18, 26, 23},
   {17, 20, 21},
   {24, 18, 29},
   {25},
   {24, 22},
   {26, 28, 23},
   {28, 29, 22},
   {25},
   {27},
   {30},
   {30},
   {27, 30},
   {31},
   {31},
   {32},
   {32},
   {32},
   {  } ];

deadline = array2d(1..32, 1..3, [2, 1, 5, 5, 1, 3, 13, 1, 5, 16, 5, 5, 21, 5, 1, 21, 2, 1, 30, 4, 4, 30, 0, 3, 32, 3, 0, 33, 0, 5, 34, 5, 2, 37, 5, 0, 38, 2, 4, 42, 2, 1, 43, 2, 2, 49, 2, 2, 52, 1, 2, 54, 0, 1, 69, 0, 4, 70, 3, 1, 71, 2, 2, 77, 0, 5, 94, 4, 1, 94, 2, 5, 96, 3, 0, 101, 0, 1, 112, 1, 2, 112, 1, 1, 119, 1, 5, 123, 3, 2, 129, 3, 5, 140, 4, 2]);
