n_res = 4;
rc = [ 25, 26, 18, 23 ];
n_tasks = 32;
d = [0, 6, 4, 4, 10, 1, 4, 9, 3, 1, 8, 8, 5, 3, 9, 6, 8, 2, 9, 1, 1, 2, 8, 1, 4, 1, 8, 8, 3, 6, 3, 0];
rr = array2d(1..4, 1..32, [0, 0, 6, 0, 10, 7, 3, 0, 1, 6, 5, 0, 9, 0, 5, 5, 2, 0, 0, 5, 9, 8, 5, 9, 6, 10, 10, 9, 7, 9, 9, 0, 0, 7, 3, 1, 7, 1, 7, 7, 10, 10, 2, 0, 4, 2, 5, 5, 10, 2, 10, 5, 7, 4, 10, 3, 0, 0, 4, 6, 9, 5, 0, 0, 0, 0, 0, 7, 6, 7, 0, 0, 2, 1, 10, 7, 5, 0, 0, 9, 0, 6, 1, 9, 5, 9, 4, 9, 0, 9, 7, 0, 0, 3, 3, 0, 0, 10, 7, 1, 0, 7, 3, 10, 9, 0, 10, 3, 5, 9, 10, 6, 3, 1, 0, 7, 10, 0, 0, 7, 2, 0, 10, 4, 3, 0, 0, 0]);

suc = [
   {2, 3, 4},
   {13, 5, 6},
   {10, 18, 12},
   {28, 6},
   {22, 7},
   {8, 26},
   {27},
   {9, 11, 14},
   {16, 24},
   {19, 15},
   {16, 17},
   {24},
   {21, 23},
   {15},
   {16},
   {30},
   {25},
   {30},
   {20},
   {28},
   {27},
   {26},
   {25},
   {25},
   {29},
   {27, 31},
   {29, 30},
   {29},
   {32},
   {32},
   {32},
   {  } ];

deadline = array2d(1..32, 1..3, [6, 4, 5, 6, 3, 3, 13, 4, 4, 16, 0, 3, 16, 5, 2, 17, 3, 3, 22, 0, 1, 25, 1, 2, 25, 3, 2, 31, 0, 0, 31, 3, 1, 32, 4, 5, 33, 0, 4, 38, 3, 4, 41, 1, 0, 51, 3, 3, 53, 1, 0, 53, 3, 1, 56, 0, 2, 57, 0, 0, 60, 1, 0, 65, 3, 5, 68, 4, 4, 73, 0, 0, 75, 3, 0, 78, 4, 3, 87, 2, 5, 88, 0, 2, 91, 2, 2, 93, 2, 1, 93, 5, 0, 94, 5, 5]);
