n_res = 4;
rc = [ 23, 23, 25, 23 ];
n_tasks = 32;
d = [0, 4, 2, 6, 1, 3, 2, 7, 6, 3, 2, 7, 5, 9, 10, 2, 5, 3, 5, 4, 4, 7, 5, 3, 6, 6, 6, 7, 10, 6, 9, 0];
rr = array2d(1..4, 1..32, [0, 3, 3, 1, 2, 8, 6, 6, 8, 10, 4, 10, 7, 1, 2, 6, 1, 9, 5, 3, 2, 8, 6, 2, 4, 2, 5, 6, 8, 5, 10, 0, 0, 3, 6, 1, 4, 6, 2, 5, 8, 8, 1, 8, 2, 1, 8, 5, 1, 4, 3, 6, 7, 5, 10, 5, 9, 2, 2, 7, 8, 10, 9, 0, 0, 5, 5, 10, 1, 1, 1, 3, 10, 4, 9, 1, 1, 3, 9, 1, 6, 3, 7, 9, 2, 5, 3, 6, 10, 2, 8, 5, 5, 3, 9, 0, 0, 9, 2, 6, 2, 2, 8, 1, 2, 9, 7, 10, 1, 3, 8, 8, 7, 3, 5, 7, 2, 5, 5, 1, 2, 5, 1, 5, 2, 8, 5, 0]);

suc = [
   {2, 3, 4},
   {25, 26, 5},
   {9, 19, 17},
   {8, 6, 7},
   {16, 11, 21},
   {25, 10, 12},
   {12, 14, 22},
   {25, 11, 20},
   {24},
   {16, 19},
   {27, 14, 15},
   {13, 30},
   {16, 24},
   {28},
   {17},
   {27, 29},
   {18, 29, 31},
   {23},
   {26, 20},
   {21},
   {22, 23},
   {28},
   {30},
   {26},
   {30},
   {28, 29},
   {31},
   {31},
   {32},
   {32},
   {32},
   {  } ];

deadline = array2d(1..32, 1..3, [24, 0, 3, 26, 0, 1, 27, 2, 1, 29, 1, 5, 36, 4, 0, 40, 2, 3, 44, 1, 5, 46, 4, 5, 50, 5, 1, 53, 4, 5, 55, 2, 1, 58, 0, 3, 61, 5, 3, 63, 1, 2, 69, 1, 1, 70, 2, 5, 74, 2, 0, 74, 5, 0, 78, 0, 4, 78, 3, 1, 82, 0, 2, 85, 4, 0, 86, 4, 4, 91, 1, 5, 94, 0, 4, 95, 1, 1, 101, 0, 4, 102, 5, 4, 104, 1, 4, 106, 4, 4, 109, 0, 3, 116, 3, 4]);
