n_res = 4;
rc = [ 27, 16, 15, 22 ];
n_tasks = 32;
d = [0, 10, 3, 4, 8, 1, 10, 3, 5, 6, 5, 1, 7, 4, 4, 7, 1, 10, 8, 1, 10, 1, 6, 1, 10, 3, 6, 10, 4, 10, 9, 0];
rr = array2d(1..4, 1..32, [0, 9, 0, 4, 6, 0, 10, 0, 8, 0, 5, 0, 0, 0, 0, 10, 0, 9, 6, 0, 0, 9, 6, 9, 0, 2, 0, 7, 0, 0, 1, 0, 0, 10, 0, 6, 0, 0, 0, 2, 0, 4, 0, 6, 0, 0, 0, 0, 1, 10, 0, 0, 0, 3, 1, 0, 6, 0, 1, 0, 0, 4, 3, 0, 0, 0, 0, 2, 0, 1, 0, 2, 0, 9, 0, 3, 6, 0, 1, 0, 4, 0, 0, 0, 0, 2, 0, 0, 4, 4, 0, 0, 2, 0, 7, 0, 0, 5, 6, 9, 0, 3, 9, 0, 0, 2, 4, 0, 5, 8, 10, 0, 5, 1, 0, 2, 5, 0, 4, 1, 2, 0, 6, 1, 4, 0, 0, 0]);

suc = [
   {2, 3, 4},
   {17, 25},
   {8, 6, 15},
   {13, 12, 5},
   {9, 30, 15},
   {10, 13, 7},
   {16, 17},
   {9, 19, 21},
   {18, 11, 20},
   {25, 14, 23},
   {27, 22},
   {23},
   {14, 22},
   {28},
   {29},
   {31},
   {18, 19, 30},
   {24, 29},
   {26},
   {24, 27},
   {28, 23},
   {31},
   {24, 26},
   {31},
   {26, 28},
   {27},
   {29},
   {30},
   {32},
   {32},
   {32},
   {  } ];

deadline = array2d(1..32, 1..3, [3, 0, 1, 3, 4, 2, 10, 0, 2, 13, 4, 0, 15, 5, 2, 18, 1, 0, 22, 4, 0, 25, 3, 2, 25, 4, 4, 26, 5, 0, 31, 1, 1, 35, 1, 1, 35, 4, 5, 40, 3, 0, 40, 1, 1, 48, 2, 3, 56, 0, 2, 57, 5, 1, 58, 5, 1, 59, 0, 5, 60, 2, 2, 61, 5, 4, 63, 5, 3, 66, 1, 5, 67, 2, 0, 69, 0, 0, 69, 0, 3, 73, 4, 1, 82, 1, 2, 94, 4, 5, 95, 4, 5, 96, 4, 4]);
