n_res = 4;
rc = [ 13, 13, 12, 14 ];
n_tasks = 32;
d = [0, 9, 7, 9, 3, 4, 9, 10, 3, 4, 7, 8, 6, 6, 10, 9, 6, 7, 3, 7, 2, 4, 4, 7, 3, 9, 4, 3, 2, 1, 9, 0];
rr = array2d(1..4, 1..32, [0, 6, 5, 9, 0, 6, 4, 7, 6, 6, 0, 3, 4, 1, 4, 2, 9, 4, 0, 10, 10, 5, 7, 7, 9, 10, 1, 9, 7, 9, 5, 0, 0, 2, 0, 0, 2, 5, 0, 0, 9, 3, 3, 1, 0, 4, 5, 2, 10, 9, 8, 4, 3, 6, 0, 7, 7, 5, 6, 9, 5, 10, 0, 0, 0, 1, 1, 0, 10, 0, 0, 0, 7, 0, 8, 2, 3, 4, 0, 7, 5, 1, 7, 0, 2, 0, 2, 4, 7, 5, 3, 4, 3, 0, 0, 0, 0, 10, 7, 0, 3, 0, 7, 3, 0, 0, 0, 1, 8, 5, 3, 0, 10, 8, 8, 3, 2, 7, 2, 10, 4, 2, 0, 0, 1, 10, 0, 0]);

suc = [
   {2, 3, 4},
   {8, 19, 14},
   {16, 5, 6},
   {12, 7},
   {25, 11, 22},
   {20, 14, 30},
   {26},
   {9, 10, 13},
   {24, 23, 15},
   {16, 28, 21},
   {18},
   {17, 31, 15},
   {17, 15},
   {27, 23},
   {28},
   {29, 30},
   {18},
   {24, 20},
   {27, 20, 30},
   {23},
   {25},
   {24, 31},
   {26},
   {26},
   {27},
   {28},
   {29, 31},
   {29},
   {32},
   {32},
   {32},
   {  } ];

deadline = array2d(1..32, 1..3, [1, 1, 4, 3, 4, 5, 3, 2, 1, 4, 4, 4, 7, 4, 2, 8, 4, 0, 11, 2, 2, 21, 4, 0, 40, 0, 0, 49, 4, 0, 52, 1, 3, 52, 1, 1, 56, 2, 5, 57, 2, 4, 60, 4, 2, 63, 5, 4, 63, 5, 1, 65, 2, 4, 74, 5, 0, 76, 2, 5, 82, 4, 1, 84, 2, 3, 95, 1, 5, 99, 4, 1, 109, 4, 2, 117, 2, 3, 121, 3, 0, 131, 4, 2, 132, 4, 5, 138, 4, 1, 139, 1, 5, 152, 4, 3]);
