n_res = 4;
rc = [ 14, 12, 15, 18 ];
n_tasks = 32;
d = [0, 2, 1, 3, 10, 10, 2, 2, 3, 3, 3, 4, 8, 2, 2, 1, 2, 7, 7, 3, 3, 8, 4, 8, 10, 5, 3, 5, 6, 8, 1, 0];
rr = array2d(1..4, 1..32, [0, 7, 6, 0, 0, 0, 0, 0, 0, 0, 2, 0, 0, 0, 5, 0, 0, 0, 0, 0, 0, 0, 0, 0, 10, 0, 0, 5, 1, 0, 6, 0, 0, 0, 0, 1, 0, 0, 0, 0, 3, 0, 0, 0, 8, 0, 0, 10, 0, 10, 3, 0, 3, 0, 0, 0, 0, 4, 0, 0, 0, 0, 0, 0, 0, 0, 0, 0, 4, 0, 0, 8, 0, 0, 0, 0, 0, 0, 0, 0, 0, 0, 0, 6, 0, 4, 0, 0, 0, 0, 0, 0, 0, 3, 0, 0, 0, 0, 0, 0, 0, 4, 3, 0, 0, 8, 0, 1, 0, 8, 0, 0, 9, 0, 0, 0, 0, 0, 9, 1, 0, 0, 10, 0, 0, 0, 0, 0]);

suc = [
   {2, 3, 4},
   {28, 13},
   {10},
   {21, 5, 7},
   {9, 12, 6},
   {8, 16, 20},
   {9, 10},
   {25},
   {16, 17, 18},
   {27, 11},
   {22, 15},
   {24, 14},
   {19, 22, 23},
   {26, 27},
   {18},
   {25, 27},
   {19, 22, 23},
   {24, 19},
   {31},
   {25, 28},
   {24, 23},
   {26},
   {29},
   {26, 28},
   {30, 31},
   {31},
   {29},
   {29, 30},
   {32},
   {32},
   {32},
   {  } ];

deadline = array2d(1..32, 1..3, [1, 0, 2, 3, 3, 4, 6, 4, 3, 8, 3, 1, 14, 5, 3, 18, 2, 3, 23, 4, 5, 26, 2, 4, 30, 5, 5, 32, 4, 5, 34, 5, 4, 37, 3, 1, 37, 0, 5, 42, 1, 3, 42, 2, 5, 45, 1, 0, 51, 4, 4, 51, 0, 0, 52, 1, 0, 54, 5, 1, 55, 4, 4, 59, 0, 4, 60, 3, 5, 66, 4, 4, 72, 3, 4, 88, 5, 2, 88, 5, 4, 97, 3, 3, 99, 0, 4, 101, 5, 2, 102, 3, 2, 108, 3, 1]);
