n_res = 4;
rc = [ 28, 40, 43, 39 ];
n_tasks = 32;
d = [0, 3, 5, 9, 10, 1, 7, 2, 10, 9, 10, 5, 2, 5, 7, 7, 7, 9, 10, 6, 6, 9, 9, 6, 9, 10, 4, 10, 2, 10, 6, 0];
rr = array2d(1..4, 1..32, [0, 9, 0, 6, 0, 10, 0, 9, 6, 9, 0, 0, 0, 8, 0, 5, 0, 0, 4, 1, 8, 7, 3, 5, 6, 0, 7, 1, 6, 10, 6, 0, 0, 0, 10, 2, 0, 1, 0, 8, 8, 3, 7, 5, 3, 10, 0, 6, 0, 1, 9, 8, 5, 8, 0, 4, 8, 2, 4, 1, 3, 10, 0, 0, 0, 9, 3, 2, 10, 2, 0, 3, 2, 9, 5, 2, 0, 10, 5, 0, 7, 3, 10, 10, 3, 4, 8, 10, 5, 4, 3, 0, 9, 5, 3, 0, 0, 0, 0, 0, 1, 0, 2, 10, 5, 9, 9, 6, 0, 8, 0, 10, 8, 8, 1, 8, 0, 3, 2, 0, 2, 1, 5, 8, 7, 10, 7, 0]);

suc = [
   {2, 3, 4},
   {17, 29, 25},
   {16, 9, 10},
   {5, 6, 7},
   {17},
   {16, 13, 22},
   {8},
   {12},
   {19, 11, 15},
   {24, 23},
   {25},
   {31},
   {27, 14},
   {20},
   {21},
   {26, 20},
   {18, 26},
   {24},
   {29},
   {25},
   {22},
   {24, 23},
   {31},
   {28},
   {30},
   {27},
   {28},
   {30},
   {32},
   {32},
   {32},
   {  } ];

deadline = array2d(1..32, 1..3, [8, 2, 0, 11, 3, 4, 25, 5, 3, 26, 1, 2, 28, 3, 3, 28, 2, 4, 31, 2, 1, 47, 0, 2, 51, 2, 3, 52, 0, 2, 60, 0, 0, 67, 3, 4, 68, 2, 1, 74, 1, 4, 79, 2, 3, 81, 1, 5, 95, 0, 2, 98, 5, 2, 100, 1, 0, 100, 2, 2, 104, 2, 0, 106, 3, 3, 112, 5, 0, 112, 5, 1, 114, 0, 1, 121, 5, 5, 123, 5, 3, 126, 2, 4, 134, 0, 5, 138, 0, 1, 140, 2, 4, 155, 0, 2]);
