n_res = 4;
rc = [ 18, 7, 12, 16 ];
n_tasks = 32;
d = [0, 7, 4, 7, 3, 4, 3, 9, 2, 8, 10, 2, 9, 6, 1, 6, 5, 7, 10, 2, 9, 8, 2, 3, 1, 6, 6, 4, 8, 4, 2, 0];
rr = array2d(1..4, 1..32, [0, 1, 7, 10, 0, 0, 0, 0, 0, 3, 0, 0, 0, 0, 0, 0, 0, 0, 1, 8, 0, 2, 0, 0, 0, 3, 0, 0, 0, 9, 0, 0, 0, 0, 0, 0, 0, 0, 0, 0, 0, 0, 0, 0, 0, 0, 0, 0, 0, 0, 0, 0, 0, 0, 0, 0, 4, 0, 7, 0, 5, 0, 0, 0, 0, 0, 0, 0, 3, 7, 8, 0, 0, 0, 4, 10, 0, 0, 0, 6, 0, 0, 0, 0, 0, 0, 0, 0, 0, 0, 0, 0, 0, 0, 9, 0, 0, 0, 0, 0, 0, 0, 0, 8, 7, 0, 0, 0, 1, 1, 2, 0, 1, 5, 0, 0, 10, 0, 2, 7, 0, 0, 0, 7, 0, 0, 0, 0]);

suc = [
   {2, 3, 4},
   {24, 10, 13},
   {8, 15, 7},
   {8, 5, 30},
   {11, 13, 6},
   {9, 15, 7},
   {16, 24, 10},
   {17, 21, 22},
   {16, 26, 20},
   {18, 12, 14},
   {29, 31},
   {17, 19, 20},
   {16, 14, 15},
   {19, 20, 22},
   {25, 18, 22},
   {18, 19},
   {26, 23},
   {28, 31},
   {25, 21},
   {27, 21, 23},
   {28},
   {26, 23},
   {29},
   {25},
   {27},
   {27},
   {28, 31},
   {29},
   {32},
   {32},
   {32},
   {  } ];

deadline = array2d(1..32, 1..3, [1, 1, 4, 11, 0, 1, 12, 3, 0, 15, 1, 1, 18, 4, 5, 21, 2, 0, 22, 1, 1, 23, 5, 0, 35, 5, 2, 48, 1, 4, 49, 5, 2, 50, 1, 5, 68, 1, 5, 71, 2, 4, 72, 2, 5, 76, 5, 4, 77, 2, 3, 79, 1, 4, 91, 1, 4, 93, 0, 0, 97, 4, 3, 100, 3, 0, 101, 0, 2, 106, 0, 2, 111, 4, 2, 114, 4, 2, 129, 4, 0, 130, 5, 1, 137, 1, 5, 142, 2, 2, 144, 2, 0, 148, 4, 4]);
