n_res = 4;
rc = [ 27, 27, 26, 25 ];
n_tasks = 32;
d = [0, 8, 6, 6, 8, 3, 9, 7, 10, 9, 9, 2, 3, 2, 2, 1, 2, 9, 6, 7, 9, 6, 5, 4, 2, 2, 8, 6, 7, 3, 3, 0];
rr = array2d(1..4, 1..32, [0, 6, 8, 7, 4, 9, 10, 8, 6, 4, 10, 3, 4, 10, 2, 1, 9, 9, 2, 8, 6, 1, 7, 7, 5, 10, 9, 5, 8, 1, 6, 0, 0, 3, 10, 10, 8, 6, 9, 8, 5, 10, 10, 1, 4, 4, 5, 6, 2, 2, 5, 9, 4, 10, 5, 6, 3, 9, 1, 1, 9, 10, 8, 0, 0, 8, 7, 3, 6, 7, 6, 4, 5, 6, 4, 2, 3, 10, 1, 8, 7, 8, 1, 10, 9, 8, 3, 8, 9, 7, 3, 10, 8, 1, 8, 0, 0, 5, 4, 2, 6, 5, 4, 2, 10, 7, 6, 10, 1, 6, 9, 6, 9, 1, 3, 2, 7, 10, 8, 4, 3, 8, 10, 4, 7, 8, 4, 0]);

suc = [
   {2, 3, 4},
   {5, 6, 14},
   {13},
   {18, 6, 7},
   {8, 19, 11},
   {16, 22},
   {9, 27, 15},
   {24, 27, 12},
   {17, 10, 21},
   {14},
   {28, 21},
   {18, 26},
   {17, 18, 23},
   {31},
   {20, 31},
   {20},
   {29},
   {25},
   {25, 26},
   {24, 21},
   {25},
   {31, 23},
   {24, 27},
   {26, 28},
   {29, 30},
   {30},
   {28, 29},
   {30},
   {32},
   {32},
   {32},
   {  } ];

deadline = array2d(1..32, 1..3, [3, 5, 4, 3, 0, 3, 6, 1, 4, 8, 3, 3, 12, 3, 3, 16, 3, 4, 17, 1, 3, 17, 1, 5, 24, 3, 0, 30, 2, 5, 31, 3, 3, 39, 1, 1, 40, 3, 5, 44, 5, 3, 45, 3, 0, 57, 1, 5, 59, 2, 3, 61, 3, 3, 69, 5, 0, 69, 4, 2, 72, 4, 4, 72, 1, 3, 74, 4, 4, 75, 5, 5, 78, 5, 3, 79, 3, 2, 82, 4, 3, 84, 2, 4, 86, 4, 1, 89, 4, 3, 93, 1, 3, 99, 5, 3]);
