n_res = 4;
rc = [ 12, 8, 13, 10 ];
n_tasks = 32;
d = [0, 9, 3, 3, 6, 6, 9, 7, 10, 1, 8, 7, 5, 4, 7, 9, 4, 2, 2, 2, 7, 8, 6, 1, 5, 10, 10, 5, 1, 3, 4, 0];
rr = array2d(1..4, 1..32, [0, 0, 1, 0, 0, 0, 0, 0, 0, 1, 0, 0, 9, 0, 0, 0, 0, 0, 0, 0, 0, 0, 0, 0, 0, 0, 10, 4, 4, 0, 10, 0, 0, 0, 0, 0, 0, 0, 0, 0, 0, 0, 0, 0, 0, 0, 1, 4, 5, 0, 2, 0, 0, 4, 0, 0, 0, 5, 0, 0, 0, 7, 0, 0, 0, 8, 0, 8, 0, 0, 0, 0, 0, 0, 0, 0, 0, 0, 0, 0, 0, 9, 0, 0, 7, 0, 0, 2, 6, 0, 0, 0, 0, 0, 0, 0, 0, 0, 0, 0, 8, 2, 3, 8, 2, 0, 2, 8, 0, 1, 0, 0, 0, 0, 0, 2, 0, 0, 3, 0, 0, 0, 0, 0, 0, 0, 0, 0]);

suc = [
   {2, 3, 4},
   {19, 20, 13},
   {11, 5, 6},
   {25, 21, 15},
   {19, 31},
   {10, 7},
   {8, 9, 22},
   {16},
   {16, 24, 12},
   {26, 14},
   {30},
   {18},
   {24},
   {17},
   {29},
   {29},
   {28, 29},
   {25},
   {28},
   {26},
   {27},
   {23},
   {26, 27},
   {25},
   {28},
   {30},
   {31},
   {30},
   {32},
   {32},
   {32},
   {  } ];

deadline = array2d(1..32, 1..3, [4, 1, 2, 7, 0, 1, 7, 2, 5, 12, 3, 3, 15, 2, 2, 20, 3, 0, 21, 0, 3, 32, 1, 4, 36, 4, 4, 40, 4, 3, 43, 3, 5, 46, 4, 3, 51, 0, 1, 53, 5, 4, 56, 4, 5, 76, 2, 1, 80, 0, 5, 81, 2, 5, 82, 0, 4, 86, 5, 0, 95, 0, 5, 99, 4, 5, 102, 2, 5, 104, 2, 3, 105, 3, 5, 109, 4, 2, 112, 3, 5, 114, 0, 4, 118, 5, 0, 118, 1, 1, 120, 1, 3, 121, 5, 4]);
