n_res = 4;
rc = [ 17, 41, 23, 33 ];
n_tasks = 32;
d = [0, 1, 7, 9, 3, 10, 9, 2, 3, 7, 1, 6, 10, 9, 10, 4, 1, 10, 1, 1, 4, 3, 3, 7, 3, 7, 10, 10, 2, 1, 6, 0];
rr = array2d(1..4, 1..32, [0, 6, 0, 2, 8, 0, 0, 0, 7, 2, 0, 0, 0, 4, 0, 0, 2, 0, 1, 0, 0, 0, 0, 0, 0, 9, 7, 10, 0, 8, 0, 0, 0, 0, 7, 0, 2, 10, 9, 10, 1, 5, 4, 7, 5, 8, 0, 0, 0, 0, 4, 0, 0, 7, 7, 0, 0, 0, 8, 0, 2, 4, 6, 0, 0, 0, 0, 5, 6, 0, 8, 10, 0, 8, 6, 5, 0, 0, 6, 0, 1, 6, 5, 3, 0, 0, 10, 5, 3, 0, 1, 0, 0, 0, 1, 0, 0, 0, 0, 2, 0, 8, 7, 6, 0, 0, 2, 0, 0, 6, 10, 6, 0, 0, 9, 9, 8, 0, 0, 9, 0, 6, 0, 0, 0, 7, 0, 0]);

suc = [
   {2, 3, 4},
   {9, 12, 5},
   {8, 20, 6},
   {16, 12, 7},
   {19, 21, 14},
   {10, 18, 13},
   {20, 28, 22},
   {18, 11, 13},
   {26, 13, 23},
   {17, 22, 15},
   {19, 14, 23},
   {17, 18, 22},
   {25, 27, 31},
   {17, 15},
   {24},
   {20, 28, 23},
   {24, 25, 26},
   {19, 21, 30},
   {24},
   {21},
   {27},
   {26, 30, 31},
   {25, 29},
   {27, 28},
   {30},
   {29},
   {29},
   {31},
   {32},
   {32},
   {32},
   {  } ];

deadline = array2d(1..32, 1..3, [2, 3, 0, 10, 5, 4, 10, 3, 1, 21, 5, 2, 23, 4, 0, 23, 1, 1, 37, 4, 2, 37, 1, 3, 39, 2, 2, 39, 3, 2, 42, 3, 1, 49, 2, 2, 53, 1, 2, 61, 4, 0, 71, 4, 1, 72, 3, 0, 73, 2, 2, 77, 0, 3, 78, 0, 2, 87, 3, 2, 87, 2, 3, 88, 4, 4, 89, 1, 0, 101, 4, 2, 102, 2, 5, 104, 0, 4, 106, 1, 2, 106, 1, 5, 114, 1, 1, 119, 0, 4, 133, 4, 1, 141, 5, 2]);
