n_res = 4;
rc = [ 10, 12, 5, 11 ];
n_tasks = 32;
d = [0, 7, 10, 3, 10, 5, 2, 10, 9, 9, 8, 2, 4, 8, 1, 1, 9, 7, 2, 3, 1, 8, 4, 3, 8, 10, 5, 1, 8, 1, 7, 0];
rr = array2d(1..4, 1..32, [0, 7, 0, 0, 0, 0, 0, 0, 0, 0, 0, 0, 0, 0, 0, 0, 0, 0, 10, 0, 0, 0, 10, 0, 0, 10, 0, 0, 0, 0, 5, 0, 0, 0, 3, 0, 9, 0, 3, 0, 0, 0, 0, 1, 9, 1, 2, 0, 0, 3, 0, 1, 0, 0, 0, 0, 0, 0, 0, 10, 5, 0, 0, 0, 0, 0, 0, 0, 0, 0, 0, 0, 0, 3, 2, 0, 0, 0, 0, 0, 0, 0, 0, 0, 0, 0, 0, 0, 0, 0, 3, 0, 0, 5, 0, 0, 0, 0, 0, 10, 0, 4, 0, 7, 3, 0, 0, 0, 0, 0, 0, 8, 3, 0, 0, 0, 6, 4, 0, 1, 5, 0, 0, 0, 0, 0, 0, 0]);

suc = [
   {2, 3, 4},
   {13, 5},
   {18},
   {17, 28},
   {8, 12, 6},
   {9, 11, 7},
   {18},
   {10},
   {16, 17},
   {20, 28, 30},
   {16, 29, 15},
   {26, 20, 15},
   {14, 22},
   {29},
   {24, 21, 23},
   {19, 23},
   {27, 19},
   {26, 27, 31},
   {24, 26, 21},
   {21},
   {25},
   {24, 27},
   {25, 28},
   {25},
   {31},
   {30},
   {29, 30},
   {31},
   {32},
   {32},
   {32},
   {  } ];

deadline = array2d(1..32, 1..3, [1, 0, 0, 1, 2, 2, 2, 3, 2, 9, 3, 0, 15, 4, 2, 23, 1, 5, 41, 3, 4, 42, 4, 4, 51, 1, 5, 53, 3, 4, 76, 0, 4, 83, 2, 0, 84, 5, 2, 85, 4, 2, 87, 5, 1, 87, 3, 5, 97, 1, 0, 100, 1, 3, 103, 5, 5, 104, 1, 0, 118, 0, 4, 118, 3, 1, 119, 0, 2, 119, 3, 1, 121, 5, 3, 125, 5, 4, 130, 2, 3, 135, 0, 2, 139, 1, 3, 141, 5, 4, 147, 0, 0, 150, 0, 1]);
