n_res = 4;
rc = [ 13, 11, 11, 13 ];
n_tasks = 32;
d = [0, 9, 3, 2, 4, 10, 2, 7, 6, 9, 2, 5, 6, 5, 9, 9, 8, 5, 3, 2, 2, 9, 8, 3, 6, 5, 8, 8, 4, 3, 3, 0];
rr = array2d(1..4, 1..32, [0, 2, 0, 0, 10, 0, 0, 0, 0, 8, 8, 3, 0, 0, 0, 0, 0, 0, 0, 0, 0, 0, 0, 0, 0, 0, 0, 0, 0, 0, 0, 0, 0, 0, 0, 0, 0, 0, 0, 9, 0, 0, 0, 0, 0, 0, 0, 0, 7, 0, 9, 6, 1, 0, 0, 0, 0, 6, 4, 0, 0, 0, 0, 0, 0, 0, 2, 0, 0, 1, 4, 0, 4, 0, 0, 0, 5, 3, 6, 10, 0, 0, 0, 0, 0, 0, 0, 1, 0, 0, 0, 0, 0, 0, 2, 0, 0, 0, 0, 4, 0, 0, 0, 0, 0, 0, 0, 0, 0, 0, 0, 0, 0, 4, 0, 0, 0, 8, 4, 0, 9, 0, 0, 5, 1, 2, 0, 0]);

suc = [
   {2, 3, 4},
   {18, 21, 6},
   {5, 6},
   {25},
   {9, 14, 7},
   {22},
   {8, 10, 11},
   {16, 30, 31},
   {11, 31},
   {12, 28},
   {13, 23},
   {27},
   {16, 17, 18},
   {19, 15},
   {16, 20, 21},
   {29},
   {19, 21},
   {25, 19},
   {28},
   {24, 25, 22},
   {26},
   {23},
   {27},
   {26, 31},
   {26},
   {27, 28},
   {29, 30},
   {29, 30},
   {32},
   {32},
   {32},
   {  } ];

deadline = array2d(1..32, 1..3, [5, 4, 5, 8, 2, 5, 12, 4, 4, 13, 2, 2, 14, 1, 1, 17, 4, 5, 19, 4, 4, 24, 4, 4, 29, 5, 3, 30, 4, 4, 37, 2, 3, 46, 5, 1, 60, 0, 4, 63, 1, 5, 65, 1, 5, 67, 2, 0, 76, 3, 0, 79, 4, 1, 81, 3, 5, 85, 3, 2, 88, 5, 3, 92, 0, 4, 101, 1, 5, 105, 5, 5, 105, 4, 4, 106, 4, 2, 108, 4, 5, 113, 1, 1, 115, 2, 5, 117, 5, 0, 122, 0, 0, 128, 4, 3]);
