n_res = 4;
rc = [ 11, 12, 8, 11 ];
n_tasks = 32;
d = [0, 8, 7, 3, 10, 5, 1, 5, 10, 8, 9, 7, 5, 9, 9, 9, 7, 6, 1, 6, 10, 10, 8, 1, 7, 7, 3, 8, 1, 2, 9, 0];
rr = array2d(1..4, 1..32, [0, 0, 0, 0, 7, 0, 0, 0, 0, 0, 0, 2, 0, 0, 7, 10, 0, 0, 0, 9, 0, 0, 0, 0, 0, 0, 0, 0, 0, 0, 0, 0, 0, 0, 0, 3, 0, 8, 0, 0, 0, 0, 0, 0, 8, 0, 0, 0, 10, 0, 0, 0, 5, 0, 0, 1, 3, 0, 0, 0, 0, 0, 0, 0, 0, 0, 3, 0, 0, 0, 0, 0, 0, 0, 8, 0, 0, 0, 0, 0, 0, 0, 4, 0, 0, 3, 0, 0, 0, 0, 0, 7, 5, 3, 3, 0, 0, 1, 0, 0, 0, 0, 3, 3, 10, 10, 0, 0, 0, 2, 0, 0, 0, 2, 0, 0, 0, 0, 8, 0, 0, 10, 6, 0, 0, 0, 0, 0]);

suc = [
   {2, 3, 4},
   {25},
   {18, 13, 7},
   {5},
   {8, 6},
   {24, 9},
   {11, 21},
   {22},
   {10, 14, 15},
   {25, 11, 13},
   {17, 12, 20},
   {16},
   {20, 23},
   {22},
   {29},
   {22},
   {19},
   {20},
   {30},
   {27, 29, 30},
   {31},
   {26},
   {26, 29},
   {26},
   {30},
   {27},
   {28},
   {31},
   {32},
   {32},
   {32},
   {  } ];

deadline = array2d(1..32, 1..3, [1, 1, 5, 11, 0, 5, 29, 0, 1, 32, 3, 5, 37, 3, 1, 38, 5, 1, 43, 0, 3, 49, 4, 5, 51, 2, 5, 58, 1, 3, 62, 2, 5, 69, 1, 5, 70, 0, 0, 73, 2, 1, 80, 5, 5, 99, 5, 3, 102, 5, 2, 111, 1, 4, 112, 3, 4, 129, 0, 2, 142, 0, 1, 148, 3, 2, 151, 5, 4, 151, 3, 1, 156, 0, 0, 182, 0, 4, 195, 5, 0, 201, 1, 2, 217, 2, 1, 225, 5, 1, 227, 0, 4, 245, 5, 4]);
