n_res = 4;
rc = [ 28, 30, 26, 22 ];
n_tasks = 32;
d = [0, 7, 2, 9, 1, 10, 7, 10, 6, 8, 6, 3, 4, 2, 10, 7, 4, 4, 7, 3, 2, 1, 9, 10, 7, 4, 3, 10, 8, 9, 10, 0];
rr = array2d(1..4, 1..32, [0, 5, 0, 6, 3, 6, 4, 4, 6, 0, 0, 7, 0, 3, 0, 5, 2, 9, 2, 0, 9, 2, 10, 4, 5, 10, 6, 1, 9, 4, 1, 0, 0, 1, 5, 4, 0, 3, 9, 5, 0, 9, 3, 2, 1, 8, 10, 9, 8, 0, 0, 7, 4, 10, 7, 6, 0, 3, 4, 9, 9, 8, 6, 0, 0, 0, 10, 5, 4, 2, 6, 8, 5, 2, 3, 0, 7, 0, 3, 4, 0, 9, 7, 8, 0, 3, 5, 9, 2, 2, 0, 3, 3, 9, 4, 0, 0, 0, 10, 7, 2, 1, 0, 5, 0, 6, 2, 0, 9, 3, 0, 9, 2, 3, 0, 9, 0, 0, 5, 6, 0, 2, 0, 0, 7, 0, 9, 0]);

suc = [
   {2, 3, 4},
   {17, 18, 6},
   {21, 11, 5},
   {23, 6, 7},
   {8, 18, 19},
   {16, 20},
   {9, 13},
   {16, 9, 12},
   {10},
   {24, 14},
   {18, 20, 23},
   {26, 31},
   {21, 22},
   {15},
   {25},
   {24, 30},
   {27, 28},
   {29, 22},
   {25, 20, 23},
   {27},
   {26},
   {25, 26, 31},
   {24, 29},
   {31},
   {30},
   {27},
   {30},
   {29},
   {32},
   {32},
   {32},
   {  } ];

deadline = array2d(1..32, 1..3, [9, 2, 5, 18, 0, 4, 21, 2, 2, 22, 1, 4, 30, 3, 0, 33, 5, 2, 39, 4, 3, 47, 4, 1, 52, 2, 3, 53, 1, 5, 56, 2, 3, 61, 2, 0, 62, 1, 3, 62, 2, 1, 71, 1, 1, 71, 3, 3, 72, 0, 5, 76, 5, 3, 81, 2, 3, 84, 3, 0, 89, 1, 3, 97, 4, 3, 97, 1, 1, 110, 3, 1, 112, 4, 0, 116, 4, 2, 122, 4, 1, 129, 3, 3, 134, 3, 0, 135, 5, 2, 137, 4, 2, 139, 4, 3]);
