n_res = 4;
rc = [ 14, 14, 13, 15 ];
n_tasks = 32;
d = [0, 10, 10, 2, 8, 10, 1, 7, 8, 9, 8, 8, 2, 1, 4, 9, 5, 1, 5, 8, 9, 2, 8, 2, 4, 5, 6, 7, 7, 7, 2, 0];
rr = array2d(1..4, 1..32, [0, 2, 6, 2, 6, 6, 1, 6, 2, 8, 8, 9, 8, 3, 9, 8, 2, 4, 2, 9, 3, 7, 4, 10, 10, 4, 1, 2, 2, 6, 2, 0, 0, 4, 8, 10, 10, 1, 6, 7, 1, 1, 1, 3, 8, 1, 8, 7, 10, 6, 4, 6, 5, 4, 6, 4, 9, 10, 8, 10, 3, 2, 2, 0, 0, 3, 3, 1, 4, 7, 9, 10, 3, 3, 8, 7, 10, 5, 4, 3, 1, 4, 6, 7, 8, 4, 6, 6, 2, 2, 3, 9, 7, 3, 4, 0, 0, 3, 1, 1, 3, 3, 10, 2, 6, 9, 9, 5, 1, 8, 4, 5, 10, 9, 8, 3, 3, 8, 4, 6, 8, 10, 2, 4, 4, 10, 4, 0]);

suc = [
   {2, 3, 4},
   {10, 5, 7},
   {16, 20, 7},
   {9, 10, 11},
   {20, 6, 22},
   {9, 11, 15},
   {8, 9, 18},
   {27, 14, 22},
   {21, 13, 23},
   {28, 21, 23},
   {18, 12, 21},
   {16, 13, 23},
   {26, 19, 14},
   {17},
   {17, 18, 27},
   {24, 17, 19},
   {25},
   {30, 31},
   {25, 28, 30},
   {24},
   {24, 26, 29},
   {28},
   {26, 29, 31},
   {25},
   {31},
   {27},
   {30},
   {29},
   {32},
   {32},
   {32},
   {  } ];

deadline = array2d(1..32, 1..3, [2, 0, 4, 4, 1, 5, 7, 0, 4, 8, 0, 2, 17, 2, 2, 19, 4, 4, 23, 4, 5, 45, 3, 0, 48, 3, 4, 51, 3, 0, 53, 2, 1, 63, 2, 2, 68, 5, 3, 81, 2, 3, 94, 3, 2, 104, 1, 3, 126, 0, 0, 128, 3, 0, 133, 0, 2, 134, 4, 2, 135, 1, 5, 141, 2, 3, 148, 4, 0, 152, 0, 4, 153, 2, 3, 155, 0, 5, 161, 3, 3, 164, 1, 2, 170, 2, 1, 174, 3, 4, 175, 5, 3, 180, 1, 4]);
