n_res = 4;
rc = [ 16, 9, 10, 21 ];
n_tasks = 32;
d = [0, 4, 4, 1, 2, 4, 1, 7, 9, 6, 2, 3, 9, 3, 4, 5, 5, 7, 9, 2, 10, 3, 2, 7, 10, 8, 3, 9, 4, 1, 2, 0];
rr = array2d(1..4, 1..32, [0, 0, 0, 0, 9, 0, 0, 0, 9, 8, 0, 4, 0, 0, 0, 0, 0, 5, 4, 0, 6, 3, 0, 0, 2, 0, 0, 0, 3, 0, 0, 0, 0, 0, 0, 0, 0, 0, 0, 0, 0, 0, 7, 0, 0, 1, 0, 6, 0, 0, 0, 0, 0, 0, 8, 0, 0, 9, 0, 0, 0, 0, 0, 0, 0, 0, 4, 0, 0, 0, 0, 0, 0, 0, 0, 0, 0, 0, 0, 0, 8, 0, 0, 4, 0, 0, 0, 0, 0, 0, 5, 2, 0, 0, 0, 0, 0, 5, 0, 4, 0, 7, 2, 4, 0, 0, 0, 0, 9, 0, 7, 0, 0, 0, 0, 0, 0, 0, 0, 5, 0, 0, 0, 0, 0, 2, 3, 0]);

suc = [
   {2, 3, 4},
   {24, 13, 6},
   {12, 5, 7},
   {9},
   {8, 25, 15},
   {10, 26},
   {24, 11},
   {18},
   {14},
   {20},
   {15},
   {28, 31},
   {16, 17},
   {23},
   {17, 28},
   {25, 18, 29},
   {30},
   {19, 28, 21},
   {26},
   {22},
   {30},
   {23},
   {27},
   {26},
   {27},
   {27},
   {31},
   {30},
   {32},
   {32},
   {32},
   {  } ];

deadline = array2d(1..32, 1..3, [2, 3, 3, 10, 0, 3, 11, 0, 0, 12, 4, 3, 16, 3, 0, 20, 3, 4, 24, 0, 4, 26, 0, 3, 27, 0, 0, 33, 4, 0, 33, 5, 5, 34, 2, 5, 40, 5, 4, 43, 2, 5, 52, 1, 1, 53, 1, 1, 53, 1, 1, 53, 2, 0, 57, 0, 0, 61, 1, 5, 66, 1, 1, 70, 0, 4, 73, 0, 2, 78, 3, 4, 79, 1, 4, 81, 4, 3, 98, 2, 2, 99, 3, 5, 100, 0, 4, 100, 2, 1, 103, 5, 5, 116, 3, 2]);
