n_res = 4;
rc = [ 22, 32, 14, 30 ];
n_tasks = 32;
d = [0, 4, 10, 1, 5, 4, 3, 9, 8, 1, 9, 4, 8, 8, 10, 5, 8, 4, 1, 3, 2, 8, 7, 7, 4, 7, 4, 10, 10, 9, 8, 0];
rr = array2d(1..4, 1..32, [0, 0, 0, 0, 1, 0, 6, 4, 4, 4, 0, 4, 3, 0, 7, 0, 10, 0, 0, 2, 0, 3, 0, 3, 9, 9, 0, 0, 0, 6, 6, 0, 0, 5, 6, 0, 3, 9, 2, 1, 6, 0, 8, 1, 3, 0, 0, 10, 0, 0, 0, 0, 5, 5, 10, 0, 1, 0, 6, 10, 3, 10, 9, 0, 0, 3, 0, 10, 0, 9, 0, 0, 0, 0, 0, 0, 1, 5, 0, 0, 0, 1, 0, 0, 0, 0, 0, 7, 2, 0, 10, 4, 0, 0, 0, 0, 0, 0, 10, 8, 0, 0, 6, 0, 0, 3, 2, 10, 0, 8, 10, 0, 0, 6, 8, 0, 7, 0, 0, 3, 0, 1, 6, 0, 0, 10, 0, 0]);

suc = [
   {2, 3, 4},
   {24, 9, 15},
   {5, 22, 23},
   {12, 6},
   {8, 14, 30},
   {10, 7},
   {9, 20, 22},
   {10, 11, 13},
   {14},
   {29, 21},
   {26},
   {17, 13},
   {24, 18, 21},
   {18},
   {16, 17, 19},
   {25, 18},
   {25, 27},
   {28},
   {28, 23},
   {26},
   {31},
   {24, 26, 30},
   {25, 27, 30},
   {27},
   {31},
   {31},
   {29},
   {29},
   {32},
   {32},
   {32},
   {  } ];

deadline = array2d(1..32, 1..3, [1, 4, 5, 5, 4, 3, 8, 2, 4, 9, 3, 3, 26, 1, 3, 33, 0, 3, 42, 0, 0, 44, 4, 2, 57, 2, 4, 60, 4, 0, 62, 2, 4, 65, 0, 3, 71, 1, 4, 75, 0, 3, 76, 1, 5, 87, 0, 4, 88, 1, 4, 90, 3, 5, 97, 3, 0, 100, 1, 2, 103, 3, 4, 106, 0, 0, 107, 1, 4, 107, 5, 5, 108, 1, 5, 108, 5, 1, 121, 3, 0, 122, 2, 1, 126, 3, 3, 127, 3, 4, 136, 3, 2, 140, 4, 2]);
