n_res = 4;
rc = [ 10, 11, 8, 10 ];
n_tasks = 32;
d = [0, 4, 3, 10, 10, 2, 7, 7, 1, 10, 9, 9, 4, 6, 10, 2, 8, 3, 1, 7, 2, 3, 8, 4, 1, 2, 10, 2, 5, 1, 5, 0];
rr = array2d(1..4, 1..32, [0, 6, 4, 2, 5, 0, 5, 0, 6, 0, 0, 0, 3, 8, 0, 0, 6, 0, 0, 7, 0, 0, 0, 0, 0, 0, 0, 0, 0, 0, 0, 0, 0, 0, 0, 0, 0, 4, 0, 0, 0, 2, 6, 0, 0, 0, 10, 4, 0, 0, 4, 0, 0, 3, 0, 0, 2, 0, 0, 0, 0, 9, 0, 0, 0, 0, 0, 0, 0, 0, 0, 8, 0, 0, 0, 0, 0, 0, 0, 0, 0, 2, 0, 0, 0, 0, 2, 1, 0, 5, 3, 0, 0, 0, 5, 0, 0, 0, 0, 0, 0, 0, 0, 0, 0, 0, 0, 9, 0, 0, 0, 0, 0, 0, 0, 0, 2, 0, 0, 0, 0, 0, 0, 10, 6, 0, 0, 0]);

suc = [
   {2, 3, 4},
   {11, 14, 7},
   {8, 5, 7},
   {9, 10, 6},
   {27, 11, 23},
   {20, 29, 15},
   {24, 18, 20},
   {9, 27, 23},
   {16, 28, 21},
   {11, 12, 14},
   {25, 18, 21},
   {19, 13},
   {17, 20, 21},
   {17, 25, 15},
   {16, 18, 26},
   {22},
   {26, 27, 23},
   {19},
   {22, 31},
   {25, 26, 22},
   {24, 30},
   {30},
   {24, 28},
   {29},
   {31},
   {30},
   {28},
   {29, 31},
   {32},
   {32},
   {32},
   {  } ];

deadline = array2d(1..32, 1..3, [10, 3, 4, 17, 0, 1, 19, 0, 5, 20, 3, 0, 23, 1, 0, 24, 2, 1, 43, 5, 3, 48, 5, 2, 48, 1, 2, 50, 2, 0, 53, 0, 5, 60, 2, 0, 61, 1, 5, 69, 1, 3, 77, 4, 2, 78, 1, 5, 80, 4, 4, 95, 2, 4, 98, 4, 2, 99, 1, 3, 101, 5, 3, 104, 1, 2, 110, 3, 3, 114, 5, 2, 119, 3, 0, 119, 2, 5, 119, 1, 0, 122, 1, 4, 123, 1, 3, 125, 5, 1, 133, 2, 0, 142, 5, 2]);
