n_res = 4;
rc = [ 16, 15, 16, 14 ];
n_tasks = 32;
d = [0, 9, 3, 1, 7, 7, 4, 3, 9, 1, 2, 2, 6, 1, 3, 6, 6, 9, 4, 3, 10, 6, 3, 4, 8, 1, 6, 7, 4, 3, 1, 0];
rr = array2d(1..4, 1..32, [0, 0, 7, 10, 4, 6, 10, 5, 7, 6, 5, 2, 1, 5, 5, 1, 0, 3, 0, 0, 3, 10, 9, 8, 2, 0, 9, 7, 7, 7, 7, 0, 0, 10, 3, 7, 0, 10, 6, 4, 9, 2, 10, 7, 0, 9, 0, 6, 1, 6, 3, 0, 8, 7, 10, 10, 0, 9, 7, 0, 1, 6, 9, 0, 0, 4, 3, 5, 0, 0, 2, 10, 3, 10, 0, 7, 0, 0, 6, 7, 0, 0, 0, 0, 8, 4, 8, 0, 8, 5, 10, 0, 0, 0, 5, 0, 0, 8, 4, 10, 9, 3, 5, 3, 0, 2, 10, 0, 6, 9, 1, 0, 9, 1, 5, 10, 2, 1, 9, 0, 1, 9, 6, 1, 4, 1, 0, 0]);

suc = [
   {2, 3, 4},
   {10, 6, 7},
   {6},
   {9, 20, 5},
   {8, 6, 14},
   {11},
   {19, 12, 13},
   {17},
   {27, 12, 30},
   {22, 30},
   {25},
   {26, 28},
   {18},
   {16, 15},
   {25},
   {30},
   {26},
   {21},
   {20},
   {29, 23},
   {22},
   {24, 31},
   {25},
   {26},
   {27},
   {29},
   {28},
   {31},
   {32},
   {32},
   {32},
   {  } ];

deadline = array2d(1..32, 1..3, [1, 1, 0, 4, 3, 3, 18, 2, 1, 18, 5, 0, 19, 5, 2, 20, 0, 4, 23, 2, 1, 26, 5, 1, 26, 5, 5, 27, 5, 3, 28, 0, 5, 33, 2, 3, 34, 0, 4, 43, 0, 0, 59, 5, 5, 63, 5, 1, 65, 0, 0, 67, 5, 2, 67, 5, 3, 70, 3, 0, 70, 1, 4, 72, 2, 4, 78, 3, 5, 90, 1, 3, 93, 3, 2, 100, 0, 5, 102, 3, 0, 102, 2, 0, 109, 1, 3, 109, 4, 3, 124, 1, 4, 125, 4, 5]);
