n_res = 4;
rc = [ 28, 32, 29, 37 ];
n_tasks = 32;
d = [0, 3, 7, 6, 4, 6, 7, 9, 9, 3, 7, 8, 1, 5, 5, 5, 10, 5, 1, 10, 2, 7, 8, 4, 4, 9, 8, 5, 10, 4, 1, 0];
rr = array2d(1..4, 1..32, [0, 8, 3, 10, 7, 10, 6, 0, 2, 1, 5, 0, 1, 1, 10, 5, 7, 0, 5, 0, 4, 3, 5, 10, 1, 0, 9, 1, 0, 0, 5, 0, 0, 0, 0, 7, 6, 4, 6, 8, 2, 9, 7, 0, 10, 7, 1, 6, 3, 0, 0, 5, 0, 4, 5, 3, 5, 8, 4, 6, 3, 6, 6, 0, 0, 0, 1, 6, 8, 7, 0, 3, 10, 3, 9, 2, 10, 4, 0, 7, 3, 2, 6, 0, 6, 0, 9, 9, 0, 0, 0, 0, 0, 10, 6, 0, 0, 9, 9, 9, 10, 0, 9, 7, 4, 8, 6, 10, 4, 1, 6, 6, 7, 8, 5, 1, 8, 0, 0, 0, 10, 4, 0, 3, 2, 6, 0, 0]);

suc = [
   {2, 3, 4},
   {8, 11, 7},
   {9, 20, 5},
   {16, 13, 15},
   {13, 6, 14},
   {12, 22},
   {23},
   {25, 10},
   {13, 14},
   {19, 21, 31},
   {24, 18},
   {17},
   {19, 21, 23},
   {24, 23},
   {17, 22, 30},
   {19, 28},
   {18},
   {25},
   {29},
   {27, 28, 30},
   {27, 22, 30},
   {29},
   {26},
   {31},
   {26, 27},
   {28},
   {29},
   {31},
   {32},
   {32},
   {32},
   {  } ];

deadline = array2d(1..32, 1..3, [1, 2, 2, 3, 2, 1, 19, 0, 5, 27, 5, 3, 29, 3, 4, 30, 1, 1, 32, 4, 5, 41, 2, 5, 42, 3, 1, 54, 2, 0, 60, 1, 3, 61, 4, 3, 61, 5, 2, 62, 3, 3, 65, 0, 0, 79, 4, 2, 83, 0, 4, 83, 4, 2, 91, 4, 1, 95, 3, 2, 100, 0, 1, 100, 5, 2, 117, 1, 2, 120, 4, 4, 121, 0, 0, 126, 4, 5, 127, 0, 5, 129, 4, 3, 136, 2, 5, 139, 4, 0, 141, 2, 2, 154, 2, 1]);
