n_res = 4;
rc = [ 23, 15, 22, 11 ];
n_tasks = 32;
d = [0, 4, 1, 8, 1, 10, 8, 4, 1, 10, 7, 9, 1, 4, 7, 10, 1, 6, 1, 8, 3, 10, 3, 7, 1, 9, 7, 4, 7, 6, 4, 0];
rr = array2d(1..4, 1..32, [0, 1, 1, 7, 3, 1, 0, 9, 0, 0, 8, 1, 0, 9, 0, 0, 9, 4, 5, 5, 0, 3, 0, 0, 6, 1, 8, 10, 0, 0, 10, 0, 0, 3, 0, 4, 0, 0, 1, 5, 9, 4, 0, 2, 0, 3, 9, 6, 0, 4, 0, 0, 0, 0, 0, 7, 0, 0, 0, 0, 4, 8, 0, 0, 0, 0, 0, 0, 0, 8, 10, 8, 10, 6, 2, 0, 4, 0, 6, 0, 5, 10, 4, 0, 4, 2, 2, 6, 0, 9, 3, 1, 0, 0, 1, 0, 0, 1, 0, 0, 0, 0, 0, 0, 0, 7, 0, 4, 0, 0, 1, 0, 0, 0, 10, 2, 3, 0, 0, 0, 0, 0, 8, 5, 0, 0, 0, 0]);

suc = [
   {2, 3, 4},
   {6},
   {8, 5},
   {15},
   {27, 11, 21},
   {10, 14, 7},
   {12},
   {9, 31},
   {22},
   {16, 20},
   {25},
   {24, 13},
   {18},
   {18, 28, 23},
   {26},
   {17, 28, 25},
   {19},
   {19, 29},
   {27},
   {25},
   {28},
   {24, 26, 29},
   {24},
   {30},
   {30},
   {30},
   {31},
   {29},
   {32},
   {32},
   {32},
   {  } ];

deadline = array2d(1..32, 1..3, [2, 0, 5, 3, 4, 4, 6, 5, 5, 10, 3, 2, 11, 2, 2, 18, 5, 0, 21, 5, 1, 24, 4, 5, 28, 5, 3, 29, 2, 2, 30, 4, 4, 31, 5, 0, 36, 4, 5, 36, 0, 3, 37, 1, 2, 38, 4, 1, 41, 1, 5, 52, 5, 3, 55, 1, 4, 62, 2, 5, 66, 1, 1, 76, 3, 4, 76, 4, 3, 78, 4, 3, 91, 1, 4, 95, 2, 5, 104, 2, 5, 110, 1, 3, 114, 1, 2, 114, 2, 1, 116, 0, 0, 118, 0, 5]);
