n_res = 4;
rc = [ 34, 26, 26, 33 ];
n_tasks = 32;
d = [0, 9, 8, 3, 1, 1, 10, 7, 4, 5, 4, 7, 6, 1, 6, 2, 4, 9, 5, 5, 5, 9, 7, 3, 9, 6, 3, 2, 1, 7, 9, 0];
rr = array2d(1..4, 1..32, [0, 5, 1, 3, 0, 3, 7, 0, 9, 7, 1, 10, 10, 1, 0, 0, 8, 0, 0, 0, 0, 3, 3, 0, 2, 0, 0, 1, 10, 8, 5, 0, 0, 5, 8, 8, 0, 0, 8, 0, 8, 0, 0, 0, 9, 7, 0, 5, 0, 5, 4, 0, 0, 0, 1, 0, 0, 0, 5, 0, 0, 0, 0, 0, 0, 0, 0, 0, 1, 3, 0, 7, 0, 0, 0, 0, 0, 10, 0, 0, 0, 7, 0, 1, 9, 8, 0, 7, 0, 6, 0, 9, 1, 0, 6, 0, 0, 9, 0, 0, 7, 0, 3, 5, 9, 7, 0, 3, 0, 0, 6, 5, 3, 0, 5, 8, 5, 0, 0, 5, 0, 0, 2, 3, 2, 0, 0, 0]);

suc = [
   {2, 3, 4},
   {9, 15, 7},
   {17, 29, 6},
   {8, 12, 5},
   {14},
   {19, 13},
   {14, 30},
   {26, 10, 11},
   {25, 26, 21},
   {13, 22},
   {19, 29},
   {16},
   {27, 28},
   {23},
   {25, 18, 19},
   {26, 27, 20},
   {22, 30},
   {21, 23},
   {27, 22},
   {25, 21, 23},
   {24},
   {31},
   {24},
   {29},
   {28, 31},
   {28},
   {31},
   {30},
   {32},
   {32},
   {32},
   {  } ];

deadline = array2d(1..32, 1..3, [3, 0, 0, 8, 4, 4, 10, 2, 0, 13, 4, 1, 13, 3, 1, 13, 4, 2, 17, 1, 2, 28, 5, 5, 29, 2, 4, 34, 4, 5, 36, 3, 5, 37, 0, 1, 48, 3, 1, 53, 1, 4, 54, 4, 2, 55, 3, 1, 55, 2, 4, 57, 5, 2, 58, 0, 4, 61, 4, 0, 63, 2, 5, 63, 2, 5, 66, 2, 4, 73, 4, 4, 75, 4, 2, 75, 2, 3, 80, 2, 5, 83, 1, 4, 84, 2, 0, 88, 1, 3, 88, 3, 0, 95, 2, 3]);
