n_res = 4;
rc = [ 16, 29, 18, 22 ];
n_tasks = 32;
d = [0, 9, 7, 1, 1, 10, 4, 5, 10, 6, 9, 7, 6, 8, 6, 6, 7, 9, 5, 6, 8, 8, 3, 6, 7, 2, 5, 8, 10, 2, 2, 0];
rr = array2d(1..4, 1..32, [0, 0, 0, 5, 6, 0, 7, 2, 0, 0, 8, 3, 0, 0, 8, 0, 0, 0, 0, 0, 0, 5, 3, 0, 2, 7, 6, 0, 0, 4, 10, 0, 0, 6, 0, 7, 9, 3, 7, 0, 10, 0, 0, 0, 10, 10, 0, 3, 10, 0, 2, 0, 5, 0, 2, 0, 0, 1, 2, 9, 10, 0, 0, 0, 0, 0, 1, 10, 1, 0, 1, 0, 10, 6, 7, 0, 0, 0, 9, 0, 4, 3, 0, 10, 0, 3, 10, 5, 0, 3, 0, 0, 5, 0, 8, 0, 0, 1, 0, 0, 0, 0, 0, 0, 0, 0, 3, 0, 5, 6, 0, 1, 5, 5, 9, 6, 2, 0, 0, 9, 0, 0, 2, 0, 0, 3, 0, 0]);

suc = [
   {2, 3, 4},
   {24, 27, 11},
   {8, 9, 6},
   {10, 5, 14},
   {11, 6, 7},
   {24, 21, 15},
   {18, 19, 12},
   {24, 23, 15},
   {16, 11, 12},
   {16, 25, 31},
   {17, 18, 20},
   {28, 13, 15},
   {27, 21, 22},
   {16, 19, 20},
   {26, 27, 20},
   {26, 23},
   {25, 19, 29},
   {31},
   {28, 21, 22},
   {22},
   {23},
   {31},
   {30},
   {25, 28, 29},
   {26},
   {30},
   {29},
   {30},
   {32},
   {32},
   {32},
   {  } ];

deadline = array2d(1..32, 1..3, [2, 0, 1, 4, 1, 5, 6, 1, 2, 8, 1, 3, 12, 5, 4, 15, 0, 1, 17, 0, 0, 17, 1, 4, 23, 3, 5, 27, 1, 5, 30, 0, 5, 49, 5, 2, 52, 4, 3, 58, 3, 1, 60, 5, 5, 62, 3, 2, 67, 1, 1, 72, 4, 0, 74, 1, 1, 74, 4, 1, 77, 1, 0, 80, 1, 5, 87, 4, 2, 90, 2, 2, 92, 0, 1, 92, 4, 3, 96, 5, 1, 102, 5, 3, 105, 3, 0, 108, 3, 4, 110, 4, 0, 123, 2, 0]);
