n_res = 4;
rc = [ 11, 13, 7, 12 ];
n_tasks = 32;
d = [0, 10, 2, 6, 8, 8, 2, 2, 6, 6, 7, 1, 1, 10, 10, 6, 7, 9, 8, 9, 8, 3, 2, 9, 7, 5, 7, 10, 5, 5, 6, 0];
rr = array2d(1..4, 1..32, [0, 0, 0, 0, 7, 0, 10, 8, 0, 0, 6, 0, 0, 0, 0, 0, 0, 0, 0, 0, 0, 0, 0, 6, 0, 0, 0, 0, 0, 3, 0, 0, 0, 10, 0, 0, 0, 6, 0, 0, 0, 8, 0, 0, 9, 0, 0, 0, 0, 0, 8, 0, 0, 0, 9, 0, 1, 6, 0, 10, 0, 0, 0, 0, 0, 0, 0, 0, 0, 0, 0, 0, 2, 0, 0, 0, 0, 0, 3, 5, 3, 0, 0, 0, 0, 0, 0, 0, 0, 0, 3, 0, 7, 0, 0, 0, 0, 0, 8, 1, 0, 0, 0, 0, 0, 0, 0, 6, 0, 2, 0, 0, 0, 10, 0, 7, 4, 8, 0, 0, 0, 0, 0, 0, 0, 0, 7, 0]);

suc = [
   {2, 3, 4},
   {24, 5, 22},
   {9, 6, 7},
   {10, 13, 15},
   {8, 16, 13},
   {17, 12, 13},
   {11, 12, 20},
   {21, 14, 15},
   {26, 12, 20},
   {16, 17, 14},
   {24, 14, 15},
   {24, 27, 29},
   {18, 28},
   {19, 29, 23},
   {26, 27, 23},
   {25, 18, 20},
   {19, 22, 23},
   {19, 21},
   {30},
   {28},
   {26, 31},
   {27, 30},
   {25},
   {25},
   {28, 30},
   {29},
   {31},
   {31},
   {32},
   {32},
   {32},
   {  } ];

deadline = array2d(1..32, 1..3, [1, 3, 4, 3, 3, 4, 7, 4, 1, 14, 2, 3, 17, 2, 0, 18, 1, 2, 22, 2, 5, 29, 0, 2, 30, 1, 0, 31, 0, 2, 32, 0, 1, 33, 3, 4, 35, 0, 0, 43, 1, 2, 51, 3, 4, 58, 1, 1, 67, 5, 0, 73, 4, 4, 78, 0, 5, 82, 0, 2, 91, 0, 3, 96, 2, 1, 97, 0, 3, 99, 5, 4, 107, 2, 3, 111, 1, 4, 117, 0, 3, 118, 3, 4, 127, 0, 5, 129, 0, 2, 130, 3, 3, 136, 0, 5]);
