n_res = 4;
rc = [ 19, 20, 26, 18 ];
n_tasks = 32;
d = [0, 7, 10, 1, 10, 1, 4, 2, 5, 6, 4, 4, 6, 10, 2, 10, 8, 4, 1, 10, 8, 7, 8, 1, 3, 7, 5, 10, 4, 9, 8, 0];
rr = array2d(1..4, 1..32, [0, 6, 3, 3, 0, 4, 5, 3, 0, 2, 10, 2, 5, 8, 1, 5, 0, 10, 6, 7, 1, 5, 2, 0, 6, 9, 0, 2, 0, 1, 0, 0, 0, 2, 0, 8, 0, 10, 2, 1, 8, 2, 6, 5, 0, 0, 9, 9, 10, 6, 7, 10, 0, 3, 1, 2, 0, 4, 8, 8, 9, 3, 3, 0, 0, 0, 0, 0, 3, 8, 7, 7, 7, 0, 10, 5, 10, 9, 10, 5, 0, 9, 0, 9, 9, 6, 0, 4, 10, 6, 1, 5, 4, 0, 1, 0, 0, 10, 8, 7, 7, 6, 0, 9, 0, 5, 0, 8, 2, 2, 4, 4, 4, 0, 0, 9, 4, 0, 10, 0, 8, 6, 1, 0, 6, 1, 1, 0]);

suc = [
   {2, 3, 4},
   {8, 27, 20},
   {10, 18, 6},
   {11, 5, 7},
   {8, 9, 13},
   {16, 9, 20},
   {28, 12, 13},
   {16, 23},
   {19, 12, 15},
   {11, 21, 14},
   {16, 13, 22},
   {17, 21},
   {24},
   {17, 22, 15},
   {25, 27, 23},
   {17, 19},
   {29, 31},
   {19, 21, 22},
   {24, 28},
   {25, 23},
   {24, 27},
   {29},
   {26, 28, 30},
   {25, 30},
   {26},
   {29},
   {30, 31},
   {31},
   {32},
   {32},
   {32},
   {  } ];

deadline = array2d(1..32, 1..3, [1, 1, 0, 8, 0, 0, 10, 2, 5, 19, 0, 1, 23, 4, 1, 24, 1, 0, 31, 5, 0, 32, 5, 4, 32, 1, 0, 36, 5, 0, 43, 5, 1, 49, 5, 5, 52, 3, 4, 56, 4, 5, 58, 3, 3, 63, 2, 3, 70, 4, 3, 72, 4, 3, 74, 0, 3, 76, 5, 5, 76, 4, 3, 81, 0, 0, 89, 1, 5, 99, 5, 2, 109, 1, 2, 115, 1, 3, 116, 2, 5, 116, 2, 3, 119, 5, 3, 128, 3, 4, 129, 4, 4, 132, 2, 1]);
