n_res = 4;
rc = [ 31, 34, 34, 31 ];
n_tasks = 32;
d = [0, 1, 8, 6, 6, 4, 8, 7, 9, 4, 1, 6, 5, 6, 10, 10, 2, 6, 6, 5, 3, 2, 9, 10, 9, 2, 8, 7, 3, 7, 2, 0];
rr = array2d(1..4, 1..32, [0, 4, 2, 6, 1, 7, 9, 7, 7, 5, 7, 4, 2, 4, 5, 6, 4, 10, 7, 2, 6, 2, 6, 9, 10, 10, 1, 7, 8, 5, 8, 0, 0, 6, 6, 7, 9, 9, 6, 3, 5, 4, 7, 5, 5, 2, 7, 8, 9, 10, 5, 8, 10, 10, 6, 5, 8, 9, 10, 1, 5, 10, 2, 0, 0, 3, 6, 7, 6, 5, 1, 8, 1, 7, 2, 9, 6, 2, 4, 2, 8, 7, 8, 3, 6, 4, 7, 9, 8, 8, 7, 1, 5, 10, 3, 0, 0, 4, 2, 6, 2, 6, 6, 2, 7, 8, 5, 5, 3, 7, 10, 1, 1, 3, 3, 5, 2, 8, 3, 4, 5, 9, 4, 7, 3, 7, 6, 0]);

suc = [
   {2, 3, 4},
   {8, 9, 16},
   {10, 20, 15},
   {8, 5, 15},
   {11, 6, 23},
   {16, 19, 7},
   {18, 12},
   {19, 12, 13},
   {25, 10, 11},
   {18, 23},
   {26, 18, 19},
   {20, 28, 14},
   {17, 20, 14},
   {24, 25},
   {21},
   {25, 28},
   {28, 22, 23},
   {31},
   {21, 22, 30},
   {26, 21, 22},
   {24},
   {27},
   {24, 27},
   {29, 31},
   {26, 27, 30},
   {29},
   {31},
   {29, 30},
   {32},
   {32},
   {32},
   {  } ];

deadline = array2d(1..32, 1..3, [9, 3, 3, 35, 5, 0, 36, 1, 3, 38, 4, 3, 39, 0, 0, 46, 4, 3, 46, 0, 2, 46, 5, 4, 46, 1, 5, 49, 4, 3, 49, 2, 3, 54, 2, 5, 57, 4, 1, 61, 5, 1, 62, 3, 1, 68, 3, 3, 73, 5, 5, 74, 3, 2, 74, 1, 2, 79, 5, 1, 87, 0, 1, 96, 0, 1, 99, 3, 4, 100, 0, 2, 101, 5, 5, 114, 3, 1, 117, 0, 1, 118, 4, 5, 119, 2, 5, 122, 2, 0, 134, 4, 3, 135, 4, 4]);
