n_res = 4;
rc = [ 25, 19, 15, 23 ];
n_tasks = 32;
d = [0, 2, 4, 5, 6, 10, 9, 3, 1, 10, 4, 9, 8, 8, 8, 9, 5, 1, 2, 8, 3, 6, 2, 9, 8, 1, 8, 6, 8, 9, 10, 0];
rr = array2d(1..4, 1..32, [0, 0, 0, 4, 4, 0, 0, 1, 6, 0, 6, 10, 5, 10, 0, 10, 0, 4, 3, 3, 0, 9, 0, 0, 3, 0, 10, 8, 2, 8, 8, 0, 0, 6, 2, 0, 0, 0, 7, 0, 9, 7, 9, 1, 0, 6, 7, 0, 2, 0, 10, 0, 7, 0, 4, 3, 3, 0, 0, 0, 0, 8, 0, 0, 0, 8, 0, 0, 0, 0, 4, 9, 0, 7, 0, 0, 7, 0, 8, 5, 0, 0, 0, 9, 0, 0, 0, 0, 0, 6, 0, 0, 7, 0, 0, 0, 0, 9, 0, 0, 0, 5, 0, 3, 5, 10, 0, 9, 0, 0, 10, 4, 8, 0, 9, 0, 0, 2, 0, 0, 6, 9, 0, 8, 0, 8, 6, 0]);

suc = [
   {2, 3, 4},
   {10, 11, 29},
   {5, 22, 23},
   {16, 6, 7},
   {9, 12, 31},
   {8, 9, 14},
   {25, 26},
   {18, 21},
   {24, 19, 29},
   {13},
   {26, 20, 23},
   {29, 30},
   {17, 21, 15},
   {31, 15},
   {28},
   {21, 30},
   {24, 19},
   {19, 22},
   {27, 20},
   {25},
   {31},
   {24, 25},
   {27},
   {26},
   {28},
   {27},
   {28},
   {30},
   {32},
   {32},
   {32},
   {  } ];

deadline = array2d(1..32, 1..3, [3, 1, 4, 4, 3, 0, 5, 1, 1, 8, 0, 5, 11, 2, 2, 13, 0, 4, 21, 0, 3, 23, 4, 3, 25, 0, 3, 27, 0, 0, 28, 3, 4, 30, 5, 1, 35, 2, 4, 37, 3, 0, 43, 5, 5, 51, 3, 3, 64, 5, 1, 64, 3, 0, 71, 2, 5, 74, 3, 2, 89, 1, 0, 90, 0, 3, 96, 5, 3, 110, 1, 4, 111, 3, 3, 115, 5, 1, 117, 0, 4, 123, 4, 4, 124, 4, 2, 137, 0, 0, 141, 2, 3, 142, 1, 0]);
