n_res = 4;
rc = [ 12, 14, 10, 12 ];
n_tasks = 32;
d = [0, 7, 1, 7, 8, 5, 3, 4, 4, 10, 7, 5, 5, 8, 6, 8, 5, 8, 10, 8, 5, 3, 7, 3, 5, 9, 7, 7, 9, 8, 8, 0];
rr = array2d(1..4, 1..32, [0, 4, 0, 0, 0, 0, 2, 7, 8, 0, 1, 0, 0, 0, 0, 4, 8, 1, 3, 0, 0, 0, 0, 0, 10, 0, 0, 0, 10, 6, 4, 0, 0, 2, 0, 0, 0, 0, 0, 9, 0, 9, 0, 9, 0, 0, 8, 0, 9, 4, 0, 5, 7, 2, 4, 6, 6, 5, 0, 0, 8, 0, 6, 0, 0, 0, 1, 7, 0, 9, 0, 0, 2, 0, 0, 5, 0, 0, 1, 0, 0, 2, 0, 0, 2, 0, 0, 1, 3, 0, 7, 0, 0, 5, 0, 0, 0, 0, 0, 0, 10, 0, 0, 8, 8, 0, 3, 0, 1, 3, 8, 2, 0, 0, 8, 8, 7, 7, 2, 2, 10, 3, 6, 4, 7, 0, 4, 0]);

suc = [
   {2, 3, 4},
   {27, 31},
   {5, 6, 14},
   {17, 12, 14},
   {8, 13, 7},
   {9, 10, 22},
   {11, 22, 15},
   {17, 25, 15},
   {26, 20, 13},
   {25, 13, 15},
   {16, 24, 12},
   {18, 19, 28},
   {17, 29, 21},
   {18, 19, 22},
   {16, 24, 18},
   {23},
   {30},
   {29, 27, 21},
   {20},
   {27, 21},
   {23},
   {24, 25, 23},
   {31},
   {26, 28, 29},
   {26, 28},
   {31},
   {30},
   {30},
   {32},
   {32},
   {32},
   {  } ];

deadline = array2d(1..32, 1..3, [6, 1, 0, 7, 2, 1, 22, 3, 2, 25, 3, 3, 28, 3, 3, 28, 1, 2, 36, 1, 5, 37, 3, 0, 39, 0, 4, 46, 2, 2, 52, 5, 1, 57, 0, 2, 59, 2, 0, 63, 2, 4, 72, 5, 0, 79, 4, 3, 80, 5, 5, 80, 0, 0, 81, 1, 4, 89, 1, 0, 90, 1, 1, 96, 2, 1, 100, 3, 4, 103, 5, 1, 121, 0, 0, 131, 3, 3, 137, 2, 5, 139, 2, 3, 140, 1, 0, 145, 2, 0, 146, 5, 4, 151, 0, 5]);
