n_res = 4;
rc = [ 15, 14, 12, 12 ];
n_tasks = 32;
d = [0, 3, 9, 4, 10, 9, 2, 4, 4, 10, 7, 7, 1, 6, 7, 1, 1, 4, 6, 6, 5, 6, 6, 10, 4, 7, 3, 6, 9, 1, 10, 0];
rr = array2d(1..4, 1..32, [0, 0, 0, 9, 10, 0, 2, 8, 0, 0, 10, 0, 3, 0, 0, 0, 3, 10, 9, 0, 6, 5, 0, 0, 0, 9, 0, 2, 0, 0, 5, 0, 0, 0, 7, 0, 3, 0, 6, 0, 0, 0, 0, 2, 0, 10, 1, 1, 0, 6, 2, 6, 0, 0, 6, 8, 4, 0, 9, 8, 0, 0, 0, 0, 0, 9, 0, 0, 3, 8, 1, 8, 4, 8, 0, 5, 0, 8, 5, 0, 0, 1, 5, 0, 4, 0, 0, 0, 0, 5, 0, 3, 0, 0, 0, 0, 0, 0, 0, 2, 10, 4, 0, 4, 0, 0, 0, 6, 0, 0, 1, 5, 0, 0, 9, 3, 0, 0, 8, 5, 9, 0, 5, 8, 7, 4, 7, 0]);

suc = [
   {2, 3, 4},
   {10, 31},
   {5, 14, 22},
   {6, 7},
   {8, 15},
   {9, 19},
   {31},
   {16, 17, 11},
   {12},
   {19, 13},
   {13},
   {26, 14},
   {29, 30},
   {28},
   {18},
   {20},
   {19, 21},
   {31},
   {29},
   {30},
   {23},
   {24, 27},
   {24, 26},
   {25},
   {28, 29},
   {27},
   {28},
   {30},
   {32},
   {32},
   {32},
   {  } ];

deadline = array2d(1..32, 1..3, [2, 2, 4, 6, 1, 3, 12, 0, 3, 15, 3, 1, 24, 3, 2, 27, 0, 4, 29, 0, 4, 37, 3, 1, 52, 2, 5, 52, 4, 3, 53, 4, 2, 55, 0, 4, 70, 1, 5, 72, 4, 3, 73, 2, 1, 76, 2, 4, 77, 4, 1, 81, 0, 5, 91, 5, 4, 92, 1, 4, 94, 5, 3, 95, 1, 2, 96, 4, 2, 98, 4, 3, 106, 1, 1, 115, 5, 5, 130, 1, 0, 131, 2, 5, 137, 4, 3, 141, 0, 5, 141, 5, 3, 142, 0, 5]);
