n_res = 4;
rc = [ 22, 26, 23, 30 ];
n_tasks = 32;
d = [0, 7, 9, 7, 1, 1, 5, 10, 3, 10, 1, 4, 5, 7, 6, 6, 9, 9, 10, 5, 6, 10, 3, 4, 7, 8, 6, 8, 8, 3, 1, 0];
rr = array2d(1..4, 1..32, [0, 6, 2, 3, 3, 2, 7, 0, 10, 1, 10, 7, 0, 6, 2, 6, 0, 0, 8, 0, 8, 5, 2, 3, 5, 0, 0, 0, 1, 10, 5, 0, 0, 3, 7, 0, 5, 1, 5, 5, 5, 5, 5, 1, 8, 5, 9, 9, 2, 0, 0, 1, 4, 0, 9, 0, 3, 0, 4, 0, 5, 10, 7, 0, 0, 5, 7, 8, 6, 4, 0, 8, 7, 5, 0, 0, 5, 8, 2, 4, 0, 3, 2, 2, 1, 0, 5, 8, 7, 8, 6, 10, 6, 6, 0, 0, 0, 0, 0, 6, 9, 6, 7, 0, 9, 4, 1, 0, 1, 10, 6, 0, 8, 10, 3, 1, 8, 7, 10, 6, 0, 3, 1, 0, 2, 0, 8, 0]);

suc = [
   {2, 3, 4},
   {16, 15},
   {13, 28, 5},
   {10, 6, 7},
   {8, 20},
   {16},
   {9, 26, 15},
   {12, 14, 23},
   {18, 28, 13},
   {18, 11, 28},
   {17, 20, 22},
   {22},
   {21, 14, 30},
   {24},
   {17, 25},
   {18, 20},
   {29, 31},
   {19, 21},
   {27, 30},
   {29},
   {25, 29},
   {26, 27},
   {26},
   {25},
   {27},
   {31},
   {31},
   {30},
   {32},
   {32},
   {32},
   {  } ];

deadline = array2d(1..32, 1..3, [7, 1, 4, 14, 1, 4, 20, 1, 5, 21, 0, 3, 25, 5, 5, 27, 2, 2, 30, 3, 1, 31, 1, 1, 42, 4, 1, 42, 5, 2, 48, 2, 5, 55, 1, 1, 56, 5, 2, 59, 5, 5, 63, 4, 2, 64, 2, 0, 64, 2, 5, 66, 3, 4, 67, 3, 2, 68, 1, 1, 70, 5, 3, 78, 0, 0, 81, 4, 2, 81, 5, 1, 81, 4, 5, 86, 4, 5, 92, 4, 0, 95, 2, 5, 95, 4, 0, 103, 2, 5, 107, 5, 2, 109, 0, 2]);
