n_res = 4;
rc = [ 26, 34, 22, 24 ];
n_tasks = 32;
d = [0, 10, 9, 2, 3, 8, 5, 5, 7, 6, 5, 7, 2, 4, 10, 3, 2, 1, 4, 4, 4, 10, 10, 6, 2, 4, 5, 5, 10, 5, 1, 0];
rr = array2d(1..4, 1..32, [0, 7, 9, 2, 0, 0, 7, 0, 0, 8, 3, 0, 6, 4, 6, 4, 9, 8, 6, 8, 2, 6, 6, 9, 9, 0, 0, 9, 0, 3, 8, 0, 0, 0, 4, 0, 2, 1, 0, 3, 2, 5, 0, 8, 0, 6, 3, 9, 4, 4, 4, 0, 6, 1, 4, 9, 8, 6, 10, 0, 5, 7, 6, 0, 0, 1, 6, 9, 0, 10, 10, 3, 1, 1, 0, 9, 9, 0, 4, 7, 3, 7, 5, 4, 3, 6, 0, 0, 10, 0, 0, 10, 7, 4, 5, 0, 0, 0, 7, 3, 0, 9, 4, 1, 0, 0, 8, 7, 2, 10, 6, 1, 0, 7, 6, 5, 10, 0, 7, 4, 6, 5, 3, 5, 0, 7, 3, 0]);

suc = [
   {2, 3, 4},
   {9, 5, 6},
   {8, 9, 7},
   {25, 21, 7},
   {10, 13, 15},
   {11, 13, 7},
   {27, 31, 23},
   {10, 11, 13},
   {10, 12},
   {16, 24},
   {12, 14, 23},
   {27, 26, 19},
   {22, 23},
   {26, 15},
   {16, 17, 20},
   {27, 19},
   {18, 19},
   {24, 21, 22},
   {25, 21, 22},
   {25, 28, 29},
   {28},
   {28, 31},
   {24, 26},
   {29},
   {31},
   {30},
   {29, 30},
   {30},
   {32},
   {32},
   {32},
   {  } ];

deadline = array2d(1..32, 1..3, [5, 0, 4, 35, 5, 5, 46, 2, 0, 50, 0, 0, 57, 1, 0, 69, 5, 1, 70, 5, 3, 75, 2, 2, 78, 3, 3, 78, 5, 4, 88, 0, 4, 92, 1, 0, 103, 4, 1, 104, 2, 3, 108, 4, 1, 108, 0, 1, 109, 5, 4, 113, 4, 2, 114, 0, 1, 119, 5, 1, 120, 4, 1, 122, 1, 5, 129, 3, 2, 133, 3, 3, 134, 5, 4, 148, 1, 0, 150, 1, 5, 150, 5, 4, 152, 5, 5, 152, 4, 3, 155, 2, 5, 156, 0, 3]);
