n_res = 4;
rc = [ 18, 20, 18, 21 ];
n_tasks = 32;
d = [0, 3, 1, 3, 1, 6, 2, 9, 5, 8, 10, 2, 3, 5, 1, 7, 7, 7, 4, 1, 7, 1, 5, 10, 8, 8, 3, 7, 4, 8, 5, 0];
rr = array2d(1..4, 1..32, [0, 0, 0, 10, 2, 5, 1, 0, 0, 7, 0, 0, 8, 0, 0, 0, 0, 2, 0, 5, 10, 6, 0, 0, 5, 4, 0, 0, 8, 0, 7, 0, 0, 0, 2, 5, 0, 3, 9, 6, 0, 4, 3, 6, 0, 6, 4, 0, 0, 0, 7, 9, 0, 0, 0, 9, 5, 1, 9, 4, 3, 0, 0, 0, 0, 0, 0, 0, 2, 1, 3, 10, 6, 0, 0, 0, 9, 5, 0, 2, 0, 0, 2, 6, 0, 0, 1, 0, 0, 3, 0, 7, 0, 9, 0, 0, 0, 9, 0, 9, 3, 0, 7, 0, 0, 1, 7, 7, 0, 0, 0, 7, 2, 0, 0, 0, 10, 9, 0, 7, 0, 0, 2, 5, 0, 0, 8, 0]);

suc = [
   {2, 3, 4},
   {10, 31, 15},
   {17, 11, 13},
   {5, 6, 7},
   {16, 18, 20},
   {8, 9, 12},
   {10},
   {16},
   {28, 14, 23},
   {27, 11},
   {25, 21},
   {16, 25, 19},
   {29},
   {30, 31},
   {24, 21},
   {24, 22, 23},
   {20, 22},
   {29},
   {20, 21},
   {27, 23},
   {26},
   {26},
   {26, 31},
   {27},
   {28},
   {30},
   {28, 29},
   {30},
   {32},
   {32},
   {32},
   {  } ];

deadline = array2d(1..32, 1..3, [4, 4, 1, 9, 1, 4, 12, 1, 2, 18, 3, 2, 26, 1, 4, 27, 5, 2, 28, 5, 3, 30, 4, 5, 32, 1, 5, 39, 5, 4, 45, 2, 4, 47, 4, 0, 55, 4, 2, 57, 0, 0, 59, 0, 1, 60, 2, 1, 61, 0, 2, 70, 3, 3, 79, 3, 4, 80, 1, 0, 80, 1, 3, 89, 0, 3, 90, 1, 1, 91, 3, 5, 95, 3, 3, 101, 5, 0, 110, 4, 2, 118, 4, 1, 120, 2, 0, 122, 4, 2, 122, 3, 1, 127, 0, 0]);
