n_res = 4;
rc = [ 14, 30, 13, 17 ];
n_tasks = 32;
d = [0, 1, 3, 4, 7, 4, 3, 1, 2, 10, 8, 4, 8, 1, 3, 1, 6, 8, 10, 4, 8, 5, 9, 9, 10, 1, 6, 9, 7, 8, 10, 0];
rr = array2d(1..4, 1..32, [0, 8, 0, 0, 4, 0, 2, 10, 0, 0, 0, 0, 0, 0, 0, 0, 0, 0, 0, 8, 4, 0, 2, 0, 0, 0, 0, 0, 0, 0, 0, 0, 0, 0, 0, 10, 0, 0, 0, 0, 0, 3, 1, 9, 8, 5, 0, 0, 0, 0, 10, 0, 0, 4, 0, 0, 0, 2, 8, 3, 0, 1, 0, 0, 0, 0, 0, 0, 0, 0, 0, 0, 0, 0, 0, 0, 0, 0, 0, 8, 0, 10, 0, 0, 0, 0, 0, 3, 0, 0, 0, 0, 0, 0, 4, 0, 0, 0, 6, 0, 0, 8, 0, 0, 9, 0, 0, 0, 0, 0, 8, 0, 7, 0, 0, 0, 0, 0, 0, 0, 10, 0, 0, 0, 5, 0, 0, 0]);

suc = [
   {2, 3, 4},
   {5, 6, 7},
   {13, 23},
   {9, 11},
   {10, 20, 15},
   {8},
   {31},
   {16, 12},
   {13},
   {17},
   {12, 15},
   {22},
   {14},
   {18},
   {29},
   {19, 22},
   {23},
   {25},
   {24, 21},
   {25},
   {26, 27},
   {24, 23},
   {31},
   {25},
   {26, 28},
   {29, 30, 31},
   {28},
   {30},
   {32},
   {32},
   {32},
   {  } ];

deadline = array2d(1..32, 1..3, [12, 2, 4, 12, 2, 0, 16, 5, 1, 19, 3, 1, 30, 2, 3, 35, 4, 0, 36, 4, 4, 38, 0, 3, 60, 0, 3, 62, 5, 1, 68, 2, 2, 74, 5, 4, 75, 5, 4, 76, 3, 2, 79, 4, 4, 83, 1, 1, 84, 0, 4, 91, 1, 3, 99, 3, 3, 101, 0, 1, 102, 3, 1, 103, 4, 4, 108, 1, 1, 113, 5, 5, 114, 1, 0, 121, 2, 3, 121, 0, 5, 129, 4, 0, 132, 2, 3, 134, 0, 0, 135, 0, 0, 138, 1, 4]);
