n_res = 4;
rc = [ 10, 14, 18, 24 ];
n_tasks = 32;
d = [0, 10, 6, 8, 6, 5, 9, 1, 6, 6, 6, 1, 4, 1, 7, 8, 4, 3, 3, 2, 1, 3, 6, 10, 1, 4, 6, 6, 3, 4, 8, 0];
rr = array2d(1..4, 1..32, [0, 0, 0, 0, 0, 0, 0, 0, 6, 0, 0, 0, 2, 0, 0, 0, 0, 0, 10, 0, 2, 0, 0, 0, 0, 0, 0, 0, 0, 0, 1, 0, 0, 5, 10, 0, 2, 0, 0, 0, 0, 2, 8, 0, 0, 0, 0, 0, 0, 7, 0, 0, 0, 0, 0, 0, 0, 0, 0, 2, 0, 0, 0, 0, 0, 0, 0, 0, 0, 0, 0, 7, 0, 0, 0, 3, 0, 4, 0, 0, 0, 0, 0, 1, 0, 6, 1, 0, 0, 10, 0, 0, 10, 0, 0, 0, 0, 0, 0, 1, 0, 7, 10, 0, 0, 0, 0, 0, 0, 0, 1, 10, 2, 0, 0, 0, 0, 0, 0, 3, 4, 0, 7, 0, 0, 9, 0, 0]);

suc = [
   {2, 3, 4},
   {9, 5, 30},
   {8, 12, 6},
   {13, 23},
   {17},
   {17, 15, 7},
   {10},
   {24},
   {16, 19, 11},
   {29},
   {25, 22},
   {18, 14},
   {27},
   {27},
   {26},
   {24, 18, 21},
   {22},
   {20},
   {20, 29},
   {28},
   {22},
   {26, 28},
   {24},
   {28},
   {31},
   {31},
   {29},
   {31},
   {32},
   {32},
   {32},
   {  } ];

deadline = array2d(1..32, 1..3, [6, 5, 1, 6, 5, 0, 6, 5, 3, 10, 3, 4, 11, 2, 0, 15, 5, 4, 18, 1, 5, 21, 0, 3, 24, 2, 0, 29, 5, 2, 35, 5, 5, 41, 5, 3, 41, 2, 2, 44, 1, 1, 51, 1, 2, 56, 2, 3, 57, 0, 3, 62, 2, 5, 69, 3, 4, 80, 1, 3, 82, 5, 5, 90, 0, 2, 98, 1, 0, 100, 4, 5, 102, 3, 3, 102, 1, 0, 105, 1, 3, 107, 2, 1, 107, 1, 2, 108, 2, 5, 109, 2, 4, 120, 0, 4]);
