n_res = 4;
rc = [ 25, 26, 20, 19 ];
n_tasks = 32;
d = [0, 6, 7, 4, 8, 1, 8, 6, 8, 8, 1, 1, 6, 6, 5, 3, 7, 4, 5, 8, 7, 8, 10, 5, 3, 8, 4, 2, 8, 9, 3, 0];
rr = array2d(1..4, 1..32, [0, 9, 9, 5, 0, 8, 1, 2, 0, 9, 9, 2, 9, 1, 9, 4, 7, 1, 7, 3, 0, 0, 8, 0, 6, 7, 6, 8, 4, 8, 0, 0, 0, 9, 1, 0, 6, 9, 10, 3, 4, 0, 7, 6, 6, 0, 9, 1, 10, 0, 0, 2, 1, 8, 9, 0, 0, 10, 0, 0, 3, 0, 4, 0, 0, 10, 6, 8, 0, 5, 9, 0, 4, 7, 7, 10, 0, 8, 0, 3, 7, 0, 10, 10, 4, 1, 0, 2, 10, 0, 0, 10, 1, 5, 8, 0, 0, 8, 0, 4, 1, 4, 0, 10, 2, 3, 6, 1, 0, 3, 0, 10, 9, 9, 5, 5, 0, 1, 4, 10, 3, 5, 7, 3, 4, 5, 9, 0]);

suc = [
   {2, 3, 4},
   {8, 11, 12},
   {24, 6, 23},
   {10, 5, 6},
   {15, 13, 7},
   {25, 27, 29},
   {9, 19, 14},
   {26},
   {17, 18, 22},
   {16, 11},
   {19},
   {17, 21, 15},
   {28, 22, 31},
   {20},
   {23},
   {18, 27, 21},
   {24},
   {26},
   {20, 21},
   {24, 25},
   {22, 31},
   {23},
   {26, 30},
   {28},
   {31},
   {29},
   {30},
   {30},
   {32},
   {32},
   {32},
   {  } ];

deadline = array2d(1..32, 1..3, [6, 1, 1, 7, 3, 3, 24, 4, 2, 26, 2, 2, 26, 5, 5, 32, 4, 1, 39, 1, 3, 42, 3, 3, 51, 4, 2, 51, 5, 2, 73, 0, 3, 74, 4, 5, 77, 1, 1, 91, 5, 2, 100, 0, 5, 101, 1, 1, 104, 3, 1, 106, 4, 3, 110, 3, 0, 111, 0, 4, 111, 1, 1, 112, 3, 2, 113, 2, 2, 121, 5, 5, 125, 5, 1, 127, 4, 0, 129, 2, 3, 136, 4, 4, 149, 5, 4, 150, 3, 4, 152, 0, 1, 152, 3, 0]);
