n_res = 4;
rc = [ 22, 23, 21, 27 ];
n_tasks = 32;
d = [0, 1, 5, 1, 9, 4, 6, 3, 8, 10, 4, 6, 10, 9, 5, 1, 10, 2, 4, 4, 7, 3, 8, 9, 7, 7, 2, 9, 6, 5, 5, 0];
rr = array2d(1..4, 1..32, [0, 2, 7, 7, 4, 3, 3, 8, 3, 4, 2, 9, 2, 10, 4, 2, 2, 5, 10, 9, 8, 7, 7, 8, 7, 6, 10, 8, 7, 1, 10, 0, 0, 1, 3, 6, 8, 9, 9, 9, 7, 3, 4, 6, 7, 5, 8, 1, 3, 7, 2, 3, 5, 5, 5, 1, 10, 6, 9, 2, 6, 8, 3, 0, 0, 3, 4, 10, 4, 7, 10, 10, 4, 6, 2, 5, 9, 4, 6, 1, 10, 9, 2, 1, 7, 10, 10, 1, 6, 7, 7, 9, 2, 8, 1, 0, 0, 7, 10, 1, 10, 10, 9, 9, 9, 4, 1, 10, 1, 10, 3, 6, 8, 2, 9, 2, 3, 5, 10, 4, 10, 8, 10, 2, 9, 8, 4, 0]);

suc = [
   {2, 3, 4},
   {8, 10, 12},
   {5, 6},
   {8, 15, 7},
   {11, 13},
   {16, 27, 11},
   {16, 19, 12},
   {9},
   {27, 21, 14},
   {18},
   {25, 23, 15},
   {22},
   {17, 29, 22},
   {16, 25, 30},
   {28},
   {28},
   {24, 19, 23},
   {24, 20},
   {26, 21},
   {25, 26, 31},
   {31},
   {23},
   {26},
   {27, 30},
   {28},
   {30},
   {31},
   {29},
   {32},
   {32},
   {32},
   {  } ];

deadline = array2d(1..32, 1..3, [1, 2, 0, 1, 2, 2, 1, 1, 5, 8, 2, 2, 9, 5, 4, 10, 1, 3, 12, 2, 5, 15, 0, 1, 19, 1, 1, 25, 1, 0, 39, 2, 3, 40, 0, 4, 41, 2, 4, 42, 4, 3, 43, 5, 4, 44, 1, 3, 52, 3, 3, 54, 5, 0, 76, 2, 1, 81, 1, 3, 84, 4, 3, 87, 4, 5, 95, 2, 2, 99, 3, 1, 99, 0, 4, 106, 3, 0, 110, 3, 1, 117, 4, 0, 118, 4, 1, 123, 1, 1, 130, 1, 1, 135, 0, 2]);
