n_res = 4;
rc = [ 15, 15, 14, 14 ];
n_tasks = 32;
d = [0, 6, 10, 10, 3, 10, 8, 1, 4, 9, 5, 4, 8, 10, 9, 10, 9, 6, 7, 8, 2, 1, 10, 1, 6, 10, 6, 10, 5, 4, 1, 0];
rr = array2d(1..4, 1..32, [0, 7, 6, 6, 0, 9, 0, 8, 10, 0, 4, 2, 7, 0, 9, 10, 1, 6, 2, 10, 2, 4, 2, 2, 9, 9, 3, 1, 1, 10, 0, 0, 0, 9, 8, 2, 6, 3, 0, 10, 4, 3, 10, 7, 8, 1, 0, 2, 9, 6, 5, 2, 6, 8, 9, 0, 5, 10, 6, 9, 0, 7, 2, 0, 0, 7, 9, 6, 1, 9, 3, 0, 3, 3, 0, 0, 0, 0, 4, 10, 4, 0, 4, 6, 0, 9, 7, 7, 0, 0, 2, 2, 10, 4, 0, 0, 0, 0, 0, 8, 6, 0, 0, 8, 0, 0, 5, 4, 9, 1, 0, 5, 2, 4, 2, 2, 8, 5, 0, 0, 4, 2, 2, 9, 7, 1, 0, 0]);

suc = [
   {2, 3, 4},
   {16, 27, 14},
   {6, 7},
   {8, 24, 5},
   {9, 11, 12},
   {13},
   {17, 10},
   {16},
   {25, 15},
   {26, 21},
   {26, 20, 28},
   {30},
   {19},
   {18},
   {16},
   {19},
   {29},
   {21},
   {22, 23},
   {25},
   {25},
   {29},
   {31},
   {28, 31},
   {29},
   {27, 31},
   {30},
   {30},
   {32},
   {32},
   {32},
   {  } ];

deadline = array2d(1..32, 1..3, [9, 4, 5, 11, 0, 1, 23, 4, 4, 46, 5, 2, 47, 4, 2, 48, 5, 2, 48, 3, 0, 49, 5, 1, 50, 4, 4, 56, 5, 5, 62, 1, 2, 62, 2, 3, 63, 4, 4, 70, 4, 1, 74, 3, 4, 75, 2, 0, 88, 4, 5, 89, 5, 1, 91, 0, 2, 96, 0, 0, 98, 3, 4, 101, 1, 4, 102, 4, 0, 110, 5, 5, 115, 4, 3, 118, 4, 5, 121, 4, 5, 121, 3, 2, 122, 5, 0, 126, 4, 1, 127, 5, 4, 134, 3, 1]);
