n_res = 4;
rc = [ 9, 11, 9, 14 ];
n_tasks = 32;
d = [0, 10, 3, 1, 1, 7, 10, 4, 7, 2, 4, 2, 1, 4, 7, 9, 10, 8, 5, 10, 9, 2, 3, 6, 9, 2, 9, 4, 7, 2, 1, 0];
rr = array2d(1..4, 1..32, [0, 2, 8, 0, 0, 5, 0, 0, 0, 0, 0, 0, 0, 0, 0, 2, 1, 0, 0, 0, 7, 0, 0, 0, 5, 0, 4, 0, 0, 0, 0, 0, 0, 0, 0, 5, 0, 0, 6, 0, 3, 0, 0, 5, 3, 0, 0, 0, 0, 7, 9, 5, 0, 0, 8, 0, 0, 0, 0, 10, 0, 0, 0, 0, 0, 0, 0, 0, 6, 0, 0, 6, 0, 0, 7, 0, 0, 8, 7, 0, 0, 0, 0, 0, 0, 0, 0, 0, 0, 0, 0, 0, 0, 0, 6, 0, 0, 0, 0, 0, 0, 0, 0, 0, 0, 3, 0, 0, 0, 0, 0, 0, 0, 0, 0, 0, 0, 2, 0, 9, 0, 9, 0, 0, 10, 4, 0, 0]);

suc = [
   {2, 3, 4},
   {17, 20, 21},
   {9, 10, 13},
   {8, 12, 5},
   {14, 6, 7},
   {19, 11},
   {10, 28},
   {9, 18, 25},
   {16, 17, 20},
   {25, 11},
   {23, 15},
   {24},
   {24, 18, 26},
   {16, 31, 15},
   {26, 29},
   {29},
   {22},
   {19},
   {27},
   {23},
   {25},
   {28, 29, 23},
   {24, 26},
   {30},
   {31},
   {30},
   {28, 30},
   {31},
   {32},
   {32},
   {32},
   {  } ];

deadline = array2d(1..32, 1..3, [1, 3, 5, 2, 2, 3, 6, 1, 4, 10, 5, 1, 13, 5, 4, 17, 3, 5, 20, 1, 2, 24, 3, 5, 30, 5, 2, 30, 5, 1, 37, 2, 3, 37, 1, 3, 38, 0, 0, 39, 3, 4, 40, 3, 4, 48, 3, 2, 49, 0, 2, 52, 0, 0, 53, 0, 1, 57, 3, 5, 60, 0, 4, 63, 3, 1, 71, 0, 5, 73, 1, 0, 74, 3, 3, 75, 1, 3, 76, 1, 4, 79, 0, 2, 84, 5, 4, 84, 1, 0, 86, 2, 4, 87, 4, 5]);
