n_res = 4;
rc = [ 18, 16, 15, 18 ];
n_tasks = 32;
d = [0, 10, 3, 9, 2, 10, 4, 6, 3, 8, 6, 6, 2, 8, 3, 9, 6, 1, 2, 2, 6, 2, 7, 7, 4, 5, 2, 4, 3, 2, 5, 0];
rr = array2d(1..4, 1..32, [0, 0, 5, 6, 3, 2, 6, 1, 10, 7, 0, 9, 8, 9, 9, 2, 3, 6, 9, 3, 7, 4, 3, 1, 5, 5, 2, 5, 1, 0, 4, 0, 0, 0, 7, 7, 5, 0, 8, 1, 0, 4, 8, 0, 3, 4, 10, 10, 5, 0, 7, 2, 9, 7, 2, 0, 0, 3, 4, 10, 0, 8, 9, 0, 0, 2, 10, 4, 0, 5, 1, 5, 7, 0, 5, 0, 9, 1, 0, 0, 2, 0, 0, 0, 6, 0, 7, 6, 3, 6, 5, 6, 4, 6, 9, 0, 0, 2, 7, 0, 1, 4, 9, 1, 8, 9, 0, 0, 6, 2, 7, 4, 0, 9, 5, 0, 3, 7, 10, 0, 5, 0, 2, 1, 0, 10, 0, 0]);

suc = [
   {2, 3, 4},
   {8, 15, 7},
   {16, 9},
   {26, 5, 6},
   {7},
   {20},
   {10, 11, 14},
   {24, 20, 13},
   {21, 14, 22},
   {16, 25, 19},
   {17, 12},
   {24, 18, 13},
   {29, 31},
   {25, 23},
   {30},
   {17},
   {18, 22, 23},
   {27, 20, 29},
   {28, 30, 23},
   {21},
   {31},
   {27, 28},
   {24},
   {27},
   {28},
   {30},
   {31},
   {29},
   {32},
   {32},
   {32},
   {  } ];

deadline = array2d(1..32, 1..3, [7, 4, 3, 12, 3, 1, 14, 4, 2, 25, 3, 3, 25, 2, 0, 25, 5, 0, 27, 0, 2, 30, 1, 4, 30, 5, 0, 34, 5, 2, 40, 3, 1, 60, 2, 1, 62, 0, 2, 63, 0, 4, 65, 2, 2, 70, 3, 0, 72, 3, 1, 80, 3, 4, 84, 0, 5, 92, 1, 4, 94, 4, 4, 98, 4, 3, 107, 5, 0, 110, 2, 4, 116, 1, 5, 116, 4, 1, 117, 3, 5, 119, 4, 4, 126, 1, 0, 129, 1, 4, 135, 4, 4, 144, 4, 1]);
