n_res = 4;
rc = [ 21, 20, 15, 12 ];
n_tasks = 32;
d = [0, 1, 9, 4, 10, 10, 7, 2, 5, 7, 8, 9, 7, 3, 10, 3, 3, 9, 5, 8, 8, 9, 7, 7, 8, 9, 10, 7, 1, 8, 4, 0];
rr = array2d(1..4, 1..32, [0, 0, 9, 4, 0, 2, 10, 0, 4, 0, 8, 0, 0, 0, 2, 0, 3, 0, 0, 7, 1, 0, 0, 0, 0, 1, 5, 0, 0, 9, 6, 0, 0, 6, 4, 1, 0, 8, 4, 0, 10, 0, 4, 0, 0, 7, 0, 6, 0, 2, 0, 3, 7, 5, 4, 8, 10, 6, 0, 4, 3, 6, 0, 0, 0, 0, 9, 7, 7, 0, 2, 0, 0, 10, 0, 0, 0, 0, 2, 0, 6, 7, 8, 0, 0, 1, 0, 8, 8, 6, 6, 0, 1, 7, 0, 0, 0, 0, 3, 9, 0, 4, 0, 5, 0, 0, 0, 2, 2, 0, 0, 0, 0, 0, 7, 0, 0, 0, 2, 0, 0, 0, 0, 0, 9, 4, 6, 0]);

suc = [
   {2, 3, 4},
   {9, 11, 20},
   {8, 5},
   {12, 6},
   {7},
   {25, 26, 22},
   {24, 10, 21},
   {16},
   {15},
   {19},
   {14, 31},
   {18, 13, 14},
   {25},
   {17},
   {28},
   {19},
   {30},
   {21},
   {27, 23},
   {26, 30},
   {25, 28, 22},
   {27},
   {26},
   {29},
   {31},
   {29},
   {31},
   {30},
   {32},
   {32},
   {32},
   {  } ];

deadline = array2d(1..32, 1..3, [4, 2, 2, 20, 5, 1, 21, 2, 0, 22, 1, 0, 31, 0, 3, 34, 3, 2, 39, 0, 3, 40, 4, 2, 52, 1, 5, 53, 3, 0, 54, 4, 0, 56, 0, 3, 59, 4, 0, 60, 4, 3, 60, 4, 2, 61, 4, 4, 72, 3, 3, 72, 0, 0, 83, 3, 1, 88, 1, 2, 94, 4, 3, 97, 4, 1, 105, 5, 0, 105, 1, 5, 113, 5, 5, 115, 4, 2, 116, 1, 2, 124, 5, 0, 125, 5, 4, 129, 3, 5, 137, 1, 0, 139, 3, 2]);
