n_res = 4;
rc = [ 16, 10, 16, 21 ];
n_tasks = 32;
d = [0, 2, 10, 4, 2, 1, 4, 1, 10, 10, 6, 6, 1, 3, 3, 7, 7, 9, 1, 9, 3, 2, 7, 9, 1, 5, 9, 7, 10, 3, 8, 0];
rr = array2d(1..4, 1..32, [0, 9, 10, 0, 3, 8, 0, 0, 0, 0, 0, 0, 0, 4, 6, 0, 8, 8, 1, 0, 9, 1, 6, 0, 0, 3, 7, 3, 3, 0, 2, 0, 0, 4, 0, 0, 0, 0, 4, 4, 0, 0, 4, 0, 0, 7, 0, 0, 2, 9, 2, 0, 1, 0, 2, 0, 2, 0, 2, 0, 0, 7, 0, 0, 0, 0, 0, 0, 9, 8, 7, 9, 8, 3, 0, 4, 3, 0, 9, 9, 2, 0, 0, 0, 0, 1, 0, 4, 7, 0, 0, 0, 0, 0, 0, 0, 0, 0, 4, 7, 0, 1, 5, 0, 9, 0, 0, 1, 7, 8, 4, 0, 0, 0, 7, 5, 0, 7, 0, 9, 0, 4, 0, 7, 7, 0, 10, 0]);

suc = [
   {2, 3, 4},
   {5},
   {31, 6, 23},
   {27, 20, 22},
   {8, 18, 12},
   {9, 21, 7},
   {10, 11, 13},
   {15},
   {11, 20},
   {17, 27, 12},
   {16, 26, 14},
   {19},
   {17, 18, 22},
   {18, 28, 22},
   {16, 24, 19},
   {17, 28},
   {30},
   {27},
   {20},
   {25},
   {26},
   {29},
   {25, 29},
   {25, 31},
   {26},
   {28},
   {29, 30},
   {30},
   {32},
   {32},
   {32},
   {  } ];

deadline = array2d(1..32, 1..3, [5, 5, 2, 10, 4, 4, 18, 5, 1, 19, 5, 4, 22, 1, 1, 24, 5, 1, 24, 2, 0, 39, 0, 5, 41, 2, 0, 45, 4, 3, 56, 2, 4, 56, 3, 5, 58, 0, 0, 67, 5, 5, 67, 2, 1, 70, 0, 2, 79, 4, 5, 84, 3, 1, 93, 0, 5, 96, 1, 1, 104, 2, 4, 105, 0, 3, 109, 5, 5, 111, 0, 2, 113, 5, 1, 120, 0, 4, 123, 1, 2, 126, 0, 2, 130, 2, 0, 138, 4, 0, 139, 3, 0, 142, 0, 0]);
