n_res = 4;
rc = [ 14, 12, 11, 12 ];
n_tasks = 32;
d = [0, 7, 6, 5, 10, 9, 7, 10, 2, 9, 10, 3, 2, 8, 5, 8, 4, 3, 6, 5, 9, 9, 2, 8, 6, 2, 9, 1, 2, 8, 6, 0];
rr = array2d(1..4, 1..32, [0, 0, 10, 0, 5, 0, 8, 0, 0, 0, 0, 8, 0, 7, 5, 2, 0, 8, 0, 2, 3, 1, 9, 0, 8, 0, 0, 0, 5, 8, 0, 0, 0, 0, 0, 0, 0, 9, 0, 9, 0, 2, 0, 0, 9, 0, 9, 1, 4, 0, 0, 3, 10, 0, 0, 0, 0, 3, 5, 0, 0, 0, 0, 0, 0, 0, 3, 8, 0, 0, 1, 0, 0, 2, 3, 1, 1, 10, 0, 3, 4, 6, 0, 1, 6, 0, 0, 4, 0, 0, 0, 4, 3, 0, 0, 0, 0, 7, 0, 5, 0, 5, 0, 2, 9, 0, 4, 9, 0, 0, 2, 0, 7, 4, 6, 6, 0, 8, 2, 4, 0, 4, 9, 0, 4, 0, 3, 0]);

suc = [
   {2, 3, 4},
   {5, 14, 23},
   {8, 12, 20},
   {8, 18, 12},
   {21, 6, 7},
   {11},
   {16, 15},
   {9, 11, 28},
   {10, 26, 22},
   {13},
   {17, 22},
   {23},
   {21},
   {25, 19, 29},
   {20},
   {19},
   {25, 29, 30},
   {27, 20},
   {24, 26, 22},
   {24, 25},
   {30},
   {31},
   {24, 27, 29},
   {28},
   {26},
   {31},
   {28, 30},
   {31},
   {32},
   {32},
   {32},
   {  } ];

deadline = array2d(1..32, 1..3, [2, 4, 1, 4, 4, 1, 5, 1, 0, 9, 0, 0, 14, 5, 3, 17, 3, 0, 28, 3, 1, 31, 1, 2, 40, 4, 4, 40, 5, 4, 50, 2, 1, 56, 2, 1, 63, 3, 5, 70, 1, 5, 71, 0, 0, 73, 1, 3, 82, 3, 2, 85, 4, 1, 85, 3, 0, 92, 4, 1, 94, 3, 3, 95, 3, 5, 97, 4, 1, 102, 1, 5, 103, 0, 2, 111, 3, 1, 123, 1, 3, 126, 4, 4, 128, 4, 2, 129, 1, 1, 131, 3, 4, 132, 3, 4]);
