n_res = 4;
rc = [ 18, 18, 22, 18 ];
n_tasks = 32;
d = [0, 2, 4, 3, 2, 6, 4, 6, 10, 10, 5, 8, 3, 1, 7, 2, 9, 7, 6, 5, 4, 4, 3, 7, 5, 9, 7, 7, 5, 5, 2, 0];
rr = array2d(1..4, 1..32, [0, 5, 5, 3, 0, 6, 4, 10, 7, 1, 7, 4, 0, 4, 6, 2, 2, 10, 2, 0, 0, 9, 3, 7, 1, 0, 7, 9, 2, 4, 3, 0, 0, 10, 10, 1, 9, 7, 0, 5, 4, 0, 0, 0, 10, 1, 0, 6, 0, 6, 0, 6, 9, 1, 7, 8, 0, 0, 9, 1, 3, 4, 6, 0, 0, 0, 10, 1, 9, 8, 0, 4, 7, 1, 3, 9, 8, 9, 10, 0, 1, 2, 8, 3, 10, 0, 8, 3, 0, 5, 0, 7, 8, 9, 7, 0, 0, 10, 7, 4, 0, 8, 3, 1, 0, 3, 0, 8, 3, 0, 1, 6, 8, 6, 7, 0, 0, 0, 0, 0, 4, 2, 9, 7, 10, 6, 7, 0]);

suc = [
   {2, 3, 4},
   {24, 25, 13},
   {5, 6, 7},
   {12, 14, 15},
   {17, 10, 19},
   {8, 19, 11},
   {9, 10},
   {18},
   {18, 11, 14},
   {20, 13, 23},
   {20, 12, 13},
   {17, 26, 21},
   {26, 27, 31},
   {17, 28, 30},
   {16, 20, 21},
   {26, 19, 23},
   {27, 22},
   {28, 21},
   {25, 28, 22},
   {24, 25, 27},
   {30, 22, 23},
   {24},
   {29},
   {31},
   {29},
   {30},
   {29},
   {31},
   {32},
   {32},
   {32},
   {  } ];

deadline = array2d(1..32, 1..3, [5, 5, 4, 15, 4, 0, 16, 1, 2, 18, 4, 4, 24, 2, 2, 26, 5, 1, 27, 1, 3, 28, 2, 4, 30, 2, 1, 31, 1, 5, 40, 3, 5, 43, 3, 1, 48, 1, 0, 53, 1, 4, 57, 0, 4, 59, 0, 3, 64, 5, 2, 71, 1, 2, 73, 4, 5, 73, 1, 5, 73, 3, 4, 73, 2, 1, 78, 1, 0, 80, 5, 2, 83, 3, 3, 89, 0, 0, 90, 1, 0, 92, 0, 4, 92, 5, 1, 123, 2, 3, 127, 5, 2, 131, 2, 3]);
