n_res = 4;
rc = [ 27, 27, 29, 21 ];
n_tasks = 32;
d = [0, 5, 3, 1, 1, 5, 2, 2, 8, 9, 1, 4, 2, 4, 1, 1, 3, 7, 6, 1, 8, 3, 3, 10, 8, 7, 4, 5, 2, 7, 5, 0];
rr = array2d(1..4, 1..32, [0, 7, 4, 0, 6, 0, 3, 0, 3, 4, 0, 6, 10, 0, 5, 0, 0, 9, 8, 7, 0, 0, 0, 0, 7, 7, 0, 0, 8, 0, 2, 0, 0, 0, 4, 2, 9, 0, 8, 8, 0, 3, 6, 0, 0, 1, 0, 0, 9, 4, 9, 5, 5, 5, 2, 0, 0, 0, 7, 2, 0, 6, 9, 0, 0, 0, 0, 0, 0, 8, 0, 4, 0, 0, 9, 10, 0, 2, 0, 1, 0, 9, 0, 0, 0, 0, 0, 8, 5, 10, 0, 5, 0, 9, 8, 0, 0, 3, 4, 1, 8, 0, 0, 0, 10, 9, 0, 9, 0, 0, 0, 0, 0, 0, 2, 0, 1, 8, 0, 0, 3, 0, 10, 0, 0, 0, 3, 0]);

suc = [
   {2, 3, 4},
   {5},
   {17, 26, 6},
   {10, 19, 14},
   {16, 18, 12},
   {8, 15, 7},
   {9, 11, 20},
   {22},
   {23},
   {21},
   {13},
   {17, 31},
   {29},
   {27},
   {19, 29},
   {26, 27},
   {27, 28},
   {25, 19},
   {28},
   {25},
   {30},
   {24},
   {31},
   {28},
   {31},
   {29},
   {30},
   {30},
   {32},
   {32},
   {32},
   {  } ];

deadline = array2d(1..32, 1..3, [3, 5, 1, 8, 0, 0, 11, 3, 1, 11, 5, 0, 12, 5, 5, 15, 1, 4, 19, 1, 2, 20, 4, 2, 22, 4, 4, 22, 0, 4, 23, 0, 2, 28, 2, 1, 30, 4, 0, 34, 5, 2, 42, 5, 5, 43, 4, 3, 46, 4, 4, 47, 1, 1, 47, 3, 2, 48, 3, 0, 62, 5, 3, 63, 2, 1, 64, 2, 4, 65, 3, 0, 66, 4, 4, 68, 2, 0, 68, 3, 5, 68, 1, 4, 74, 2, 5, 77, 1, 2, 80, 0, 2, 83, 2, 1]);
