n_res = 4;
rc = [ 15, 14, 13, 13 ];
n_tasks = 32;
d = [0, 9, 9, 2, 5, 9, 5, 10, 9, 1, 2, 9, 6, 5, 4, 2, 10, 5, 9, 2, 4, 7, 3, 4, 2, 9, 6, 9, 8, 8, 10, 0];
rr = array2d(1..4, 1..32, [0, 4, 0, 8, 4, 6, 3, 0, 7, 3, 0, 5, 10, 8, 9, 6, 2, 7, 4, 0, 8, 5, 1, 2, 0, 6, 5, 9, 5, 0, 9, 0, 0, 0, 6, 7, 5, 1, 10, 10, 5, 5, 10, 8, 6, 0, 10, 0, 3, 7, 0, 1, 10, 9, 9, 9, 0, 4, 10, 0, 6, 10, 0, 0, 0, 7, 9, 8, 2, 0, 7, 1, 1, 0, 1, 0, 0, 0, 10, 6, 0, 6, 1, 8, 1, 10, 4, 6, 8, 0, 9, 1, 0, 7, 10, 0, 0, 2, 0, 0, 10, 3, 10, 7, 1, 10, 2, 1, 2, 0, 8, 2, 10, 2, 9, 4, 0, 2, 0, 5, 10, 0, 0, 3, 9, 0, 3, 0]);

suc = [
   {2, 3, 4},
   {8, 10, 6},
   {29, 12, 20},
   {10, 5, 23},
   {9, 18, 7},
   {15, 13, 7},
   {26, 14, 22},
   {9, 11, 13},
   {17, 26, 27},
   {16, 19, 12},
   {27, 20, 15},
   {17, 14},
   {17, 19, 21},
   {24, 30},
   {18, 19, 23},
   {27, 21, 31},
   {22, 30},
   {26, 28, 31},
   {25, 28, 22},
   {21, 23},
   {25},
   {24},
   {24, 25},
   {31},
   {30},
   {29},
   {28},
   {29},
   {32},
   {32},
   {32},
   {  } ];

deadline = array2d(1..32, 1..3, [6, 2, 2, 11, 2, 0, 27, 0, 4, 29, 1, 4, 30, 3, 1, 37, 3, 5, 42, 4, 3, 43, 2, 5, 45, 2, 1, 46, 4, 5, 50, 2, 4, 62, 4, 0, 63, 0, 2, 65, 4, 0, 68, 5, 0, 70, 3, 0, 77, 3, 2, 81, 5, 0, 88, 2, 1, 88, 2, 0, 90, 3, 1, 90, 3, 3, 99, 1, 3, 102, 5, 0, 102, 3, 4, 110, 4, 0, 124, 5, 0, 128, 2, 2, 130, 5, 4, 131, 2, 3, 131, 5, 5, 134, 4, 4]);
