n_res = 4;
rc = [ 15, 20, 19, 16 ];
n_tasks = 32;
d = [0, 5, 1, 6, 8, 5, 1, 4, 10, 7, 3, 1, 10, 4, 4, 4, 5, 7, 3, 7, 3, 2, 4, 1, 1, 5, 9, 4, 6, 10, 2, 0];
rr = array2d(1..4, 1..32, [0, 0, 7, 9, 0, 0, 8, 0, 0, 0, 6, 0, 0, 0, 0, 0, 0, 4, 7, 0, 1, 0, 3, 0, 9, 0, 0, 0, 5, 0, 0, 0, 0, 3, 0, 0, 0, 0, 0, 0, 0, 9, 0, 0, 0, 0, 7, 5, 10, 0, 0, 10, 0, 0, 0, 0, 0, 0, 0, 3, 0, 9, 5, 0, 0, 0, 0, 0, 1, 0, 0, 1, 9, 0, 0, 5, 8, 2, 0, 0, 0, 0, 0, 0, 0, 0, 0, 0, 0, 0, 0, 0, 0, 0, 0, 0, 0, 0, 0, 0, 0, 3, 0, 0, 0, 0, 0, 0, 0, 0, 0, 0, 0, 0, 0, 0, 0, 10, 0, 10, 0, 8, 4, 0, 0, 0, 0, 0]);

suc = [
   {2, 3, 4},
   {13, 5, 7},
   {11},
   {8, 6, 14},
   {16, 11},
   {18, 11},
   {16, 9, 19},
   {10, 12, 31},
   {20},
   {18, 19, 22},
   {25},
   {15},
   {26, 27, 21},
   {27, 20, 21},
   {20},
   {17, 25, 23},
   {24},
   {26, 30, 23},
   {24},
   {25, 26},
   {28, 22, 31},
   {29},
   {24},
   {28},
   {30},
   {29},
   {28, 30, 31},
   {29},
   {32},
   {32},
   {32},
   {  } ];

deadline = array2d(1..32, 1..3, [2, 1, 3, 5, 5, 3, 7, 4, 5, 9, 3, 5, 12, 5, 5, 22, 0, 0, 25, 3, 2, 26, 4, 1, 27, 3, 5, 29, 4, 0, 33, 2, 1, 36, 3, 2, 36, 1, 0, 39, 5, 3, 44, 2, 5, 46, 5, 0, 48, 4, 5, 51, 4, 1, 53, 0, 4, 54, 3, 4, 56, 0, 2, 59, 1, 5, 62, 5, 1, 66, 1, 2, 67, 2, 1, 70, 0, 2, 76, 4, 2, 80, 2, 1, 84, 4, 0, 87, 1, 3, 90, 1, 4, 93, 5, 4]);
