n_res = 4;
rc = [ 26, 17, 19, 18 ];
n_tasks = 32;
d = [0, 6, 7, 5, 5, 7, 10, 6, 4, 1, 3, 1, 10, 7, 9, 2, 8, 5, 2, 10, 5, 10, 8, 5, 2, 5, 4, 7, 5, 5, 3, 0];
rr = array2d(1..4, 1..32, [0, 8, 0, 0, 1, 10, 2, 2, 1, 1, 8, 8, 6, 6, 9, 0, 4, 7, 4, 7, 10, 6, 6, 3, 10, 9, 7, 0, 10, 5, 0, 0, 0, 4, 0, 0, 5, 9, 9, 0, 2, 0, 10, 2, 2, 5, 8, 7, 8, 4, 2, 4, 5, 3, 0, 6, 5, 0, 3, 6, 8, 1, 0, 0, 0, 1, 3, 3, 0, 0, 4, 8, 4, 1, 3, 2, 10, 9, 8, 4, 9, 0, 0, 1, 0, 6, 1, 4, 0, 4, 0, 0, 0, 0, 10, 0, 0, 3, 7, 5, 2, 8, 4, 0, 6, 5, 7, 6, 0, 7, 5, 10, 1, 0, 1, 6, 0, 5, 8, 0, 6, 2, 0, 7, 1, 1, 0, 0]);

suc = [
   {2, 3, 4},
   {5, 6, 14},
   {10, 12, 5},
   {24, 18, 19},
   {9, 17, 7},
   {9, 10, 17},
   {8, 19, 20},
   {11, 30},
   {11, 13, 23},
   {16, 11, 23},
   {18, 27, 21},
   {20, 13, 14},
   {19, 15},
   {26, 21, 30},
   {16, 22, 30},
   {25},
   {21},
   {28, 31},
   {25, 26, 22},
   {25, 26, 23},
   {24, 22},
   {28},
   {24, 27, 29},
   {31},
   {27, 29},
   {28},
   {31},
   {29},
   {32},
   {32},
   {32},
   {  } ];

deadline = array2d(1..32, 1..3, [5, 2, 4, 14, 5, 3, 17, 5, 3, 27, 3, 1, 28, 2, 5, 41, 1, 3, 42, 5, 3, 52, 1, 4, 54, 0, 1, 60, 5, 3, 65, 4, 5, 66, 2, 2, 67, 4, 3, 73, 0, 0, 74, 4, 2, 75, 5, 0, 80, 0, 3, 81, 5, 1, 87, 4, 3, 99, 5, 5, 103, 1, 0, 105, 3, 1, 107, 0, 0, 111, 0, 2, 113, 2, 4, 114, 2, 2, 114, 3, 0, 127, 0, 2, 136, 4, 3, 140, 1, 1, 140, 4, 4, 141, 1, 0]);
