n_res = 4;
rc = [ 12, 22, 11, 16 ];
n_tasks = 32;
d = [0, 3, 8, 6, 5, 4, 1, 6, 10, 2, 5, 3, 8, 7, 1, 3, 2, 8, 4, 8, 2, 3, 10, 7, 8, 2, 10, 5, 1, 1, 9, 0];
rr = array2d(1..4, 1..32, [0, 0, 8, 0, 0, 0, 3, 0, 0, 0, 0, 6, 4, 0, 5, 0, 3, 0, 0, 0, 0, 0, 0, 0, 0, 0, 0, 0, 9, 0, 0, 0, 0, 0, 0, 0, 6, 0, 0, 0, 5, 0, 0, 0, 0, 4, 0, 0, 0, 3, 9, 2, 10, 7, 0, 0, 0, 0, 3, 0, 0, 0, 0, 0, 0, 1, 0, 0, 0, 0, 0, 0, 0, 0, 5, 0, 0, 0, 0, 0, 0, 0, 0, 0, 0, 0, 0, 1, 0, 0, 0, 9, 0, 3, 2, 0, 0, 0, 0, 9, 0, 9, 0, 7, 0, 1, 0, 0, 0, 0, 0, 3, 0, 0, 0, 0, 0, 0, 1, 0, 7, 4, 0, 0, 0, 0, 0, 0]);

suc = [
   {2, 3, 4},
   {8, 25, 6},
   {31},
   {9, 13, 5},
   {23, 6, 7},
   {16, 17, 22},
   {16, 11, 28},
   {9, 21, 15},
   {24, 10},
   {17, 19, 22},
   {12},
   {27, 19},
   {26, 20, 14},
   {17, 29},
   {29},
   {18, 26},
   {18, 27, 31},
   {30},
   {30},
   {21},
   {24, 22},
   {31},
   {24, 25},
   {28},
   {26, 28},
   {27},
   {30},
   {29},
   {32},
   {32},
   {32},
   {  } ];

deadline = array2d(1..32, 1..3, [2, 0, 0, 7, 2, 0, 12, 5, 0, 16, 1, 3, 21, 2, 2, 23, 3, 2, 24, 5, 3, 27, 4, 1, 29, 3, 1, 31, 4, 4, 33, 0, 0, 39, 2, 4, 40, 1, 0, 47, 4, 1, 50, 1, 3, 58, 3, 1, 60, 5, 5, 60, 4, 4, 62, 1, 5, 64, 1, 4, 66, 5, 3, 71, 5, 3, 73, 5, 3, 81, 5, 1, 82, 3, 0, 84, 1, 3, 88, 0, 4, 92, 4, 3, 99, 3, 4, 100, 4, 4, 100, 3, 1, 100, 3, 1]);
