n_res = 4;
rc = [ 10, 13, 15, 11 ];
n_tasks = 32;
d = [0, 7, 10, 7, 1, 6, 8, 7, 10, 8, 1, 4, 3, 4, 6, 4, 9, 6, 8, 6, 3, 1, 1, 7, 4, 6, 8, 7, 4, 2, 6, 0];
rr = array2d(1..4, 1..32, [0, 0, 0, 0, 0, 0, 0, 0, 0, 0, 0, 5, 0, 0, 0, 1, 1, 0, 0, 0, 0, 5, 9, 0, 0, 0, 1, 5, 0, 0, 4, 0, 0, 0, 0, 3, 0, 0, 6, 0, 0, 0, 2, 0, 0, 0, 8, 0, 0, 0, 0, 2, 5, 0, 0, 0, 1, 4, 0, 0, 0, 10, 0, 0, 0, 4, 5, 0, 5, 9, 0, 5, 2, 0, 0, 0, 0, 7, 0, 0, 0, 4, 0, 0, 0, 0, 0, 1, 0, 0, 0, 0, 0, 0, 0, 0, 0, 0, 0, 0, 0, 0, 0, 0, 0, 6, 0, 0, 7, 0, 0, 0, 0, 0, 9, 0, 0, 0, 0, 0, 0, 0, 0, 0, 9, 0, 0, 0]);

suc = [
   {2, 3, 4},
   {8, 10, 15},
   {10, 5, 6},
   {12, 6, 7},
   {12, 13, 14},
   {24, 9, 30},
   {24, 11, 14},
   {18, 12, 13},
   {16, 20, 15},
   {16, 22, 31},
   {13, 22, 15},
   {16, 19, 23},
   {17, 19, 23},
   {19, 21, 23},
   {25, 26},
   {28},
   {29, 21, 31},
   {24, 25, 21},
   {27, 20},
   {26},
   {27},
   {25, 27},
   {26, 29, 30},
   {28},
   {28},
   {31},
   {30},
   {29},
   {32},
   {32},
   {32},
   {  } ];

deadline = array2d(1..32, 1..3, [8, 2, 0, 10, 1, 2, 11, 4, 3, 19, 0, 0, 21, 1, 3, 21, 0, 0, 24, 3, 0, 32, 1, 2, 33, 4, 1, 33, 1, 0, 34, 5, 0, 46, 0, 0, 46, 3, 2, 49, 1, 5, 51, 0, 2, 52, 2, 2, 60, 3, 0, 61, 3, 3, 63, 3, 4, 63, 1, 2, 72, 0, 2, 79, 0, 5, 81, 4, 5, 81, 5, 4, 84, 1, 2, 91, 4, 1, 93, 3, 5, 99, 2, 5, 105, 2, 3, 107, 5, 4, 107, 5, 3, 115, 3, 0]);
