n_res = 4;
rc = [ 25, 25, 29, 27 ];
n_tasks = 32;
d = [0, 8, 3, 5, 4, 7, 10, 2, 3, 1, 4, 8, 3, 7, 6, 7, 10, 5, 4, 6, 1, 8, 10, 7, 10, 3, 9, 1, 10, 8, 1, 0];
rr = array2d(1..4, 1..32, [0, 10, 2, 10, 5, 8, 8, 10, 3, 8, 10, 6, 10, 10, 2, 6, 1, 4, 9, 1, 8, 1, 10, 2, 9, 3, 6, 5, 8, 2, 6, 0, 0, 3, 8, 9, 10, 10, 8, 7, 6, 6, 8, 2, 6, 6, 2, 6, 5, 5, 10, 8, 6, 10, 10, 6, 6, 8, 1, 9, 8, 8, 6, 0, 0, 4, 9, 7, 9, 5, 10, 9, 2, 8, 7, 8, 7, 9, 6, 6, 3, 2, 8, 9, 5, 8, 10, 6, 7, 9, 3, 4, 6, 5, 5, 0, 0, 9, 1, 3, 3, 9, 7, 7, 2, 1, 2, 10, 2, 9, 6, 10, 2, 4, 3, 5, 1, 8, 5, 2, 2, 9, 8, 9, 5, 5, 8, 0]);

suc = [
   {2, 3, 4},
   {8, 17, 20},
   {15, 13, 7},
   {28, 12, 5},
   {23, 6, 15},
   {9},
   {19, 28},
   {16, 11, 30},
   {10, 13},
   {11, 14},
   {18, 22},
   {26, 15},
   {21},
   {21, 22},
   {25, 27},
   {19},
   {27, 19, 28},
   {25},
   {25, 26, 23},
   {22, 23},
   {24},
   {29},
   {29, 31},
   {26, 27},
   {31},
   {29, 31},
   {30},
   {30},
   {32},
   {32},
   {32},
   {  } ];

deadline = array2d(1..32, 1..3, [5, 5, 0, 8, 1, 5, 12, 5, 2, 12, 5, 4, 13, 5, 4, 15, 3, 5, 15, 0, 2, 16, 2, 1, 20, 3, 5, 25, 1, 3, 32, 3, 3, 40, 3, 5, 42, 4, 4, 44, 5, 3, 48, 5, 2, 51, 1, 3, 60, 2, 1, 67, 1, 4, 68, 2, 4, 71, 4, 0, 74, 1, 2, 77, 5, 5, 93, 2, 5, 93, 0, 0, 95, 3, 5, 97, 1, 3, 101, 0, 0, 103, 0, 3, 107, 3, 0, 107, 5, 4, 112, 3, 2, 122, 0, 0]);
