n_res = 4;
rc = [ 10, 9, 14, 14 ];
n_tasks = 32;
d = [0, 9, 1, 9, 5, 2, 1, 1, 9, 9, 5, 6, 1, 6, 6, 5, 5, 10, 6, 2, 8, 3, 9, 3, 7, 3, 7, 10, 3, 8, 7, 0];
rr = array2d(1..4, 1..32, [0, 4, 7, 0, 0, 0, 0, 0, 0, 0, 0, 0, 0, 6, 0, 0, 0, 0, 0, 0, 0, 0, 0, 0, 0, 0, 8, 0, 5, 4, 0, 0, 0, 0, 0, 0, 0, 0, 0, 5, 0, 0, 6, 4, 0, 0, 0, 0, 4, 9, 0, 0, 0, 0, 0, 0, 0, 0, 0, 0, 0, 0, 0, 0, 0, 0, 0, 0, 0, 10, 0, 0, 1, 0, 0, 0, 1, 0, 5, 10, 0, 0, 1, 0, 0, 0, 3, 0, 8, 0, 0, 0, 0, 0, 10, 0, 0, 0, 0, 5, 3, 0, 7, 0, 0, 7, 0, 0, 0, 0, 0, 0, 0, 0, 0, 6, 4, 9, 0, 6, 0, 7, 0, 8, 0, 0, 0, 0]);

suc = [
   {2, 3, 4},
   {12, 14},
   {10, 11, 5},
   {9, 6, 22},
   {8, 13, 7},
   {16, 10},
   {12, 14, 15},
   {14, 22},
   {27, 19},
   {24, 28, 21},
   {12, 13, 15},
   {18, 20, 23},
   {26, 19, 20},
   {25, 26, 21},
   {16, 21, 22},
   {17, 26, 23},
   {18, 20},
   {27, 19},
   {24, 25, 28},
   {25, 30},
   {29, 23},
   {24, 28},
   {30, 31},
   {29},
   {29},
   {27, 31},
   {30},
   {31},
   {32},
   {32},
   {32},
   {  } ];

deadline = array2d(1..32, 1..3, [3, 2, 3, 8, 1, 3, 8, 4, 4, 11, 0, 4, 13, 4, 4, 16, 5, 3, 19, 3, 3, 22, 4, 4, 23, 4, 2, 28, 5, 1, 32, 2, 0, 34, 2, 2, 42, 0, 0, 43, 2, 0, 47, 2, 0, 58, 4, 4, 65, 5, 2, 85, 1, 1, 85, 1, 4, 93, 0, 4, 99, 1, 3, 105, 2, 0, 107, 4, 3, 110, 3, 1, 113, 1, 1, 115, 1, 2, 115, 4, 3, 120, 4, 0, 130, 0, 5, 134, 5, 4, 135, 0, 5, 137, 3, 5]);
