n_res = 4;
rc = [ 14, 15, 9, 18 ];
n_tasks = 32;
d = [0, 1, 6, 8, 1, 3, 5, 6, 8, 7, 5, 6, 8, 5, 6, 5, 10, 4, 3, 6, 1, 3, 7, 10, 5, 3, 1, 4, 1, 10, 5, 0];
rr = array2d(1..4, 1..32, [0, 0, 0, 0, 0, 0, 0, 0, 0, 3, 8, 0, 0, 10, 0, 7, 0, 0, 0, 0, 0, 5, 0, 0, 0, 0, 3, 0, 4, 0, 3, 0, 0, 0, 0, 0, 0, 0, 0, 0, 4, 0, 0, 0, 4, 0, 0, 0, 10, 6, 0, 2, 4, 0, 0, 0, 0, 0, 0, 0, 0, 0, 0, 0, 0, 0, 0, 0, 0, 8, 0, 0, 0, 0, 0, 0, 0, 0, 8, 0, 0, 0, 5, 0, 0, 0, 0, 0, 2, 0, 0, 2, 0, 0, 0, 0, 0, 10, 7, 4, 7, 0, 7, 5, 0, 0, 0, 10, 0, 0, 0, 0, 0, 0, 0, 0, 0, 0, 7, 9, 0, 10, 0, 0, 0, 4, 0, 0]);

suc = [
   {2, 3, 4},
   {15, 20, 7},
   {24, 9},
   {10, 11, 5},
   {8, 16, 6},
   {17},
   {12},
   {27, 17, 19},
   {22},
   {13, 14, 22},
   {21, 23},
   {26, 30},
   {29, 15},
   {16, 18},
   {19},
   {28},
   {20},
   {29},
   {23},
   {26},
   {29},
   {25},
   {26},
   {25},
   {30},
   {31},
   {31},
   {30},
   {32},
   {32},
   {32},
   {  } ];

deadline = array2d(1..32, 1..3, [10, 0, 4, 15, 0, 1, 23, 2, 4, 25, 0, 4, 27, 2, 2, 29, 4, 2, 35, 0, 4, 40, 5, 2, 42, 4, 0, 45, 2, 1, 56, 0, 0, 57, 3, 2, 74, 4, 2, 75, 0, 4, 76, 0, 4, 78, 3, 2, 83, 5, 5, 85, 1, 2, 85, 4, 5, 89, 4, 1, 92, 3, 0, 93, 4, 5, 94, 1, 0, 94, 1, 2, 95, 2, 0, 96, 5, 4, 104, 4, 0, 105, 5, 2, 108, 2, 5, 108, 0, 1, 112, 0, 5, 117, 2, 4]);
