n_res = 4;
rc = [ 52, 40, 30, 24 ];
n_tasks = 32;
d = [0, 2, 4, 2, 10, 5, 5, 7, 8, 6, 2, 6, 5, 3, 5, 1, 6, 4, 6, 3, 8, 3, 7, 6, 2, 7, 1, 8, 6, 4, 6, 0];
rr = array2d(1..4, 1..32, [0, 0, 6, 2, 9, 3, 0, 10, 9, 10, 4, 4, 4, 4, 6, 2, 8, 0, 5, 5, 2, 2, 9, 8, 3, 0, 4, 5, 0, 7, 4, 0, 0, 7, 0, 2, 6, 2, 0, 3, 0, 8, 7, 6, 7, 9, 5, 9, 7, 2, 1, 9, 4, 0, 6, 3, 7, 1, 0, 10, 1, 6, 8, 0, 0, 9, 0, 3, 8, 0, 10, 8, 1, 0, 3, 6, 4, 0, 3, 1, 0, 5, 8, 4, 0, 8, 6, 0, 4, 8, 1, 8, 4, 0, 10, 0, 0, 9, 1, 0, 2, 0, 2, 5, 0, 4, 0, 0, 0, 3, 1, 6, 10, 7, 9, 0, 0, 7, 2, 0, 4, 5, 0, 0, 1, 8, 5, 0]);

suc = [
   {2, 3, 4},
   {8, 9, 6},
   {29, 7},
   {11, 5},
   {13},
   {10, 14, 15},
   {8, 12, 30},
   {16, 26},
   {20},
   {25, 22, 23},
   {18},
   {28},
   {31},
   {21},
   {17, 20},
   {22},
   {24, 19},
   {27},
   {29},
   {29, 21, 23},
   {25},
   {27},
   {30},
   {31},
   {30},
   {28},
   {28},
   {31},
   {32},
   {32},
   {32},
   {  } ];

deadline = array2d(1..32, 1..3, [3, 1, 4, 8, 1, 4, 13, 5, 0, 26, 2, 2, 26, 3, 1, 32, 4, 1, 32, 5, 0, 38, 0, 5, 39, 4, 2, 40, 5, 1, 40, 4, 0, 42, 3, 1, 43, 0, 0, 44, 1, 5, 45, 0, 1, 49, 1, 2, 50, 3, 5, 53, 2, 5, 55, 1, 0, 55, 3, 4, 58, 3, 5, 58, 5, 0, 58, 4, 3, 60, 2, 3, 61, 4, 4, 61, 3, 5, 62, 2, 4, 63, 2, 2, 72, 5, 1, 74, 4, 3, 84, 5, 2, 85, 3, 3]);
