n_res = 4;
rc = [ 18, 13, 32, 12 ];
n_tasks = 32;
d = [0, 1, 4, 8, 6, 3, 3, 9, 2, 6, 8, 4, 9, 4, 10, 9, 4, 10, 9, 9, 9, 7, 3, 2, 4, 7, 1, 2, 1, 1, 2, 0];
rr = array2d(1..4, 1..32, [0, 2, 0, 0, 0, 0, 0, 0, 0, 1, 0, 0, 0, 0, 0, 0, 0, 7, 8, 0, 0, 0, 0, 0, 0, 0, 10, 0, 0, 0, 0, 0, 0, 0, 0, 7, 1, 2, 0, 0, 2, 0, 0, 0, 0, 0, 8, 0, 0, 0, 0, 0, 5, 5, 0, 0, 8, 0, 0, 0, 1, 0, 0, 0, 0, 0, 4, 0, 0, 0, 0, 6, 0, 0, 8, 1, 8, 0, 0, 0, 6, 0, 0, 1, 0, 0, 1, 10, 0, 0, 0, 9, 0, 0, 7, 0, 0, 0, 0, 0, 0, 0, 7, 0, 0, 0, 0, 0, 0, 1, 0, 5, 0, 0, 0, 0, 0, 0, 0, 0, 0, 10, 0, 0, 0, 8, 0, 0]);

suc = [
   {2, 3, 4},
   {6},
   {8, 19, 5},
   {9, 13, 7},
   {16, 9},
   {10, 11, 12},
   {24, 18, 14},
   {17, 26, 28},
   {22},
   {18, 19},
   {18, 15},
   {27, 14},
   {26},
   {21},
   {27, 19},
   {21},
   {20, 23},
   {26, 27, 21},
   {20, 31, 23},
   {29},
   {23},
   {25, 28},
   {25, 29},
   {25, 28},
   {30},
   {29, 30},
   {30, 31},
   {31},
   {32},
   {32},
   {32},
   {  } ];

deadline = array2d(1..32, 1..3, [2, 0, 3, 7, 3, 3, 13, 1, 0, 17, 4, 5, 20, 2, 1, 20, 2, 4, 22, 2, 4, 24, 3, 5, 34, 3, 5, 36, 5, 3, 41, 5, 4, 45, 0, 4, 46, 2, 2, 57, 1, 0, 59, 5, 3, 63, 0, 1, 64, 5, 0, 67, 3, 4, 67, 2, 3, 74, 2, 5, 80, 1, 5, 80, 1, 3, 82, 3, 3, 83, 4, 1, 89, 5, 2, 90, 3, 2, 93, 4, 0, 95, 3, 5, 97, 1, 5, 97, 1, 0, 97, 4, 3, 102, 4, 0]);
