n_res = 4;
rc = [ 22, 16, 18, 21 ];
n_tasks = 32;
d = [0, 4, 6, 5, 5, 5, 8, 8, 7, 1, 4, 5, 4, 6, 10, 2, 5, 6, 8, 10, 8, 7, 7, 7, 7, 10, 10, 10, 3, 9, 1, 0];
rr = array2d(1..4, 1..32, [0, 0, 6, 0, 0, 0, 0, 1, 7, 1, 7, 10, 7, 0, 0, 0, 0, 10, 0, 10, 4, 0, 0, 10, 6, 7, 0, 7, 7, 9, 0, 0, 0, 0, 0, 2, 0, 0, 4, 1, 0, 0, 9, 7, 0, 0, 4, 10, 4, 0, 0, 0, 0, 0, 7, 3, 10, 0, 2, 0, 0, 5, 4, 0, 0, 10, 0, 0, 0, 1, 0, 0, 0, 0, 10, 8, 0, 10, 7, 0, 4, 4, 10, 0, 0, 3, 0, 0, 8, 0, 6, 0, 0, 0, 0, 0, 0, 6, 3, 0, 9, 9, 7, 8, 3, 0, 0, 7, 0, 5, 0, 8, 5, 8, 8, 0, 9, 0, 0, 10, 7, 0, 0, 7, 5, 8, 0, 0]);

suc = [
   {2, 3, 4},
   {11, 7},
   {26, 13},
   {18, 20, 5},
   {8, 6},
   {9, 12, 15},
   {14},
   {25, 10},
   {17},
   {22},
   {25, 19, 28},
   {16, 31},
   {15},
   {24, 21},
   {21},
   {25, 28, 21},
   {19},
   {22},
   {23},
   {29},
   {27},
   {28},
   {30},
   {27},
   {26},
   {27, 29},
   {30},
   {30},
   {32},
   {32},
   {32},
   {  } ];

deadline = array2d(1..32, 1..3, [4, 4, 0, 4, 4, 2, 27, 2, 5, 29, 0, 2, 31, 1, 0, 35, 3, 0, 36, 4, 3, 37, 2, 4, 41, 1, 1, 44, 0, 4, 48, 1, 2, 63, 5, 1, 84, 3, 5, 84, 1, 3, 86, 0, 2, 89, 5, 5, 92, 3, 0, 95, 2, 1, 97, 4, 5, 99, 1, 4, 107, 0, 2, 108, 1, 3, 112, 0, 5, 114, 1, 5, 115, 5, 5, 124, 5, 1, 124, 4, 0, 128, 4, 3, 130, 2, 1, 135, 2, 1, 135, 2, 5, 140, 4, 1]);
