n_res = 4;
rc = [ 14, 14, 15, 14 ];
n_tasks = 32;
d = [0, 1, 8, 10, 3, 2, 8, 7, 1, 8, 4, 10, 5, 8, 8, 5, 5, 7, 10, 8, 8, 9, 1, 6, 2, 1, 10, 4, 3, 2, 1, 0];
rr = array2d(1..4, 1..32, [0, 1, 7, 1, 8, 3, 4, 10, 10, 10, 4, 1, 9, 10, 10, 4, 2, 3, 8, 7, 9, 1, 6, 6, 2, 3, 6, 10, 7, 5, 4, 0, 0, 5, 4, 1, 3, 6, 4, 6, 8, 10, 7, 8, 10, 2, 2, 3, 6, 2, 6, 5, 10, 9, 10, 5, 10, 3, 6, 9, 1, 5, 2, 0, 0, 1, 9, 9, 10, 5, 8, 9, 9, 10, 4, 8, 9, 7, 10, 7, 6, 7, 6, 8, 6, 5, 4, 10, 5, 10, 9, 10, 1, 1, 2, 0, 0, 5, 9, 6, 5, 5, 3, 9, 6, 1, 2, 7, 8, 10, 9, 8, 9, 2, 5, 6, 8, 7, 1, 9, 7, 6, 2, 6, 8, 1, 1, 0]);

suc = [
   {2, 3, 4},
   {13, 12, 5},
   {16, 18, 7},
   {17, 10, 6},
   {8, 17, 14},
   {16, 20, 7},
   {24, 9, 29},
   {16, 19, 11},
   {14},
   {12, 22},
   {20, 29, 15},
   {18, 19, 15},
   {22, 14, 15},
   {25, 26, 23},
   {24, 27},
   {27, 22},
   {18, 19, 29},
   {20, 23},
   {24, 26, 21},
   {25, 28},
   {31, 23},
   {26, 31},
   {27},
   {25, 28},
   {30, 31},
   {30},
   {28},
   {30},
   {32},
   {32},
   {32},
   {  } ];

deadline = array2d(1..32, 1..3, [4, 1, 5, 12, 4, 1, 19, 4, 2, 22, 4, 2, 25, 1, 4, 25, 5, 5, 33, 3, 4, 35, 2, 2, 36, 3, 0, 37, 2, 4, 47, 0, 1, 48, 0, 0, 55, 3, 4, 58, 1, 1, 59, 4, 1, 67, 4, 0, 69, 1, 1, 91, 4, 0, 93, 2, 0, 97, 3, 4, 98, 1, 2, 98, 3, 2, 107, 1, 3, 107, 4, 1, 124, 1, 2, 126, 4, 0, 132, 3, 0, 145, 0, 3, 147, 1, 2, 151, 0, 0, 151, 5, 3, 153, 5, 2]);
