n_res = 4;
rc = [ 19, 32, 18, 22 ];
n_tasks = 32;
d = [0, 9, 2, 2, 8, 2, 2, 10, 1, 4, 1, 10, 9, 8, 2, 10, 3, 10, 8, 5, 5, 4, 8, 4, 5, 7, 10, 1, 4, 3, 9, 0];
rr = array2d(1..4, 1..32, [0, 2, 4, 9, 6, 0, 5, 0, 0, 7, 9, 6, 2, 9, 0, 3, 2, 1, 6, 6, 5, 9, 2, 0, 6, 0, 7, 5, 0, 2, 0, 0, 0, 5, 2, 3, 3, 7, 0, 4, 6, 3, 10, 3, 10, 10, 0, 8, 3, 1, 0, 6, 3, 4, 10, 3, 9, 6, 5, 2, 10, 2, 1, 0, 0, 7, 0, 0, 2, 2, 0, 0, 0, 4, 8, 4, 0, 10, 5, 5, 2, 4, 4, 0, 4, 0, 1, 6, 2, 6, 4, 7, 9, 0, 0, 0, 0, 5, 5, 8, 2, 5, 1, 10, 1, 7, 8, 7, 5, 0, 0, 0, 2, 5, 5, 0, 3, 0, 1, 0, 8, 4, 0, 0, 4, 8, 4, 0]);

suc = [
   {2, 3, 4},
   {16, 10, 5},
   {12, 5, 7},
   {8, 17, 6},
   {9},
   {10, 13, 7},
   {16, 14, 23},
   {10, 13},
   {17, 30},
   {11, 23, 15},
   {25, 31},
   {16, 14, 15},
   {26, 14, 22},
   {25, 21},
   {18, 19, 21},
   {24, 19, 20},
   {19, 20},
   {25, 20},
   {26, 22},
   {28, 22},
   {24, 27, 28},
   {27},
   {24, 26, 27},
   {29, 30},
   {30},
   {28, 31},
   {29, 31},
   {29},
   {32},
   {32},
   {32},
   {  } ];

deadline = array2d(1..32, 1..3, [7, 0, 2, 15, 5, 0, 15, 5, 1, 25, 3, 0, 28, 4, 2, 40, 0, 3, 47, 5, 1, 54, 4, 2, 58, 3, 1, 61, 0, 4, 62, 4, 1, 63, 2, 4, 65, 5, 1, 67, 2, 3, 70, 2, 3, 77, 4, 2, 77, 2, 1, 82, 3, 4, 83, 2, 5, 83, 0, 1, 85, 5, 5, 86, 2, 4, 93, 4, 4, 95, 0, 3, 97, 2, 1, 109, 0, 4, 111, 4, 1, 123, 0, 0, 129, 1, 1, 131, 1, 4, 138, 1, 5, 140, 5, 5]);
