n_res = 4;
rc = [ 23, 25, 28, 30 ];
n_tasks = 32;
d = [0, 1, 1, 8, 7, 2, 9, 9, 4, 10, 1, 3, 10, 3, 3, 10, 8, 2, 9, 5, 3, 10, 1, 6, 4, 8, 2, 5, 1, 1, 10, 0];
rr = array2d(1..4, 1..32, [0, 9, 9, 10, 9, 4, 9, 2, 4, 1, 10, 2, 2, 7, 7, 7, 1, 10, 3, 7, 4, 2, 3, 6, 7, 8, 1, 9, 2, 4, 9, 0, 0, 2, 6, 9, 1, 5, 2, 1, 3, 9, 1, 9, 3, 8, 2, 6, 8, 10, 3, 9, 6, 2, 3, 1, 10, 6, 3, 1, 3, 3, 5, 0, 0, 9, 3, 5, 7, 3, 6, 9, 6, 5, 2, 3, 9, 10, 2, 9, 4, 2, 6, 8, 9, 3, 6, 2, 3, 5, 10, 4, 6, 3, 10, 0, 0, 3, 9, 7, 4, 5, 2, 9, 9, 9, 8, 9, 5, 6, 2, 2, 1, 3, 7, 7, 1, 8, 6, 3, 10, 3, 3, 10, 10, 3, 9, 0]);

suc = [
   {2, 3, 4},
   {31},
   {8, 5, 14},
   {11, 21, 6},
   {12},
   {10, 7},
   {25, 18},
   {9},
   {10, 13, 15},
   {17},
   {26},
   {16},
   {24},
   {20, 23},
   {17, 19},
   {23},
   {27},
   {26},
   {22},
   {24},
   {24, 28},
   {26, 28, 31},
   {25},
   {30},
   {28, 31},
   {29, 30},
   {29},
   {30},
   {32},
   {32},
   {32},
   {  } ];

deadline = array2d(1..32, 1..3, [6, 0, 5, 8, 5, 3, 17, 3, 2, 19, 1, 4, 28, 1, 3, 30, 4, 0, 33, 4, 3, 37, 2, 1, 42, 1, 5, 49, 2, 5, 50, 4, 0, 55, 5, 1, 55, 4, 1, 65, 2, 2, 69, 0, 4, 72, 2, 5, 72, 4, 5, 73, 4, 1, 75, 5, 0, 77, 5, 4, 79, 3, 4, 79, 4, 4, 82, 5, 3, 87, 5, 2, 87, 5, 4, 97, 5, 4, 103, 4, 3, 103, 3, 0, 103, 2, 4, 106, 0, 4, 108, 5, 5, 114, 5, 1]);
