n_res = 4;
rc = [ 18, 23, 18, 18 ];
n_tasks = 32;
d = [0, 7, 1, 3, 5, 8, 4, 4, 5, 1, 10, 10, 9, 10, 6, 4, 6, 9, 9, 7, 4, 6, 1, 2, 9, 1, 1, 4, 7, 3, 8, 0];
rr = array2d(1..4, 1..32, [0, 0, 0, 3, 0, 0, 1, 0, 10, 4, 3, 10, 1, 4, 0, 3, 0, 4, 0, 5, 0, 0, 8, 0, 0, 10, 8, 0, 8, 10, 2, 0, 0, 0, 3, 9, 0, 6, 0, 0, 0, 10, 0, 3, 9, 5, 7, 2, 6, 0, 10, 8, 0, 0, 0, 0, 8, 10, 0, 0, 3, 0, 5, 0, 0, 5, 0, 0, 9, 0, 0, 7, 0, 0, 9, 0, 0, 0, 8, 0, 5, 3, 0, 4, 0, 8, 0, 3, 9, 0, 4, 3, 0, 0, 2, 0, 0, 4, 0, 2, 9, 0, 0, 0, 0, 0, 10, 2, 0, 0, 9, 0, 0, 0, 0, 7, 8, 2, 6, 1, 0, 2, 0, 0, 9, 0, 5, 0]);

suc = [
   {2, 3, 4},
   {8, 9, 7},
   {10, 5, 6},
   {8, 28, 13},
   {15, 23, 7},
   {8, 21, 13},
   {11, 14},
   {17, 29, 15},
   {16, 19, 22},
   {18, 20, 14},
   {16, 12, 22},
   {18, 26},
   {17, 25, 15},
   {22},
   {26, 19},
   {25, 18, 28},
   {19, 23},
   {29, 21},
   {24, 30},
   {21, 23},
   {24, 27},
   {25, 28, 29},
   {24, 26, 27},
   {31},
   {27, 30},
   {30},
   {31},
   {31},
   {32},
   {32},
   {32},
   {  } ];

deadline = array2d(1..32, 1..3, [1, 5, 2, 2, 5, 0, 4, 3, 1, 4, 4, 1, 8, 1, 1, 8, 2, 5, 10, 0, 3, 12, 1, 4, 18, 3, 2, 22, 5, 0, 25, 4, 3, 44, 1, 5, 47, 2, 5, 53, 0, 2, 55, 0, 0, 61, 0, 2, 76, 1, 2, 82, 1, 3, 82, 0, 2, 93, 5, 4, 93, 3, 5, 94, 1, 5, 103, 2, 4, 104, 0, 4, 109, 0, 2, 111, 0, 0, 111, 0, 4, 120, 5, 0, 122, 0, 1, 125, 2, 1, 128, 2, 0, 129, 3, 2]);
