n_res = 4;
rc = [ 21, 14, 13, 20 ];
n_tasks = 32;
d = [0, 5, 1, 7, 6, 8, 6, 10, 2, 7, 6, 2, 3, 8, 4, 1, 4, 2, 2, 10, 6, 10, 8, 2, 8, 9, 10, 7, 3, 6, 8, 0];
rr = array2d(1..4, 1..32, [0, 0, 0, 0, 0, 0, 0, 0, 0, 8, 9, 0, 0, 0, 0, 0, 0, 0, 6, 0, 0, 10, 0, 0, 7, 0, 0, 0, 0, 0, 0, 0, 0, 0, 0, 0, 0, 0, 7, 0, 0, 0, 0, 0, 0, 0, 5, 0, 9, 0, 0, 0, 0, 0, 0, 0, 0, 0, 8, 0, 9, 0, 0, 0, 0, 9, 0, 0, 0, 0, 0, 0, 0, 0, 0, 6, 0, 2, 0, 0, 0, 0, 0, 0, 0, 0, 8, 5, 0, 0, 0, 0, 0, 5, 1, 0, 0, 0, 4, 7, 10, 1, 0, 10, 8, 0, 0, 0, 5, 0, 0, 10, 0, 10, 0, 3, 4, 0, 0, 0, 0, 2, 0, 4, 0, 0, 0, 0]);

suc = [
   {2, 3, 4},
   {10, 5, 22},
   {16, 18, 26},
   {8, 9, 6},
   {9, 6, 7},
   {25, 12, 15},
   {17, 19, 13},
   {16, 10, 11},
   {17, 19, 12},
   {21, 15},
   {25, 19, 14},
   {18, 21},
   {25, 21, 23},
   {17, 20, 15},
   {24, 29, 23},
   {20, 31},
   {18, 28, 29},
   {24},
   {24, 23},
   {22},
   {26, 27},
   {28},
   {27, 30},
   {27},
   {26, 28, 29},
   {30, 31},
   {31},
   {30},
   {32},
   {32},
   {32},
   {  } ];

deadline = array2d(1..32, 1..3, [7, 3, 1, 11, 4, 2, 14, 1, 5, 17, 5, 1, 38, 5, 5, 50, 2, 0, 72, 3, 4, 73, 1, 2, 80, 3, 3, 80, 4, 2, 82, 2, 3, 84, 2, 5, 98, 2, 5, 99, 2, 5, 106, 2, 5, 106, 2, 0, 110, 4, 5, 114, 0, 0, 118, 1, 1, 127, 3, 0, 131, 4, 0, 136, 4, 0, 137, 0, 4, 138, 3, 2, 141, 3, 2, 143, 3, 4, 146, 3, 4, 150, 1, 0, 153, 4, 4, 155, 4, 0, 155, 2, 0, 158, 4, 1]);
