n_res = 4;
rc = [ 16, 17, 20, 19 ];
n_tasks = 32;
d = [0, 2, 3, 6, 1, 5, 5, 5, 7, 7, 5, 8, 3, 10, 1, 9, 1, 6, 3, 5, 7, 8, 10, 10, 9, 2, 6, 9, 10, 7, 1, 0];
rr = array2d(1..4, 1..32, [0, 0, 8, 0, 0, 2, 10, 0, 0, 1, 0, 0, 0, 0, 9, 0, 5, 7, 0, 0, 4, 0, 0, 0, 9, 8, 0, 5, 7, 8, 0, 0, 0, 0, 5, 2, 0, 8, 10, 5, 0, 1, 0, 0, 6, 1, 7, 0, 7, 6, 0, 2, 0, 1, 7, 5, 0, 0, 0, 1, 0, 0, 8, 0, 0, 3, 0, 6, 6, 0, 7, 5, 10, 0, 8, 0, 3, 0, 0, 0, 0, 0, 6, 0, 9, 10, 0, 0, 0, 7, 5, 2, 3, 5, 1, 0, 0, 4, 4, 6, 6, 7, 0, 0, 2, 0, 0, 3, 0, 0, 0, 6, 7, 0, 8, 0, 0, 3, 0, 4, 2, 0, 0, 0, 0, 3, 0, 0]);

suc = [
   {2, 3, 4},
   {21, 14, 7},
   {15, 6, 14},
   {12, 5, 6},
   {8, 10, 13},
   {8, 16, 19},
   {18, 11, 12},
   {9, 18, 30},
   {24, 17, 22},
   {19, 14},
   {17, 15},
   {16, 20, 28},
   {30, 23},
   {16, 17, 24},
   {20, 22, 23},
   {25, 31},
   {26},
   {22, 23},
   {20, 21},
   {27, 29, 30},
   {24, 26, 27},
   {26, 28},
   {25, 27},
   {25, 28},
   {29},
   {31},
   {31},
   {29},
   {32},
   {32},
   {32},
   {  } ];

deadline = array2d(1..32, 1..3, [4, 0, 4, 7, 4, 1, 12, 5, 2, 17, 1, 2, 18, 0, 0, 20, 5, 4, 21, 3, 4, 21, 4, 0, 22, 4, 1, 22, 0, 3, 32, 3, 2, 36, 0, 3, 41, 4, 2, 42, 3, 2, 54, 5, 1, 65, 3, 2, 71, 5, 2, 72, 1, 1, 74, 4, 2, 77, 0, 0, 81, 0, 5, 83, 1, 3, 83, 0, 5, 89, 5, 2, 93, 5, 2, 100, 5, 4, 111, 0, 1, 119, 4, 1, 126, 2, 5, 127, 5, 3, 127, 4, 0, 132, 3, 3]);
