n_res = 4;
rc = [ 23, 25, 25, 20 ];
n_tasks = 32;
d = [0, 8, 8, 5, 2, 6, 10, 8, 6, 5, 3, 6, 7, 3, 10, 10, 10, 3, 1, 5, 9, 7, 2, 5, 7, 8, 9, 8, 9, 1, 6, 0];
rr = array2d(1..4, 1..32, [0, 10, 9, 8, 8, 10, 7, 1, 10, 2, 2, 6, 9, 5, 1, 10, 7, 7, 6, 2, 1, 9, 8, 2, 7, 1, 9, 3, 6, 5, 2, 0, 0, 9, 5, 10, 5, 2, 1, 7, 3, 5, 10, 2, 2, 6, 1, 5, 1, 9, 2, 2, 1, 5, 2, 2, 10, 10, 10, 6, 9, 9, 8, 0, 0, 4, 9, 8, 3, 8, 9, 6, 8, 10, 6, 2, 3, 3, 2, 6, 8, 3, 6, 9, 1, 7, 2, 5, 3, 7, 7, 7, 10, 7, 6, 0, 0, 7, 9, 1, 10, 6, 5, 1, 7, 5, 7, 7, 3, 4, 10, 4, 6, 5, 6, 2, 3, 8, 1, 5, 10, 4, 7, 10, 2, 3, 10, 0]);

suc = [
   {2, 3, 4},
   {8, 29, 21},
   {20, 5, 6},
   {8, 9, 18},
   {7},
   {13, 14},
   {16, 10},
   {25, 26, 12},
   {11},
   {17, 12, 15},
   {24, 19},
   {28},
   {27, 19, 15},
   {24, 27, 15},
   {28, 21},
   {19, 23},
   {22},
   {24, 20},
   {21},
   {31, 23},
   {25, 26, 31},
   {27, 29, 23},
   {30},
   {29},
   {30},
   {30},
   {28},
   {31},
   {32},
   {32},
   {32},
   {  } ];

deadline = array2d(1..32, 1..3, [4, 0, 2, 5, 2, 4, 6, 4, 4, 13, 3, 0, 15, 3, 2, 16, 0, 0, 17, 3, 5, 17, 5, 0, 22, 2, 1, 23, 5, 2, 35, 3, 3, 35, 2, 2, 45, 5, 5, 55, 1, 5, 60, 0, 0, 60, 2, 4, 62, 3, 2, 80, 3, 0, 86, 0, 1, 87, 1, 0, 96, 1, 2, 109, 2, 1, 111, 1, 5, 121, 2, 4, 129, 2, 2, 136, 4, 1, 137, 0, 3, 143, 3, 1, 146, 1, 4, 148, 1, 5, 149, 0, 4, 160, 3, 3]);
