n_res = 4;
rc = [ 14, 17, 14, 16 ];
n_tasks = 32;
d = [0, 1, 9, 5, 2, 7, 9, 6, 7, 10, 6, 5, 10, 5, 6, 10, 2, 5, 10, 9, 3, 1, 7, 2, 2, 9, 8, 1, 1, 1, 3, 0];
rr = array2d(1..4, 1..32, [0, 0, 10, 5, 0, 4, 1, 4, 5, 10, 5, 0, 1, 6, 4, 9, 0, 9, 0, 0, 2, 6, 9, 3, 1, 5, 4, 2, 10, 5, 8, 0, 0, 0, 0, 4, 0, 8, 9, 10, 6, 0, 8, 7, 0, 0, 3, 2, 7, 9, 9, 5, 0, 2, 10, 10, 7, 0, 10, 4, 5, 1, 0, 0, 0, 0, 0, 7, 6, 0, 1, 2, 10, 9, 6, 10, 0, 2, 5, 8, 3, 1, 4, 3, 3, 0, 0, 2, 9, 7, 0, 1, 0, 9, 7, 0, 0, 2, 3, 7, 2, 3, 10, 4, 7, 8, 9, 0, 3, 8, 0, 5, 2, 3, 2, 9, 7, 4, 0, 0, 0, 10, 9, 0, 9, 1, 4, 0]);

suc = [
   {2, 3, 4},
   {9, 6, 7},
   {10, 19, 13},
   {11, 5, 15},
   {8, 20, 31},
   {16, 12, 14},
   {22},
   {16, 21},
   {17, 18, 23},
   {24, 20, 23},
   {17},
   {26, 15},
   {24, 20, 14},
   {18, 15},
   {17, 25, 30},
   {22},
   {28},
   {27},
   {25, 21},
   {27, 29},
   {29},
   {27, 23},
   {30},
   {25, 26},
   {31},
   {31},
   {30},
   {29},
   {32},
   {32},
   {32},
   {  } ];

deadline = array2d(1..32, 1..3, [1, 3, 3, 2, 1, 5, 3, 0, 3, 3, 0, 5, 11, 1, 3, 27, 3, 1, 28, 4, 5, 33, 3, 1, 44, 2, 1, 48, 0, 3, 48, 1, 4, 49, 3, 2, 49, 0, 0, 51, 5, 3, 55, 2, 5, 56, 4, 5, 62, 1, 5, 63, 5, 0, 64, 0, 2, 66, 0, 4, 68, 4, 3, 70, 5, 4, 75, 4, 3, 79, 3, 3, 80, 1, 5, 80, 0, 0, 84, 2, 4, 86, 1, 1, 89, 2, 3, 92, 3, 2, 94, 2, 1, 95, 1, 0]);
