n_res = 4;
rc = [ 42, 39, 51, 44 ];
n_tasks = 32;
d = [0, 1, 6, 10, 10, 2, 9, 9, 7, 5, 5, 1, 9, 6, 7, 4, 4, 9, 1, 8, 3, 2, 5, 3, 1, 10, 8, 1, 5, 7, 8, 0];
rr = array2d(1..4, 1..32, [0, 1, 0, 1, 9, 0, 3, 5, 0, 0, 0, 0, 7, 8, 2, 0, 9, 9, 5, 6, 6, 4, 7, 0, 9, 2, 0, 2, 5, 9, 0, 0, 0, 8, 0, 10, 5, 1, 2, 8, 6, 1, 3, 1, 0, 6, 6, 2, 5, 3, 0, 1, 1, 6, 4, 7, 9, 4, 0, 0, 8, 2, 10, 0, 0, 7, 9, 0, 9, 1, 9, 10, 6, 10, 8, 0, 1, 2, 6, 0, 2, 4, 1, 6, 0, 4, 9, 9, 0, 0, 0, 0, 6, 6, 10, 0, 0, 0, 9, 3, 8, 7, 7, 6, 9, 6, 8, 10, 0, 9, 0, 8, 1, 5, 5, 0, 9, 5, 10, 0, 0, 10, 7, 6, 6, 3, 3, 0]);

suc = [
   {2, 3, 4},
   {10, 5, 6},
   {26},
   {9, 14, 17},
   {8, 24},
   {11, 15, 7},
   {25, 22},
   {27, 19},
   {21},
   {16, 12, 13},
   {25, 22},
   {31},
   {27},
   {18},
   {30},
   {20},
   {30},
   {28},
   {29, 21},
   {25},
   {28, 23},
   {30},
   {26},
   {26, 28},
   {29},
   {31},
   {29},
   {31},
   {32},
   {32},
   {32},
   {  } ];

deadline = array2d(1..32, 1..3, [11, 2, 1, 12, 0, 4, 16, 2, 3, 16, 3, 2, 22, 0, 4, 26, 5, 0, 26, 5, 1, 27, 0, 2, 27, 1, 1, 29, 2, 2, 33, 5, 5, 37, 0, 3, 39, 4, 1, 39, 1, 0, 48, 5, 3, 49, 0, 5, 51, 0, 2, 54, 2, 2, 56, 5, 0, 59, 0, 5, 72, 0, 2, 72, 4, 0, 73, 1, 1, 77, 2, 5, 88, 5, 3, 88, 3, 0, 90, 0, 0, 92, 2, 2, 95, 4, 2, 97, 4, 5, 98, 1, 1, 102, 3, 4]);
