n_res = 4;
rc = [ 57, 48, 47, 47 ];
n_tasks = 32;
d = [0, 5, 5, 1, 4, 6, 3, 4, 4, 3, 8, 3, 3, 4, 9, 8, 3, 9, 6, 4, 7, 3, 10, 5, 1, 8, 3, 10, 10, 7, 6, 0];
rr = array2d(1..4, 1..32, [0, 10, 2, 6, 5, 7, 5, 1, 7, 2, 7, 3, 1, 2, 10, 10, 10, 2, 9, 6, 5, 6, 8, 6, 1, 8, 5, 4, 7, 4, 1, 0, 0, 4, 4, 4, 4, 1, 10, 3, 5, 4, 7, 8, 7, 3, 3, 10, 6, 6, 4, 4, 4, 7, 4, 2, 9, 9, 9, 5, 10, 10, 1, 0, 0, 6, 4, 7, 9, 9, 5, 7, 6, 2, 10, 5, 5, 5, 3, 2, 7, 1, 2, 1, 10, 7, 4, 9, 4, 5, 8, 6, 10, 5, 7, 0, 0, 3, 10, 4, 8, 10, 9, 2, 9, 2, 8, 6, 4, 2, 2, 10, 4, 2, 4, 4, 4, 2, 4, 4, 8, 3, 5, 6, 7, 4, 2, 0]);

suc = [
   {2, 3, 4},
   {14},
   {31, 23},
   {19, 5, 15},
   {11, 6, 7},
   {9},
   {8, 10, 12},
   {18},
   {22},
   {24, 30},
   {17, 27},
   {16, 20, 13},
   {27, 28},
   {15},
   {22, 30},
   {17, 28},
   {25},
   {26},
   {20, 29},
   {21},
   {27},
   {26},
   {25},
   {29},
   {29},
   {31},
   {31},
   {30},
   {32},
   {32},
   {32},
   {  } ];

deadline = array2d(1..32, 1..3, [2, 4, 1, 3, 1, 4, 4, 1, 4, 7, 3, 5, 10, 3, 5, 14, 0, 1, 17, 3, 2, 26, 0, 3, 27, 4, 0, 29, 5, 0, 30, 5, 1, 33, 0, 3, 35, 1, 3, 40, 1, 2, 41, 4, 1, 45, 3, 2, 47, 2, 3, 48, 2, 3, 48, 4, 3, 49, 5, 5, 55, 1, 5, 56, 3, 0, 56, 1, 4, 56, 0, 3, 58, 4, 5, 66, 3, 5, 75, 5, 3, 75, 0, 0, 76, 0, 0, 80, 5, 1, 84, 3, 3, 85, 2, 0]);
