n_res = 4;
rc = [ 30, 30, 25, 31 ];
n_tasks = 32;
d = [0, 2, 8, 6, 4, 2, 5, 7, 4, 10, 5, 1, 6, 5, 3, 10, 9, 5, 9, 5, 7, 1, 5, 5, 3, 8, 3, 1, 1, 4, 4, 0];
rr = array2d(1..4, 1..32, [0, 5, 8, 7, 4, 1, 10, 4, 4, 3, 3, 7, 4, 8, 10, 1, 1, 9, 7, 7, 5, 1, 5, 7, 5, 5, 2, 6, 7, 4, 10, 0, 0, 7, 6, 4, 3, 8, 7, 9, 3, 8, 6, 1, 10, 5, 2, 4, 1, 2, 1, 7, 2, 8, 6, 1, 1, 8, 8, 6, 2, 4, 2, 0, 0, 6, 1, 9, 9, 8, 1, 10, 1, 10, 5, 8, 9, 2, 6, 1, 1, 3, 2, 5, 9, 9, 1, 7, 8, 9, 10, 3, 9, 2, 8, 0, 0, 5, 4, 4, 5, 1, 5, 6, 6, 4, 4, 4, 4, 10, 8, 9, 5, 3, 10, 2, 7, 3, 8, 5, 3, 9, 8, 8, 1, 7, 10, 0]);

suc = [
   {2, 3, 4},
   {8, 9, 23},
   {5},
   {10, 6, 7},
   {16, 11, 13},
   {18, 19},
   {22},
   {11},
   {21},
   {12, 14, 15},
   {20},
   {16, 26},
   {25, 27, 28},
   {17, 31},
   {20},
   {29, 23},
   {18},
   {24},
   {23},
   {21},
   {25},
   {26},
   {27, 30},
   {25},
   {30},
   {28},
   {31},
   {29},
   {32},
   {32},
   {32},
   {  } ];

deadline = array2d(1..32, 1..3, [8, 0, 3, 14, 4, 3, 22, 1, 3, 22, 2, 5, 24, 2, 1, 28, 1, 4, 29, 0, 1, 35, 2, 2, 46, 0, 0, 48, 3, 0, 55, 5, 2, 62, 5, 2, 62, 0, 3, 67, 3, 5, 68, 4, 3, 71, 3, 5, 73, 2, 0, 76, 2, 5, 76, 2, 5, 86, 0, 3, 86, 3, 2, 88, 5, 2, 88, 2, 0, 89, 4, 5, 91, 4, 4, 95, 3, 2, 99, 3, 3, 108, 5, 2, 109, 2, 0, 110, 4, 4, 110, 3, 1, 114, 0, 4]);
