n_res = 4;
rc = [ 20, 15, 18, 13 ];
n_tasks = 32;
d = [0, 10, 8, 5, 10, 4, 2, 3, 6, 2, 6, 7, 3, 6, 9, 4, 7, 3, 1, 5, 5, 9, 5, 3, 4, 9, 3, 1, 4, 5, 6, 0];
rr = array2d(1..4, 1..32, [0, 6, 10, 6, 0, 0, 5, 0, 0, 8, 0, 6, 6, 0, 0, 0, 5, 4, 0, 10, 5, 6, 6, 1, 0, 0, 0, 8, 5, 0, 0, 0, 0, 0, 0, 0, 0, 4, 0, 0, 0, 0, 6, 0, 6, 6, 7, 0, 0, 0, 0, 1, 0, 0, 0, 0, 0, 8, 10, 0, 0, 7, 0, 0, 0, 10, 0, 0, 6, 7, 8, 2, 0, 0, 2, 10, 9, 0, 0, 10, 2, 0, 6, 2, 1, 0, 0, 0, 5, 0, 0, 8, 0, 6, 9, 0, 0, 0, 1, 2, 4, 7, 0, 0, 3, 6, 0, 0, 0, 0, 4, 1, 0, 2, 6, 9, 0, 1, 8, 5, 2, 5, 2, 0, 5, 2, 0, 0]);

suc = [
   {2, 3, 4},
   {10, 18, 5},
   {8, 30},
   {10, 6, 7},
   {9, 12, 23},
   {19, 23},
   {17, 11},
   {17, 20, 13},
   {19, 11, 14},
   {17, 13, 15},
   {25, 27, 20},
   {16, 26},
   {29},
   {28, 20, 21},
   {22},
   {22},
   {24, 22},
   {25, 27, 21},
   {31},
   {24, 29},
   {24},
   {31},
   {28},
   {31},
   {28},
   {27},
   {30},
   {29, 30},
   {32},
   {32},
   {32},
   {  } ];

deadline = array2d(1..32, 1..3, [14, 2, 5, 19, 5, 1, 20, 5, 0, 25, 2, 3, 26, 0, 0, 28, 2, 2, 32, 1, 5, 32, 1, 0, 35, 3, 4, 37, 5, 3, 37, 3, 4, 39, 5, 1, 40, 1, 0, 47, 1, 2, 57, 5, 0, 63, 1, 1, 64, 1, 3, 73, 2, 4, 74, 2, 0, 75, 2, 2, 76, 3, 0, 78, 2, 0, 83, 3, 1, 85, 5, 2, 87, 1, 0, 87, 4, 4, 92, 3, 5, 100, 0, 2, 101, 1, 1, 107, 3, 5, 108, 0, 0, 109, 3, 2]);
