n_res = 4;
rc = [ 14, 19, 24, 19 ];
n_tasks = 32;
d = [0, 9, 9, 2, 1, 2, 10, 5, 9, 4, 1, 4, 6, 8, 7, 3, 10, 1, 5, 6, 5, 1, 4, 3, 8, 2, 10, 3, 4, 9, 4, 0];
rr = array2d(1..4, 1..32, [0, 0, 0, 2, 7, 0, 0, 0, 4, 0, 0, 0, 2, 0, 0, 7, 6, 4, 3, 0, 5, 0, 0, 0, 0, 8, 9, 0, 3, 10, 0, 0, 0, 6, 0, 4, 5, 0, 0, 0, 0, 0, 6, 0, 10, 9, 8, 8, 7, 1, 4, 2, 7, 0, 1, 0, 6, 3, 0, 0, 0, 0, 2, 0, 0, 0, 1, 0, 6, 0, 8, 6, 6, 9, 4, 9, 0, 0, 0, 0, 7, 7, 0, 0, 0, 0, 0, 8, 3, 6, 0, 1, 8, 0, 0, 0, 0, 0, 3, 0, 4, 8, 1, 3, 2, 1, 5, 4, 5, 7, 0, 0, 0, 0, 0, 0, 4, 9, 0, 0, 0, 0, 0, 7, 0, 5, 4, 0]);

suc = [
   {2, 3, 4},
   {16, 30},
   {8, 5, 6},
   {25, 18, 7},
   {12},
   {26, 15},
   {9, 11},
   {10},
   {24},
   {13},
   {17, 21},
   {14},
   {16, 14},
   {19},
   {20, 28, 23},
   {17},
   {19},
   {26, 29},
   {27},
   {24, 25},
   {22},
   {23},
   {27},
   {30, 31},
   {27},
   {30, 31},
   {31},
   {29},
   {32},
   {32},
   {32},
   {  } ];

deadline = array2d(1..32, 1..3, [6, 5, 3, 6, 2, 5, 9, 4, 1, 11, 5, 0, 15, 0, 4, 17, 1, 2, 18, 4, 1, 18, 0, 0, 24, 0, 4, 27, 0, 0, 28, 0, 4, 31, 0, 3, 51, 3, 0, 59, 2, 1, 60, 2, 5, 62, 3, 5, 67, 0, 0, 71, 4, 5, 76, 3, 2, 76, 0, 3, 83, 3, 1, 84, 2, 5, 93, 5, 5, 93, 2, 2, 98, 2, 0, 98, 3, 1, 102, 2, 1, 109, 5, 1, 111, 0, 3, 131, 4, 5, 133, 3, 5, 135, 0, 1]);
