n_res = 4;
rc = [ 30, 17, 27, 16 ];
n_tasks = 32;
d = [0, 2, 10, 4, 6, 5, 4, 7, 2, 1, 7, 10, 6, 5, 2, 3, 8, 3, 8, 3, 8, 8, 8, 1, 3, 8, 3, 2, 1, 2, 6, 0];
rr = array2d(1..4, 1..32, [0, 0, 2, 5, 6, 2, 0, 0, 0, 0, 0, 10, 0, 0, 4, 2, 7, 7, 9, 0, 5, 0, 9, 0, 0, 1, 0, 2, 0, 0, 8, 0, 0, 5, 9, 0, 8, 8, 0, 0, 7, 4, 0, 8, 2, 0, 0, 0, 1, 3, 0, 0, 1, 3, 10, 0, 4, 0, 7, 0, 0, 4, 0, 0, 0, 5, 10, 0, 0, 7, 5, 3, 0, 0, 0, 0, 0, 5, 1, 1, 9, 0, 7, 7, 0, 5, 8, 1, 0, 6, 5, 0, 0, 0, 10, 0, 0, 9, 0, 5, 0, 0, 7, 2, 0, 2, 9, 0, 0, 0, 0, 0, 0, 0, 0, 0, 0, 0, 8, 0, 5, 9, 9, 3, 1, 0, 8, 0]);

suc = [
   {2, 3, 4},
   {19},
   {6, 14},
   {17, 5, 22},
   {8, 11, 12},
   {9, 7},
   {17, 31},
   {30},
   {10},
   {19, 20, 15},
   {31},
   {13},
   {26, 23},
   {16},
   {28},
   {24},
   {25, 18, 21},
   {27, 29},
   {26},
   {24},
   {24},
   {29},
   {30},
   {27, 29},
   {26, 27},
   {28},
   {28},
   {30},
   {32},
   {32},
   {32},
   {  } ];

deadline = array2d(1..32, 1..3, [12, 2, 3, 15, 1, 0, 20, 2, 4, 20, 1, 5, 27, 3, 3, 30, 1, 4, 31, 1, 4, 38, 4, 4, 48, 3, 2, 51, 5, 0, 54, 5, 2, 64, 4, 3, 65, 4, 5, 66, 1, 3, 69, 0, 5, 72, 4, 3, 73, 5, 0, 73, 0, 1, 74, 1, 2, 76, 2, 1, 76, 5, 2, 77, 2, 0, 78, 5, 4, 81, 0, 4, 81, 5, 1, 83, 4, 3, 85, 1, 2, 87, 0, 1, 95, 1, 5, 98, 0, 1, 99, 1, 0, 107, 4, 5]);
