n_res = 4;
rc = [ 12, 14, 12, 10 ];
n_tasks = 32;
d = [0, 8, 3, 6, 9, 8, 6, 4, 5, 4, 5, 7, 1, 10, 1, 5, 4, 10, 3, 5, 10, 1, 1, 3, 10, 1, 1, 7, 8, 9, 2, 0];
rr = array2d(1..4, 1..32, [0, 10, 0, 0, 0, 0, 0, 0, 0, 0, 8, 10, 1, 0, 0, 0, 0, 0, 0, 0, 0, 0, 0, 3, 0, 0, 0, 0, 0, 0, 0, 0, 0, 0, 4, 5, 4, 0, 0, 0, 8, 0, 0, 0, 0, 8, 0, 0, 0, 0, 0, 0, 2, 0, 2, 0, 8, 0, 1, 0, 10, 0, 6, 0, 0, 0, 0, 0, 0, 6, 0, 0, 0, 0, 0, 0, 0, 0, 4, 0, 0, 10, 3, 5, 0, 5, 0, 0, 0, 0, 0, 5, 0, 7, 0, 0, 0, 0, 0, 0, 0, 0, 8, 5, 0, 1, 0, 0, 0, 0, 0, 3, 9, 0, 0, 0, 0, 0, 0, 0, 0, 3, 0, 0, 0, 0, 0, 0]);

suc = [
   {2, 3, 4},
   {9, 17, 25},
   {10, 11, 5},
   {8, 19, 15},
   {13, 6, 7},
   {15},
   {30, 31},
   {12, 14},
   {18, 22, 23},
   {12, 14},
   {29, 13},
   {27},
   {28},
   {16},
   {28},
   {18},
   {19, 20},
   {21},
   {26},
   {26},
   {29},
   {27},
   {24},
   {27},
   {26},
   {28},
   {29},
   {31},
   {32},
   {32},
   {32},
   {  } ];

deadline = array2d(1..32, 1..3, [3, 3, 1, 9, 4, 3, 9, 5, 4, 9, 5, 4, 9, 0, 1, 18, 0, 3, 29, 4, 3, 32, 1, 5, 32, 0, 1, 34, 1, 5, 38, 0, 4, 43, 0, 3, 44, 4, 3, 46, 5, 4, 49, 4, 3, 52, 4, 0, 53, 2, 2, 56, 4, 2, 56, 5, 5, 68, 0, 2, 68, 1, 3, 80, 5, 5, 81, 1, 3, 89, 5, 4, 94, 3, 5, 103, 5, 4, 112, 0, 1, 115, 3, 3, 117, 4, 1, 126, 0, 0, 128, 1, 2, 130, 4, 2]);
