n_res = 4;
rc = [ 24, 30, 18, 30 ];
n_tasks = 32;
d = [0, 3, 4, 6, 5, 6, 7, 3, 10, 4, 7, 7, 1, 10, 8, 6, 1, 1, 3, 9, 1, 1, 3, 6, 7, 2, 7, 8, 1, 6, 9, 0];
rr = array2d(1..4, 1..32, [0, 4, 0, 8, 0, 8, 1, 2, 2, 9, 1, 7, 9, 0, 4, 6, 0, 0, 4, 7, 0, 0, 7, 1, 10, 8, 9, 1, 9, 0, 4, 0, 0, 0, 6, 0, 4, 7, 5, 7, 4, 6, 6, 5, 0, 1, 0, 10, 0, 7, 1, 1, 8, 10, 10, 5, 0, 9, 5, 5, 6, 3, 10, 0, 0, 2, 2, 5, 0, 3, 0, 4, 0, 6, 0, 7, 8, 1, 0, 0, 5, 0, 0, 0, 4, 0, 9, 4, 4, 4, 0, 4, 3, 9, 5, 0, 0, 10, 9, 1, 7, 2, 1, 1, 4, 4, 2, 10, 8, 0, 1, 0, 8, 10, 2, 1, 3, 6, 6, 6, 6, 2, 0, 6, 2, 0, 6, 0]);

suc = [
   {2, 3, 4},
   {10, 11, 7},
   {8, 5, 6},
   {13},
   {16},
   {15},
   {9, 20, 17},
   {21, 22},
   {26, 14},
   {12},
   {25, 18, 23},
   {15},
   {16},
   {22, 30},
   {27, 19},
   {24},
   {26},
   {24, 21},
   {25, 28, 31},
   {25},
   {31},
   {29},
   {24},
   {30},
   {26},
   {29},
   {28},
   {29},
   {32},
   {32},
   {32},
   {  } ];

deadline = array2d(1..32, 1..3, [1, 3, 2, 3, 5, 2, 6, 3, 0, 10, 5, 3, 13, 0, 3, 16, 3, 0, 31, 4, 4, 32, 0, 3, 34, 4, 2, 35, 5, 4, 37, 4, 2, 41, 3, 4, 44, 0, 2, 51, 0, 1, 51, 1, 3, 57, 5, 2, 59, 2, 5, 59, 5, 3, 61, 0, 5, 63, 4, 4, 66, 0, 5, 66, 5, 2, 73, 3, 5, 76, 4, 4, 76, 2, 3, 78, 4, 0, 79, 4, 0, 79, 0, 3, 80, 0, 1, 81, 3, 1, 89, 5, 1, 91, 5, 3]);
