n_res = 4;
rc = [ 22, 23, 21, 32 ];
n_tasks = 32;
d = [0, 3, 1, 10, 9, 5, 10, 4, 7, 6, 3, 6, 9, 10, 1, 7, 9, 8, 10, 7, 4, 2, 10, 7, 3, 8, 5, 8, 7, 10, 7, 0];
rr = array2d(1..4, 1..32, [0, 10, 7, 5, 0, 7, 4, 7, 7, 6, 0, 8, 0, 7, 7, 6, 1, 0, 2, 9, 9, 9, 0, 4, 0, 8, 7, 5, 0, 1, 8, 0, 0, 9, 0, 0, 10, 7, 8, 5, 0, 9, 7, 7, 6, 1, 3, 5, 5, 0, 9, 0, 9, 6, 0, 5, 0, 10, 0, 10, 3, 7, 0, 0, 0, 8, 5, 0, 2, 4, 5, 10, 0, 5, 1, 0, 9, 2, 1, 4, 4, 8, 10, 0, 0, 5, 8, 4, 7, 4, 5, 0, 4, 5, 10, 0, 0, 5, 2, 4, 0, 0, 2, 8, 0, 8, 0, 9, 9, 9, 10, 5, 0, 10, 9, 4, 7, 0, 7, 3, 2, 9, 0, 10, 7, 1, 9, 0]);

suc = [
   {2, 3, 4},
   {16, 12, 6},
   {8, 5, 6},
   {25, 11, 14},
   {10, 18, 7},
   {23},
   {17, 11, 12},
   {9, 21, 31},
   {18, 29, 15},
   {26, 27},
   {28, 13, 31},
   {21, 14},
   {30},
   {15},
   {24},
   {22},
   {19, 28, 21},
   {19, 20, 22},
   {26, 23},
   {24},
   {29, 23},
   {24},
   {30},
   {26},
   {27},
   {30},
   {28, 31},
   {29},
   {32},
   {32},
   {32},
   {  } ];

deadline = array2d(1..32, 1..3, [4, 1, 1, 6, 2, 5, 15, 2, 1, 19, 4, 4, 33, 4, 0, 35, 4, 5, 43, 1, 0, 46, 1, 0, 51, 5, 2, 54, 3, 4, 56, 4, 4, 56, 4, 4, 58, 3, 5, 61, 0, 1, 71, 5, 1, 80, 1, 2, 94, 2, 4, 97, 3, 2, 99, 1, 5, 100, 3, 2, 104, 3, 3, 105, 1, 2, 109, 1, 3, 115, 4, 2, 116, 2, 5, 119, 1, 0, 138, 5, 3, 141, 4, 4, 142, 2, 5, 145, 4, 2, 152, 1, 4, 153, 2, 4]);
