n_res = 4;
rc = [ 12, 15, 15, 16 ];
n_tasks = 32;
d = [0, 5, 4, 7, 3, 10, 4, 2, 7, 7, 3, 2, 4, 2, 2, 7, 5, 3, 6, 4, 6, 5, 7, 3, 2, 6, 1, 4, 4, 9, 1, 0];
rr = array2d(1..4, 1..32, [0, 5, 6, 8, 3, 5, 1, 5, 2, 1, 5, 2, 0, 3, 0, 3, 9, 6, 5, 5, 8, 1, 0, 5, 0, 4, 1, 0, 5, 0, 0, 0, 0, 0, 7, 0, 9, 3, 8, 5, 3, 0, 9, 10, 4, 8, 1, 9, 0, 10, 6, 3, 8, 4, 0, 8, 10, 9, 7, 4, 0, 6, 5, 0, 0, 8, 8, 4, 2, 6, 1, 0, 0, 0, 0, 4, 7, 2, 0, 5, 0, 9, 0, 9, 10, 0, 10, 0, 8, 10, 3, 6, 8, 4, 1, 0, 0, 3, 0, 5, 8, 9, 8, 3, 0, 8, 6, 0, 4, 0, 2, 6, 10, 0, 8, 0, 8, 2, 2, 6, 4, 2, 2, 5, 0, 3, 6, 0]);

suc = [
   {2, 3, 4},
   {9, 6},
   {11},
   {17, 5, 7},
   {8, 13, 22},
   {12},
   {10, 19, 28},
   {29},
   {18, 20, 13},
   {18},
   {16, 31},
   {15},
   {19, 14},
   {26},
   {24},
   {28},
   {21},
   {23},
   {27},
   {25, 22},
   {26, 27},
   {26},
   {27, 30},
   {25, 30},
   {31},
   {28},
   {29},
   {29},
   {32},
   {32},
   {32},
   {  } ];

deadline = array2d(1..32, 1..3, [7, 4, 1, 11, 1, 4, 18, 0, 3, 26, 4, 1, 35, 5, 1, 38, 4, 2, 40, 1, 1, 44, 3, 2, 44, 0, 4, 45, 0, 4, 49, 0, 0, 49, 4, 4, 51, 4, 1, 57, 2, 4, 60, 3, 0, 62, 5, 0, 63, 1, 4, 67, 2, 0, 67, 3, 0, 69, 2, 2, 73, 4, 2, 73, 2, 0, 77, 1, 3, 81, 0, 0, 81, 1, 1, 82, 4, 3, 83, 3, 2, 84, 4, 2, 85, 5, 3, 86, 3, 2, 88, 1, 1, 89, 5, 5]);
