n_res = 4;
rc = [ 25, 28, 37, 26 ];
n_tasks = 32;
d = [0, 2, 2, 10, 6, 1, 2, 9, 1, 6, 10, 6, 7, 5, 7, 10, 10, 4, 4, 8, 6, 4, 1, 5, 2, 5, 1, 8, 6, 1, 3, 0];
rr = array2d(1..4, 1..32, [0, 10, 10, 0, 2, 2, 2, 8, 0, 2, 0, 8, 3, 0, 4, 7, 5, 7, 6, 6, 0, 5, 4, 2, 7, 0, 8, 5, 7, 1, 5, 0, 0, 9, 7, 0, 1, 9, 5, 4, 6, 5, 10, 10, 0, 3, 4, 3, 0, 2, 10, 6, 7, 6, 4, 4, 5, 7, 0, 0, 0, 3, 0, 0, 0, 2, 8, 10, 8, 0, 6, 10, 10, 0, 0, 6, 10, 6, 2, 9, 5, 3, 0, 0, 0, 0, 5, 5, 4, 8, 7, 9, 0, 9, 7, 0, 0, 5, 3, 0, 0, 3, 0, 9, 9, 0, 6, 4, 0, 8, 0, 10, 6, 4, 8, 10, 2, 2, 2, 2, 1, 2, 8, 9, 0, 0, 3, 0]);

suc = [
   {2, 3, 4},
   {8, 5, 7},
   {8, 16, 5},
   {24, 13, 15},
   {12, 6, 23},
   {20, 21},
   {16, 9, 20},
   {9, 10, 17},
   {11, 13, 15},
   {18, 13, 22},
   {14},
   {17, 21, 15},
   {25, 28, 23},
   {19, 21},
   {26, 27},
   {25, 27, 22},
   {26, 19, 20},
   {24, 19, 23},
   {27},
   {25, 29, 30},
   {22},
   {24},
   {31},
   {26, 28, 31},
   {31},
   {29, 30},
   {28},
   {29, 30},
   {32},
   {32},
   {32},
   {  } ];

deadline = array2d(1..32, 1..3, [1, 3, 1, 3, 2, 3, 7, 5, 5, 9, 5, 0, 19, 3, 0, 24, 2, 3, 29, 2, 3, 32, 2, 2, 34, 4, 2, 35, 4, 1, 38, 2, 1, 39, 4, 1, 41, 0, 5, 47, 4, 5, 53, 2, 1, 54, 1, 4, 63, 4, 3, 65, 3, 1, 68, 4, 4, 77, 0, 5, 95, 3, 0, 98, 2, 4, 99, 3, 5, 99, 0, 0, 103, 0, 3, 106, 3, 5, 106, 3, 1, 114, 5, 0, 126, 5, 2, 129, 0, 5, 134, 4, 0, 137, 5, 1]);
