n_res = 4;
rc = [ 21, 11, 12, 9 ];
n_tasks = 32;
d = [0, 6, 6, 4, 1, 9, 5, 7, 8, 10, 3, 10, 4, 4, 9, 8, 1, 1, 3, 3, 1, 1, 1, 3, 8, 9, 7, 4, 5, 10, 7, 0];
rr = array2d(1..4, 1..32, [0, 6, 8, 7, 1, 7, 0, 0, 0, 1, 5, 5, 0, 0, 0, 1, 0, 0, 0, 0, 0, 4, 0, 0, 0, 0, 0, 0, 0, 5, 0, 0, 0, 0, 0, 0, 0, 0, 7, 0, 0, 0, 0, 0, 0, 0, 0, 0, 10, 0, 0, 0, 8, 0, 1, 0, 3, 0, 6, 0, 0, 0, 0, 0, 0, 0, 0, 0, 0, 0, 0, 4, 0, 0, 0, 0, 1, 5, 6, 0, 0, 5, 6, 0, 0, 0, 0, 0, 0, 0, 0, 5, 0, 0, 2, 0, 0, 0, 0, 0, 0, 0, 0, 0, 7, 0, 0, 0, 0, 0, 0, 0, 0, 0, 0, 5, 0, 0, 0, 7, 0, 8, 0, 0, 9, 0, 0, 0]);

suc = [
   {2, 3, 4},
   {17, 10, 5},
   {9, 6, 7},
   {8, 13, 30},
   {16, 25, 7},
   {18, 20, 14},
   {19, 11},
   {11, 20, 15},
   {25, 10, 18},
   {24, 12, 30},
   {12, 21},
   {23, 14, 22},
   {14, 15},
   {26, 28},
   {24, 17, 23},
   {18, 20, 23},
   {25, 21, 22},
   {24, 19, 29},
   {30, 31},
   {27, 21, 22},
   {31},
   {28},
   {26, 28},
   {27},
   {26},
   {27, 29},
   {31},
   {29},
   {32},
   {32},
   {32},
   {  } ];

deadline = array2d(1..32, 1..3, [5, 4, 1, 6, 1, 5, 8, 3, 5, 28, 4, 0, 30, 5, 4, 32, 5, 1, 35, 1, 5, 44, 1, 3, 45, 2, 2, 61, 0, 0, 63, 0, 0, 66, 5, 0, 68, 5, 2, 72, 1, 3, 83, 5, 5, 85, 0, 0, 88, 4, 1, 92, 5, 3, 95, 1, 2, 95, 2, 5, 98, 5, 4, 100, 2, 4, 103, 2, 4, 103, 5, 1, 110, 0, 4, 111, 4, 1, 113, 4, 5, 114, 2, 2, 123, 3, 2, 132, 5, 2, 138, 4, 3, 151, 5, 3]);
