n_res = 4;
rc = [ 13, 12, 11, 11 ];
n_tasks = 32;
d = [0, 8, 5, 1, 1, 2, 7, 8, 6, 7, 8, 9, 2, 8, 7, 6, 2, 4, 8, 9, 10, 4, 7, 2, 3, 1, 8, 2, 9, 3, 5, 0];
rr = array2d(1..4, 1..32, [0, 0, 9, 0, 0, 8, 0, 0, 0, 10, 3, 1, 4, 10, 0, 0, 0, 0, 0, 0, 0, 8, 0, 0, 0, 0, 8, 0, 0, 0, 0, 0, 0, 0, 0, 0, 0, 0, 0, 0, 0, 0, 0, 0, 0, 0, 0, 0, 0, 0, 0, 0, 0, 0, 4, 3, 10, 0, 0, 0, 0, 0, 4, 0, 0, 4, 0, 3, 2, 0, 0, 0, 3, 0, 0, 0, 0, 0, 0, 10, 6, 9, 0, 2, 5, 0, 0, 0, 0, 8, 0, 1, 0, 9, 0, 0, 0, 0, 0, 0, 0, 0, 5, 7, 0, 0, 0, 0, 0, 0, 7, 0, 0, 0, 10, 0, 0, 0, 0, 0, 0, 0, 0, 0, 3, 0, 0, 0]);

suc = [
   {2, 3, 4},
   {12, 13, 7},
   {8, 9, 11},
   {5, 14},
   {31, 6, 30},
   {10, 23},
   {9, 20, 28},
   {20},
   {15},
   {24},
   {24, 22, 15},
   {16},
   {17, 14},
   {21, 30},
   {25, 26},
   {26, 18, 19},
   {26, 20, 23},
   {27, 31},
   {22, 23},
   {25, 21},
   {24, 31},
   {25, 28},
   {28},
   {27},
   {29, 30},
   {27},
   {29},
   {29},
   {32},
   {32},
   {32},
   {  } ];

deadline = array2d(1..32, 1..3, [10, 3, 2, 16, 0, 2, 29, 5, 1, 31, 5, 2, 34, 1, 2, 37, 1, 4, 43, 5, 3, 45, 1, 5, 48, 0, 4, 61, 0, 3, 67, 3, 5, 68, 2, 1, 75, 4, 1, 82, 1, 0, 83, 4, 3, 85, 4, 3, 85, 1, 4, 88, 4, 0, 90, 4, 5, 93, 2, 4, 94, 3, 4, 94, 3, 1, 99, 1, 1, 100, 2, 2, 102, 2, 5, 102, 5, 1, 113, 2, 3, 115, 2, 3, 118, 2, 4, 122, 3, 4, 124, 4, 4, 129, 0, 5]);
