n_res = 4;
rc = [ 19, 19, 19, 18 ];
n_tasks = 32;
d = [0, 10, 3, 4, 4, 4, 9, 10, 6, 1, 6, 4, 4, 2, 1, 6, 8, 10, 5, 6, 5, 8, 8, 10, 7, 1, 8, 6, 6, 5, 5, 0];
rr = array2d(1..4, 1..32, [0, 6, 10, 0, 0, 1, 9, 0, 0, 0, 0, 2, 7, 6, 1, 0, 0, 10, 10, 0, 2, 6, 1, 0, 0, 7, 1, 0, 10, 5, 8, 0, 0, 0, 6, 9, 0, 0, 0, 10, 0, 6, 0, 7, 0, 0, 7, 8, 4, 0, 0, 6, 0, 0, 0, 10, 8, 8, 0, 2, 0, 7, 0, 0, 0, 0, 0, 10, 1, 9, 0, 0, 6, 0, 6, 4, 0, 4, 10, 0, 10, 3, 8, 0, 0, 0, 0, 0, 5, 5, 0, 0, 0, 6, 10, 0, 0, 8, 0, 10, 0, 4, 0, 0, 7, 0, 0, 0, 0, 0, 9, 4, 0, 0, 2, 7, 0, 7, 0, 0, 9, 7, 4, 8, 2, 0, 0, 0]);

suc = [
   {2, 3, 4},
   {8, 17, 24},
   {5},
   {8, 27, 11},
   {11, 12, 6},
   {10, 14, 7},
   {8, 9, 23},
   {25, 20, 22},
   {25, 20, 13},
   {21, 13, 23},
   {18, 28, 21},
   {17, 18, 14},
   {17, 18, 15},
   {16, 25, 20},
   {24, 19, 22},
   {24, 19, 23},
   {19, 28, 22},
   {26},
   {27, 30},
   {29, 21},
   {30},
   {26, 31},
   {31},
   {26, 27, 28},
   {30},
   {29},
   {29},
   {31},
   {32},
   {32},
   {32},
   {  } ];

deadline = array2d(1..32, 1..3, [4, 5, 0, 8, 4, 1, 19, 5, 1, 20, 3, 1, 27, 4, 4, 30, 1, 1, 32, 2, 4, 33, 1, 3, 40, 1, 0, 43, 0, 3, 43, 2, 0, 47, 1, 3, 49, 0, 5, 56, 1, 5, 64, 3, 3, 68, 0, 2, 68, 1, 0, 79, 1, 4, 82, 4, 1, 83, 3, 4, 88, 0, 4, 95, 4, 0, 100, 2, 1, 105, 4, 1, 105, 5, 0, 106, 5, 4, 116, 3, 4, 122, 1, 0, 128, 4, 4, 131, 1, 3, 134, 2, 1, 141, 3, 4]);
