n_res = 4;
rc = [ 21, 8, 10, 27 ];
n_tasks = 32;
d = [0, 6, 3, 5, 6, 10, 5, 2, 10, 10, 7, 10, 3, 6, 8, 10, 1, 1, 1, 8, 3, 3, 8, 10, 6, 5, 10, 9, 8, 1, 9, 0];
rr = array2d(1..4, 1..32, [0, 8, 0, 0, 7, 6, 6, 0, 0, 0, 0, 0, 4, 0, 5, 0, 1, 8, 0, 0, 0, 0, 0, 4, 0, 0, 0, 0, 0, 0, 0, 0, 0, 0, 0, 0, 0, 0, 0, 0, 0, 0, 0, 0, 0, 0, 0, 0, 0, 0, 0, 8, 0, 0, 0, 0, 0, 8, 0, 3, 0, 3, 0, 0, 0, 0, 0, 0, 0, 0, 0, 7, 0, 0, 10, 0, 0, 0, 0, 2, 0, 0, 8, 0, 0, 0, 3, 0, 0, 0, 0, 0, 2, 0, 2, 0, 0, 0, 2, 1, 0, 0, 0, 0, 4, 10, 0, 8, 0, 9, 0, 0, 0, 0, 0, 0, 10, 10, 0, 0, 8, 0, 7, 0, 0, 0, 0, 0]);

suc = [
   {2, 3, 4},
   {9, 21, 23},
   {8, 5, 6},
   {10, 12, 7},
   {19, 17, 11},
   {10, 15, 7},
   {27, 19, 21},
   {9, 18, 12},
   {17, 22},
   {27, 20, 14},
   {20, 13, 14},
   {16, 17, 22},
   {16, 24, 26},
   {18, 21, 23},
   {16, 31},
   {29},
   {25, 27},
   {25},
   {26, 20},
   {24, 22, 23},
   {24, 26, 29},
   {29, 30},
   {31},
   {25},
   {28, 30},
   {28},
   {28, 30},
   {31},
   {32},
   {32},
   {32},
   {  } ];

deadline = array2d(1..32, 1..3, [16, 4, 4, 26, 5, 1, 34, 1, 2, 35, 2, 2, 44, 0, 2, 46, 2, 5, 46, 4, 1, 49, 3, 1, 50, 5, 5, 50, 2, 1, 52, 4, 2, 55, 5, 5, 55, 4, 2, 73, 5, 3, 89, 5, 3, 99, 1, 4, 108, 1, 0, 111, 2, 3, 115, 1, 1, 117, 3, 2, 118, 0, 4, 119, 2, 2, 120, 5, 5, 122, 3, 5, 125, 0, 0, 134, 2, 0, 140, 4, 2, 143, 4, 0, 150, 0, 3, 151, 1, 5, 152, 2, 5, 156, 5, 0]);
