n_res = 4;
rc = [ 19, 32, 29, 24 ];
n_tasks = 32;
d = [0, 5, 5, 9, 9, 2, 6, 4, 1, 2, 6, 10, 2, 10, 9, 2, 4, 4, 3, 4, 6, 1, 9, 5, 7, 7, 10, 4, 2, 1, 3, 0];
rr = array2d(1..4, 1..32, [0, 9, 1, 10, 3, 1, 5, 9, 1, 6, 3, 3, 5, 1, 3, 9, 8, 4, 8, 4, 6, 9, 4, 4, 2, 8, 4, 2, 4, 3, 5, 0, 0, 5, 3, 1, 8, 10, 1, 8, 1, 1, 10, 9, 5, 1, 9, 7, 1, 7, 7, 5, 4, 1, 6, 1, 10, 2, 9, 10, 4, 6, 8, 0, 0, 5, 10, 7, 3, 2, 2, 2, 10, 9, 4, 8, 5, 2, 7, 3, 5, 7, 4, 10, 9, 5, 8, 10, 7, 7, 9, 10, 7, 6, 10, 0, 0, 4, 4, 5, 2, 5, 3, 5, 6, 6, 9, 7, 4, 7, 2, 9, 3, 7, 7, 8, 3, 4, 6, 8, 4, 9, 2, 8, 10, 8, 2, 0]);

suc = [
   {2, 3, 4},
   {9, 21},
   {10, 6, 7},
   {5, 15},
   {8, 16, 13},
   {25, 13},
   {11, 12, 20},
   {22},
   {24, 28, 30},
   {15},
   {22},
   {17, 13, 14},
   {29, 22},
   {24, 28, 23},
   {18, 23},
   {19, 21, 23},
   {18, 26, 21},
   {19, 28},
   {24},
   {30},
   {25, 27},
   {26},
   {31},
   {25, 31},
   {29},
   {27},
   {30},
   {29, 31},
   {32},
   {32},
   {32},
   {  } ];

deadline = array2d(1..32, 1..3, [10, 3, 3, 11, 1, 0, 11, 1, 2, 28, 1, 5, 28, 1, 1, 29, 4, 5, 31, 1, 4, 31, 5, 5, 33, 5, 1, 46, 1, 3, 50, 1, 1, 51, 2, 0, 58, 2, 5, 59, 4, 5, 67, 1, 2, 69, 0, 1, 71, 2, 1, 74, 5, 3, 78, 1, 2, 78, 1, 2, 82, 2, 4, 91, 5, 1, 93, 0, 0, 94, 3, 3, 94, 0, 0, 94, 0, 2, 98, 0, 5, 98, 2, 0, 101, 2, 5, 102, 0, 3, 104, 5, 1, 107, 0, 3]);
