n_res = 4;
rc = [ 28, 28, 14, 27 ];
n_tasks = 32;
d = [0, 8, 7, 3, 7, 3, 9, 3, 9, 4, 3, 9, 4, 10, 7, 2, 8, 6, 1, 9, 2, 6, 3, 4, 10, 7, 1, 1, 9, 4, 1, 0];
rr = array2d(1..4, 1..32, [0, 6, 10, 8, 0, 0, 0, 0, 0, 0, 7, 0, 6, 5, 1, 0, 10, 7, 2, 0, 0, 0, 0, 0, 0, 6, 8, 7, 0, 10, 0, 0, 0, 0, 0, 0, 10, 9, 0, 0, 6, 10, 0, 10, 0, 9, 2, 5, 0, 0, 5, 0, 8, 8, 6, 6, 0, 0, 0, 6, 0, 10, 0, 0, 0, 0, 4, 0, 5, 0, 0, 0, 0, 8, 0, 9, 0, 0, 0, 0, 1, 0, 10, 0, 4, 5, 5, 0, 0, 8, 3, 0, 6, 0, 0, 0, 0, 0, 6, 8, 3, 10, 4, 3, 0, 10, 8, 0, 0, 5, 7, 7, 7, 0, 0, 3, 8, 8, 6, 0, 5, 0, 4, 0, 0, 4, 7, 0]);

suc = [
   {2, 3, 4},
   {26, 19, 7},
   {9, 27, 5},
   {17, 10},
   {8, 6, 23},
   {18, 20},
   {21},
   {12},
   {13},
   {16, 11, 14},
   {26, 22},
   {24},
   {15},
   {24, 21},
   {24},
   {30},
   {29},
   {28, 22},
   {21},
   {30, 31},
   {22},
   {25, 29},
   {28},
   {25},
   {31},
   {31},
   {30},
   {29},
   {32},
   {32},
   {32},
   {  } ];

deadline = array2d(1..32, 1..3, [2, 2, 1, 9, 4, 3, 12, 2, 4, 15, 5, 0, 17, 4, 1, 18, 5, 3, 20, 1, 2, 37, 0, 1, 40, 3, 1, 43, 3, 5, 43, 3, 2, 46, 5, 2, 50, 2, 4, 52, 5, 0, 52, 3, 4, 57, 5, 3, 59, 3, 4, 59, 3, 3, 66, 1, 5, 66, 4, 2, 67, 1, 1, 81, 5, 1, 83, 3, 2, 85, 5, 2, 86, 5, 0, 88, 3, 0, 90, 2, 4, 94, 2, 2, 94, 4, 1, 98, 2, 0, 98, 4, 2, 100, 1, 2]);
