n_res = 4;
rc = [ 15, 20, 16, 30 ];
n_tasks = 32;
d = [0, 7, 4, 4, 9, 7, 6, 1, 8, 3, 8, 1, 10, 6, 4, 9, 8, 2, 5, 1, 3, 1, 3, 7, 5, 6, 3, 7, 2, 4, 3, 0];
rr = array2d(1..4, 1..32, [0, 0, 5, 4, 8, 2, 3, 2, 0, 0, 0, 7, 0, 0, 0, 5, 9, 4, 0, 0, 2, 0, 10, 5, 2, 0, 0, 2, 8, 7, 1, 0, 0, 0, 2, 3, 0, 10, 0, 0, 0, 8, 0, 6, 0, 0, 2, 0, 0, 2, 0, 0, 7, 0, 0, 0, 3, 10, 0, 0, 0, 0, 0, 0, 0, 4, 0, 0, 0, 0, 2, 0, 2, 0, 8, 0, 1, 0, 9, 8, 2, 0, 5, 0, 0, 5, 1, 0, 0, 6, 10, 0, 0, 2, 0, 0, 0, 4, 0, 0, 2, 9, 7, 4, 0, 2, 5, 9, 7, 5, 0, 8, 0, 0, 1, 10, 0, 10, 1, 0, 4, 0, 0, 2, 6, 0, 1, 0]);

suc = [
   {2, 3, 4},
   {10, 12, 6},
   {8, 20},
   {13, 11, 5},
   {16, 18, 7},
   {17, 22, 15},
   {9, 19, 29},
   {10, 14, 31},
   {17},
   {29, 30},
   {24},
   {25, 22, 15},
   {20},
   {17, 23},
   {18, 19, 29},
   {25, 19, 22},
   {28},
   {26},
   {24, 26, 31},
   {31, 21, 23},
   {28},
   {23},
   {24},
   {27},
   {26},
   {27},
   {28},
   {30},
   {32},
   {32},
   {32},
   {  } ];

deadline = array2d(1..32, 1..3, [9, 0, 2, 15, 4, 2, 20, 1, 1, 20, 3, 0, 27, 1, 3, 28, 2, 2, 28, 1, 2, 31, 1, 3, 33, 2, 2, 35, 5, 3, 40, 2, 3, 40, 3, 0, 43, 3, 4, 50, 5, 3, 53, 4, 2, 60, 1, 1, 65, 0, 5, 65, 4, 2, 68, 5, 4, 73, 3, 1, 74, 5, 3, 75, 0, 2, 82, 0, 0, 89, 3, 3, 93, 4, 5, 96, 1, 0, 101, 5, 2, 103, 4, 0, 108, 0, 5, 111, 0, 2, 112, 5, 2, 113, 0, 2]);
