n_res = 4;
rc = [ 31, 24, 20, 25 ];
n_tasks = 32;
d = [0, 10, 7, 7, 5, 7, 8, 3, 1, 10, 9, 9, 3, 4, 9, 5, 8, 3, 10, 9, 3, 5, 10, 7, 2, 8, 2, 7, 6, 10, 1, 0];
rr = array2d(1..4, 1..32, [0, 0, 7, 8, 2, 10, 9, 3, 1, 2, 0, 8, 9, 8, 1, 4, 5, 0, 7, 2, 8, 0, 10, 0, 1, 9, 0, 7, 3, 2, 3, 0, 0, 5, 0, 10, 1, 1, 5, 8, 4, 7, 0, 0, 6, 10, 6, 0, 4, 7, 0, 3, 7, 2, 0, 8, 0, 10, 4, 1, 0, 2, 0, 0, 0, 2, 2, 4, 0, 0, 1, 1, 8, 10, 7, 0, 3, 3, 5, 2, 0, 6, 3, 4, 1, 2, 0, 5, 0, 9, 7, 1, 0, 0, 8, 0, 0, 3, 7, 4, 0, 0, 2, 6, 9, 4, 2, 9, 6, 8, 0, 9, 5, 8, 1, 8, 0, 4, 3, 0, 8, 7, 10, 0, 1, 9, 10, 0]);

suc = [
   {2, 3, 4},
   {26, 15},
   {8, 6},
   {24, 5, 7},
   {17},
   {15},
   {29},
   {9, 10, 13},
   {12, 14},
   {11, 23},
   {16},
   {27},
   {16, 20, 22},
   {27},
   {18, 19, 21},
   {21},
   {31},
   {28, 23},
   {25},
   {24},
   {30},
   {26, 30},
   {27},
   {28, 31},
   {30},
   {28},
   {31},
   {29},
   {32},
   {32},
   {32},
   {  } ];

deadline = array2d(1..32, 1..3, [15, 1, 2, 20, 5, 2, 27, 0, 0, 29, 4, 0, 29, 4, 3, 32, 1, 4, 32, 4, 5, 33, 4, 2, 34, 0, 3, 34, 1, 5, 36, 0, 2, 36, 0, 4, 42, 1, 0, 47, 4, 5, 47, 3, 3, 52, 3, 2, 59, 5, 4, 60, 0, 3, 63, 2, 3, 66, 4, 2, 67, 5, 2, 69, 3, 1, 70, 0, 5, 75, 5, 5, 86, 0, 3, 88, 0, 5, 91, 2, 1, 94, 4, 1, 96, 0, 5, 101, 4, 4, 113, 3, 5, 115, 1, 4]);
