n_res = 4;
rc = [ 15, 9, 15, 18 ];
n_tasks = 32;
d = [0, 2, 3, 4, 4, 3, 5, 7, 7, 8, 2, 7, 2, 4, 10, 5, 5, 8, 2, 9, 10, 7, 8, 10, 4, 6, 6, 10, 4, 3, 5, 0];
rr = array2d(1..4, 1..32, [0, 0, 0, 10, 0, 0, 0, 0, 0, 5, 1, 8, 1, 0, 0, 0, 0, 0, 0, 0, 0, 0, 0, 10, 0, 0, 3, 9, 0, 0, 0, 0, 0, 0, 0, 0, 0, 0, 9, 0, 0, 0, 0, 0, 0, 0, 0, 0, 0, 0, 0, 0, 5, 0, 0, 0, 0, 0, 0, 0, 8, 0, 0, 0, 0, 0, 0, 0, 9, 0, 0, 0, 1, 0, 0, 0, 0, 0, 0, 0, 5, 0, 10, 8, 0, 1, 6, 0, 0, 0, 0, 0, 0, 0, 0, 0, 0, 7, 8, 0, 0, 7, 0, 9, 0, 0, 0, 0, 0, 5, 9, 8, 0, 8, 0, 0, 0, 0, 0, 0, 5, 6, 0, 0, 0, 6, 2, 0]);

suc = [
   {2, 3, 4},
   {13, 5, 6},
   {12, 15},
   {8, 17, 7},
   {8, 20},
   {9},
   {16, 9, 10},
   {27},
   {24, 25, 11},
   {24, 12},
   {20, 14, 22},
   {29},
   {19, 23, 15},
   {19, 28},
   {18, 30},
   {26},
   {24, 27},
   {25, 21},
   {21, 31},
   {21, 23},
   {26},
   {29, 23},
   {27, 28},
   {30},
   {26, 28},
   {29},
   {30, 31},
   {31},
   {32},
   {32},
   {32},
   {  } ];

deadline = array2d(1..32, 1..3, [9, 4, 4, 9, 4, 2, 13, 5, 2, 14, 5, 1, 18, 3, 2, 18, 0, 3, 23, 2, 4, 30, 1, 5, 35, 0, 3, 40, 5, 1, 44, 1, 4, 54, 0, 0, 54, 0, 5, 63, 1, 5, 65, 0, 4, 66, 2, 0, 73, 0, 4, 74, 4, 1, 75, 5, 4, 77, 0, 0, 77, 4, 4, 77, 4, 4, 81, 4, 4, 85, 4, 4, 98, 3, 5, 102, 5, 5, 107, 2, 4, 112, 4, 1, 115, 5, 0, 117, 5, 4, 119, 1, 5, 120, 4, 4]);
