n_res = 4;
rc = [ 13, 17, 23, 17 ];
n_tasks = 32;
d = [0, 3, 4, 7, 1, 1, 2, 2, 10, 5, 10, 3, 6, 10, 8, 1, 10, 9, 8, 9, 4, 7, 2, 1, 6, 6, 7, 6, 6, 3, 7, 0];
rr = array2d(1..4, 1..32, [0, 0, 3, 2, 0, 0, 0, 0, 0, 0, 0, 2, 0, 4, 0, 5, 0, 1, 0, 2, 0, 3, 5, 5, 5, 0, 8, 0, 3, 0, 0, 0, 0, 0, 2, 0, 0, 6, 9, 3, 3, 0, 0, 7, 0, 1, 6, 9, 9, 0, 0, 0, 1, 8, 0, 9, 0, 0, 0, 5, 6, 0, 0, 0, 0, 0, 10, 6, 5, 0, 0, 3, 3, 8, 0, 9, 9, 6, 4, 2, 0, 1, 4, 4, 8, 0, 0, 8, 9, 0, 0, 0, 0, 2, 9, 0, 0, 1, 0, 2, 3, 10, 8, 0, 0, 0, 5, 0, 0, 0, 9, 0, 0, 10, 0, 5, 8, 0, 0, 0, 0, 8, 5, 0, 9, 2, 0, 0]);

suc = [
   {2, 3, 4},
   {8, 6, 14},
   {10, 12, 5},
   {24, 17, 18},
   {16, 14, 15},
   {10, 19, 7},
   {9, 11, 13},
   {26, 12, 15},
   {18, 22, 15},
   {16, 18, 29},
   {24, 22, 30},
   {17, 13, 25},
   {16, 28},
   {24, 17, 20},
   {20, 31},
   {27, 23},
   {21, 30},
   {26, 23},
   {20, 21, 30},
   {25},
   {22},
   {27, 28, 23},
   {31},
   {25, 26, 28},
   {29},
   {27},
   {31},
   {29},
   {32},
   {32},
   {32},
   {  } ];

deadline = array2d(1..32, 1..3, [4, 0, 1, 4, 4, 5, 5, 1, 4, 8, 5, 0, 8, 5, 2, 11, 2, 2, 16, 3, 2, 22, 0, 2, 24, 1, 4, 27, 0, 4, 28, 1, 5, 38, 2, 5, 46, 4, 1, 51, 0, 4, 55, 4, 2, 55, 3, 1, 62, 5, 3, 65, 4, 0, 65, 1, 3, 73, 3, 0, 76, 2, 4, 78, 1, 4, 80, 4, 0, 85, 2, 2, 86, 3, 4, 87, 3, 2, 88, 4, 1, 94, 4, 4, 100, 3, 5, 101, 3, 1, 108, 0, 4, 120, 4, 2]);
