n_res = 4;
rc = [ 34, 35, 35, 37 ];
n_tasks = 32;
d = [0, 5, 4, 6, 1, 4, 4, 8, 9, 5, 4, 3, 4, 2, 1, 10, 5, 9, 7, 10, 1, 4, 9, 8, 8, 10, 10, 1, 6, 1, 10, 0];
rr = array2d(1..4, 1..32, [0, 2, 3, 1, 2, 5, 9, 2, 8, 10, 6, 6, 6, 8, 9, 1, 5, 5, 5, 3, 7, 2, 6, 7, 2, 4, 2, 4, 3, 6, 8, 0, 0, 4, 1, 3, 7, 8, 1, 9, 3, 5, 10, 7, 5, 2, 7, 5, 5, 3, 8, 5, 3, 3, 6, 5, 1, 3, 6, 4, 10, 2, 8, 0, 0, 7, 7, 10, 7, 1, 9, 7, 1, 1, 9, 2, 10, 9, 9, 7, 1, 2, 4, 10, 7, 2, 3, 10, 1, 1, 8, 7, 3, 9, 2, 0, 0, 9, 2, 2, 3, 5, 7, 3, 3, 2, 5, 5, 6, 1, 1, 9, 9, 2, 4, 5, 7, 5, 5, 9, 4, 1, 9, 7, 10, 8, 3, 0]);

suc = [
   {2, 3, 4},
   {15, 5, 7},
   {25, 21, 23},
   {18, 13, 6},
   {9, 18, 11},
   {8, 11, 14},
   {16, 10, 23},
   {9, 17, 22},
   {16, 19, 29},
   {18, 12, 22},
   {16, 17, 22},
   {25, 13, 14},
   {27, 19},
   {24, 19},
   {27, 20, 30},
   {20},
   {24, 28, 23},
   {24, 21},
   {20, 30},
   {28, 21},
   {31},
   {25, 26},
   {26},
   {26, 27, 29},
   {28, 29},
   {30},
   {31},
   {31},
   {32},
   {32},
   {32},
   {  } ];

deadline = array2d(1..32, 1..3, [1, 3, 1, 2, 1, 0, 2, 0, 0, 10, 5, 4, 11, 0, 5, 11, 5, 5, 17, 2, 4, 35, 1, 0, 36, 1, 1, 37, 1, 1, 38, 1, 0, 43, 2, 0, 44, 5, 2, 45, 0, 3, 45, 4, 3, 49, 0, 2, 55, 5, 5, 58, 0, 1, 58, 1, 1, 78, 3, 4, 81, 1, 3, 82, 3, 2, 88, 2, 0, 92, 2, 3, 107, 3, 3, 110, 1, 1, 111, 5, 1, 116, 5, 1, 119, 1, 5, 123, 0, 1, 137, 2, 0, 141, 5, 1]);
