n_res = 4;
rc = [ 12, 13, 4, 12 ];
n_tasks = 32;
d = [0, 8, 4, 6, 3, 8, 5, 9, 2, 7, 9, 2, 6, 3, 9, 10, 6, 5, 3, 7, 2, 7, 2, 3, 3, 7, 8, 3, 7, 2, 2, 0];
rr = array2d(1..4, 1..32, [0, 4, 10, 0, 3, 0, 4, 0, 6, 0, 0, 0, 4, 0, 3, 0, 0, 0, 0, 0, 0, 2, 3, 0, 4, 0, 0, 0, 0, 0, 0, 0, 0, 0, 0, 0, 0, 0, 0, 1, 0, 0, 5, 7, 0, 8, 0, 0, 0, 0, 1, 10, 0, 0, 0, 9, 0, 0, 0, 8, 7, 7, 0, 0, 0, 0, 0, 0, 0, 0, 0, 0, 0, 0, 0, 0, 0, 0, 0, 0, 0, 0, 0, 0, 0, 0, 0, 0, 0, 4, 0, 0, 0, 0, 2, 0, 0, 0, 0, 3, 0, 8, 0, 0, 0, 1, 0, 0, 0, 0, 0, 5, 8, 7, 0, 0, 6, 0, 0, 0, 0, 0, 7, 0, 0, 0, 0, 0]);

suc = [
   {2, 3, 4},
   {11, 6, 15},
   {8, 13, 7},
   {9, 10, 5},
   {20},
   {30},
   {27},
   {27, 19, 12},
   {14},
   {16, 25},
   {26, 20},
   {14},
   {17, 18},
   {17},
   {25},
   {21, 22},
   {22},
   {20, 22},
   {24, 29},
   {25, 23},
   {28},
   {23},
   {24},
   {30},
   {30},
   {31},
   {28},
   {31},
   {32},
   {32},
   {32},
   {  } ];

deadline = array2d(1..32, 1..3, [5, 1, 0, 5, 4, 2, 6, 1, 5, 10, 3, 4, 13, 0, 3, 16, 4, 4, 17, 3, 1, 18, 3, 5, 26, 0, 3, 30, 3, 0, 34, 2, 5, 47, 2, 4, 49, 5, 1, 53, 3, 0, 54, 5, 2, 54, 2, 2, 56, 2, 4, 56, 2, 4, 56, 4, 4, 60, 5, 3, 65, 3, 0, 67, 1, 5, 68, 1, 3, 68, 3, 3, 69, 0, 5, 70, 1, 1, 73, 1, 3, 74, 3, 1, 78, 0, 5, 83, 1, 3, 90, 0, 0, 95, 4, 0]);
