n_res = 4;
rc = [ 13, 17, 19, 14 ];
n_tasks = 32;
d = [0, 10, 8, 8, 4, 3, 3, 2, 2, 4, 10, 9, 10, 9, 10, 5, 2, 2, 3, 3, 5, 2, 7, 7, 4, 7, 6, 5, 3, 8, 5, 0];
rr = array2d(1..4, 1..32, [0, 8, 6, 7, 7, 6, 0, 8, 8, 0, 0, 0, 3, 4, 0, 6, 9, 1, 7, 7, 4, 4, 0, 1, 0, 6, 1, 7, 0, 4, 9, 0, 0, 0, 3, 3, 1, 2, 1, 3, 2, 8, 1, 4, 0, 6, 10, 0, 0, 10, 5, 6, 8, 7, 9, 10, 4, 0, 8, 4, 7, 0, 5, 0, 0, 4, 0, 3, 6, 0, 0, 5, 1, 10, 10, 5, 4, 9, 7, 5, 8, 4, 3, 4, 9, 9, 0, 10, 7, 1, 8, 8, 10, 6, 0, 0, 0, 4, 7, 8, 10, 10, 3, 8, 2, 0, 0, 0, 8, 3, 0, 0, 0, 9, 0, 9, 0, 8, 6, 0, 9, 1, 10, 0, 9, 1, 1, 0]);

suc = [
   {2, 3, 4},
   {17, 5, 25},
   {9, 10, 6},
   {17},
   {29, 7},
   {8, 11, 15},
   {13},
   {27},
   {18, 21, 30},
   {19, 12, 14},
   {22},
   {16, 22},
   {24, 31},
   {25, 27},
   {19},
   {20},
   {18},
   {31},
   {22},
   {23},
   {26},
   {28},
   {26},
   {27},
   {26, 29},
   {31},
   {30},
   {30},
   {32},
   {32},
   {32},
   {  } ];

deadline = array2d(1..32, 1..3, [11, 4, 5, 13, 2, 2, 17, 5, 5, 19, 4, 2, 22, 4, 3, 29, 1, 0, 32, 2, 1, 33, 3, 3, 33, 3, 5, 35, 1, 3, 37, 0, 1, 42, 5, 0, 43, 2, 1, 43, 4, 5, 50, 3, 0, 55, 4, 2, 60, 1, 3, 62, 0, 3, 68, 0, 4, 76, 3, 0, 77, 1, 3, 80, 1, 0, 82, 5, 5, 83, 5, 0, 90, 3, 5, 96, 5, 0, 99, 2, 3, 100, 0, 2, 102, 3, 1, 102, 2, 2, 108, 2, 2, 116, 5, 3]);
