n_res = 4;
rc = [ 18, 32, 18, 10 ];
n_tasks = 32;
d = [0, 6, 2, 8, 2, 6, 4, 5, 3, 10, 2, 7, 4, 3, 9, 3, 6, 1, 3, 6, 1, 10, 3, 6, 5, 10, 6, 8, 10, 8, 10, 0];
rr = array2d(1..4, 1..32, [0, 2, 9, 2, 0, 4, 1, 0, 9, 0, 1, 1, 0, 6, 0, 0, 0, 8, 2, 0, 0, 10, 0, 0, 2, 0, 0, 3, 9, 3, 0, 0, 0, 0, 0, 3, 8, 5, 0, 0, 10, 0, 8, 0, 0, 0, 10, 8, 7, 0, 0, 1, 8, 3, 0, 0, 0, 4, 2, 10, 6, 7, 0, 0, 0, 10, 3, 0, 0, 0, 7, 0, 5, 2, 1, 1, 3, 8, 2, 4, 0, 0, 0, 0, 0, 0, 5, 0, 3, 6, 4, 4, 3, 2, 0, 0, 0, 0, 2, 0, 0, 1, 0, 4, 2, 0, 0, 0, 3, 0, 7, 0, 0, 0, 6, 0, 2, 0, 9, 2, 0, 0, 0, 0, 0, 0, 4, 0]);

suc = [
   {2, 3, 4},
   {28, 6},
   {17},
   {8, 9, 5},
   {11, 21},
   {15, 7},
   {10, 20},
   {19, 12},
   {25, 30},
   {16, 18},
   {14},
   {13},
   {18, 26},
   {18, 29},
   {19},
   {24},
   {26},
   {30},
   {23},
   {25, 23},
   {22, 23},
   {25, 29},
   {30},
   {26, 27},
   {27},
   {31},
   {31},
   {29},
   {32},
   {32},
   {32},
   {  } ];

deadline = array2d(1..32, 1..3, [6, 5, 4, 6, 5, 1, 6, 3, 3, 12, 4, 0, 12, 0, 5, 16, 5, 5, 17, 1, 0, 18, 2, 0, 20, 5, 1, 23, 3, 5, 23, 5, 1, 27, 3, 4, 28, 0, 1, 30, 0, 4, 34, 3, 2, 40, 2, 1, 42, 2, 1, 48, 3, 5, 61, 2, 1, 76, 1, 3, 79, 4, 5, 81, 1, 4, 82, 2, 3, 83, 5, 5, 85, 0, 5, 86, 0, 0, 91, 4, 2, 96, 2, 4, 108, 3, 3, 109, 2, 0, 122, 1, 1, 124, 1, 4]);
