n_res = 4;
rc = [ 32, 33, 31, 34 ];
n_tasks = 32;
d = [0, 4, 5, 3, 6, 6, 1, 1, 10, 5, 6, 5, 3, 9, 9, 7, 9, 6, 2, 4, 1, 4, 9, 9, 4, 3, 6, 8, 4, 2, 1, 0];
rr = array2d(1..4, 1..32, [0, 5, 8, 6, 8, 5, 7, 4, 8, 4, 2, 3, 6, 1, 6, 6, 3, 1, 4, 4, 5, 10, 3, 2, 2, 9, 5, 1, 2, 6, 9, 0, 0, 6, 7, 9, 2, 6, 5, 9, 4, 6, 10, 1, 10, 6, 9, 1, 2, 9, 3, 6, 2, 7, 1, 7, 2, 5, 6, 9, 7, 9, 6, 0, 0, 7, 6, 4, 10, 4, 10, 8, 1, 6, 1, 9, 3, 8, 3, 10, 5, 1, 8, 2, 9, 1, 3, 10, 5, 2, 9, 7, 10, 4, 7, 0, 0, 7, 10, 6, 4, 10, 6, 9, 7, 5, 9, 4, 7, 7, 6, 8, 6, 10, 10, 7, 5, 1, 4, 4, 9, 7, 9, 3, 8, 5, 9, 0]);

suc = [
   {2, 3, 4},
   {10, 12, 20},
   {16, 6, 22},
   {5, 6},
   {9, 19, 12},
   {10, 11, 7},
   {8, 17, 20},
   {18, 27, 15},
   {16, 20, 22},
   {25, 13, 15},
   {24, 13, 23},
   {16, 24, 13},
   {17, 29, 14},
   {27, 30},
   {31, 29, 23},
   {17, 18, 28},
   {26, 21, 30},
   {25},
   {21, 22},
   {21, 23},
   {27},
   {24, 25, 28},
   {28},
   {26},
   {26, 29},
   {31},
   {31},
   {30},
   {32},
   {32},
   {32},
   {  } ];

deadline = array2d(1..32, 1..3, [1, 1, 3, 1, 5, 1, 3, 2, 4, 9, 1, 2, 18, 5, 5, 31, 5, 5, 41, 5, 1, 47, 5, 1, 52, 2, 5, 54, 0, 3, 60, 0, 1, 61, 5, 0, 67, 5, 2, 74, 2, 0, 75, 4, 3, 87, 2, 4, 89, 5, 3, 89, 4, 0, 92, 5, 5, 92, 3, 3, 94, 1, 4, 95, 4, 5, 97, 5, 0, 97, 2, 1, 97, 1, 1, 97, 4, 5, 98, 2, 0, 98, 4, 0, 98, 0, 4, 103, 2, 1, 107, 0, 1, 110, 4, 4]);
