n_res = 4;
rc = [ 17, 19, 19, 18 ];
n_tasks = 62;
d = [0, 9, 8, 10, 6, 10, 9, 1, 10, 2, 3, 3, 5, 6, 5, 8, 5, 2, 4, 7, 5, 10, 1, 6, 4, 2, 6, 4, 1, 7, 5, 4, 2, 10, 4, 10, 3, 5, 3, 8, 3, 1, 1, 5, 7, 2, 7, 5, 6, 6, 1, 1, 5, 2, 4, 3, 5, 1, 3, 2, 1, 0];
rr = array2d(1..4, 1..62, [0, 0, 5, 8, 4, 1, 3, 4, 4, 0, 5, 5, 4, 4, 8, 0, 9, 1, 9, 1, 1, 4, 0, 9, 3, 10, 6, 0, 9, 8, 0, 4, 10, 9, 2, 0, 7, 5, 0, 0, 4, 10, 9, 6, 0, 2, 0, 8, 8, 4, 10, 10, 8, 0, 9, 0, 5, 9, 8, 6, 6, 0, 0, 10, 10, 4, 3, 9, 2, 0, 0, 1, 1, 9, 9, 10, 6, 2, 4, 4, 9, 1, 0, 0, 10, 6, 3, 0, 1, 10, 8, 0, 9, 3, 9, 0, 10, 1, 8, 0, 2, 2, 9, 8, 0, 0, 4, 2, 7, 6, 0, 7, 2, 0, 0, 0, 0, 3, 0, 9, 3, 1, 5, 0, 0, 0, 0, 7, 0, 1, 1, 8, 3, 6, 0, 6, 0, 5, 10, 2, 8, 4, 5, 0, 0, 4, 1, 4, 4, 3, 0, 7, 7, 1, 10, 1, 4, 8, 2, 10, 7, 7, 10, 9, 0, 6, 4, 2, 1, 4, 0, 9, 5, 0, 1, 8, 0, 2, 10, 0, 9, 3, 7, 1, 9, 0, 0, 5, 6, 7, 8, 8, 0, 6, 1, 3, 3, 2, 3, 0, 2, 0, 4, 5, 0, 4, 0, 0, 5, 8, 2, 8, 0, 0, 1, 10, 10, 2, 0, 10, 10, 8, 6, 0, 9, 0, 0, 6, 10, 8, 8, 0, 0, 2, 0, 8, 7, 8, 2, 2, 3, 4, 0, 8, 4, 0, 9, 0]);

suc = [
   {2, 3, 4},
   {17},
   {9, 12, 5},
   {8, 27, 29},
   {24, 6, 7},
   {10, 11, 61},
   {41, 35, 13},
   {16, 33},
   {22},
   {42},
   {19},
   {17, 54, 15},
   {18, 26, 14},
   {51, 60, 46},
   {48, 23},
   {48},
   {28, 20, 21},
   {56, 42, 47},
   {34},
   {40, 36},
   {25, 37, 30},
   {31},
   {39},
   {25},
   {32, 31},
   {42},
   {56},
   {47},
   {40, 55},
   {50, 52},
   {39},
   {58},
   {54},
   {41},
   {43},
   {41},
   {38},
   {50},
   {59},
   {44},
   {53, 44, 45},
   {46},
   {57},
   {57},
   {48},
   {52},
   {55},
   {49},
   {51},
   {60},
   {55},
   {57},
   {56},
   {61},
   {58},
   {60},
   {59},
   {59},
   {62},
   {62},
   {62},
   {  } ];

deadline = array2d(1..62, 1..3, [5, 0, 5, 7, 5, 0, 14, 5, 2, 22, 4, 2, 22, 1, 5, 24, 3, 0, 30, 3, 4, 40, 4, 5, 42, 0, 0, 47, 0, 2, 47, 0, 4, 47, 0, 5, 49, 5, 3, 50, 1, 3, 52, 3, 4, 53, 5, 1, 56, 4, 3, 56, 5, 3, 60, 2, 3, 62, 3, 3, 62, 0, 1, 62, 3, 3, 64, 3, 2, 65, 4, 4, 69, 1, 3, 69, 3, 1, 73, 4, 1, 77, 2, 3, 81, 0, 3, 81, 3, 3, 81, 2, 1, 83, 0, 0, 84, 3, 5, 84, 1, 0, 88, 0, 2, 90, 5, 1, 93, 5, 5, 103, 2, 5, 105, 1, 5, 107, 2, 5, 109, 1, 0, 113, 5, 0, 117, 0, 4, 118, 5, 5, 118, 2, 2, 121, 5, 0, 124, 5, 1, 125, 0, 5, 129, 1, 4, 129, 4, 3, 132, 0, 5, 135, 0, 4, 136, 2, 5, 136, 3, 2, 137, 1, 4, 141, 2, 3, 144, 0, 4, 146, 2, 2, 168, 2, 5, 170, 4, 2, 173, 1, 3, 176, 2, 3]);
