n_res = 4;
rc = [ 15, 15, 15, 15 ];
n_tasks = 62;
d = [0, 3, 10, 8, 9, 8, 10, 7, 1, 5, 6, 9, 7, 5, 7, 1, 5, 2, 5, 10, 9, 7, 5, 5, 5, 7, 6, 7, 1, 6, 5, 4, 6, 5, 9, 2, 2, 4, 10, 6, 5, 10, 3, 6, 9, 1, 9, 2, 7, 8, 4, 4, 9, 2, 4, 8, 2, 1, 5, 9, 9, 0];
rr = array2d(1..4, 1..62, [0, 0, 0, 6, 2, 0, 4, 7, 6, 10, 0, 9, 0, 2, 6, 10, 0, 0, 0, 1, 6, 8, 0, 0, 0, 8, 0, 0, 0, 8, 7, 4, 0, 10, 6, 0, 1, 0, 6, 0, 0, 7, 1, 1, 0, 0, 8, 9, 0, 0, 8, 3, 6, 1, 9, 0, 0, 0, 7, 0, 5, 0, 0, 3, 0, 0, 4, 0, 0, 0, 3, 6, 5, 0, 9, 6, 0, 2, 2, 0, 0, 0, 3, 0, 5, 10, 0, 0, 0, 10, 4, 0, 2, 1, 0, 8, 5, 0, 0, 5, 9, 0, 10, 3, 0, 0, 5, 1, 10, 10, 9, 0, 7, 0, 0, 6, 0, 1, 4, 0, 0, 0, 0, 0, 0, 0, 1, 1, 3, 1, 7, 8, 0, 0, 0, 2, 9, 4, 6, 0, 0, 1, 2, 6, 0, 0, 0, 3, 1, 0, 9, 0, 0, 0, 0, 5, 0, 0, 0, 0, 6, 0, 0, 0, 1, 5, 10, 0, 0, 0, 0, 5, 0, 0, 4, 5, 0, 10, 0, 0, 4, 0, 4, 6, 0, 0, 0, 0, 0, 0, 0, 7, 0, 10, 5, 0, 0, 8, 0, 0, 5, 0, 0, 7, 0, 0, 2, 0, 7, 6, 6, 0, 0, 5, 0, 2, 0, 0, 5, 5, 0, 1, 8, 3, 0, 1, 3, 0, 0, 8, 3, 4, 8, 0, 0, 6, 0, 0, 5, 0, 10, 9, 6, 3, 0, 0, 0, 0]);

suc = [
   {2, 3, 4},
   {20, 5, 7},
   {8, 10, 13},
   {56, 42, 14},
   {16, 38, 6},
   {17, 29, 31},
   {9, 55, 23},
   {26, 12, 21},
   {16, 11, 22},
   {45, 15},
   {50, 35, 36},
   {24, 37},
   {27, 19},
   {26, 54, 39},
   {27, 28, 29},
   {58, 28, 37},
   {32, 18, 43},
   {36, 45, 30},
   {48, 34, 35},
   {25, 26, 35},
   {27, 52},
   {44, 53, 31},
   {24, 37, 38},
   {57, 54, 31},
   {38, 33, 30},
   {32, 43},
   {40, 30},
   {49, 50, 39},
   {43, 36, 47},
   {42, 44},
   {41},
   {40, 34, 53},
   {56, 49, 34},
   {44, 55},
   {41, 52, 49},
   {52},
   {40, 47, 39},
   {41, 51},
   {48, 46},
   {48, 50, 46},
   {45, 46},
   {55},
   {51},
   {47},
   {59},
   {61},
   {61},
   {57},
   {53},
   {59, 51},
   {57, 61},
   {56, 54},
   {60},
   {58},
   {58},
   {59},
   {60},
   {60},
   {62},
   {62},
   {62},
   {  } ];

deadline = array2d(1..62, 1..3, [1, 0, 1, 5, 4, 2, 7, 1, 0, 8, 0, 2, 9, 5, 3, 20, 5, 2, 21, 1, 1, 23, 2, 4, 24, 0, 0, 26, 5, 3, 30, 4, 5, 36, 0, 0, 37, 2, 0, 37, 2, 3, 38, 5, 1, 47, 2, 4, 48, 3, 3, 52, 1, 4, 52, 4, 3, 53, 3, 3, 54, 2, 4, 55, 5, 5, 55, 3, 0, 55, 5, 5, 55, 5, 4, 56, 4, 4, 60, 2, 0, 61, 2, 3, 61, 1, 3, 66, 5, 2, 67, 3, 1, 72, 0, 1, 78, 4, 5, 81, 2, 5, 82, 0, 5, 83, 2, 0, 83, 0, 1, 86, 5, 3, 87, 4, 3, 99, 3, 1, 103, 2, 1, 103, 1, 0, 104, 5, 3, 106, 2, 1, 109, 1, 4, 117, 0, 4, 118, 0, 2, 120, 2, 2, 122, 5, 5, 122, 3, 3, 131, 0, 1, 133, 0, 0, 134, 0, 5, 134, 5, 3, 135, 0, 0, 135, 2, 1, 137, 1, 5, 139, 0, 2, 148, 3, 0, 151, 0, 5, 152, 1, 1, 154, 4, 3]);
