n_res = 4;
rc = [ 37, 24, 30, 41 ];
n_tasks = 62;
d = [0, 7, 10, 4, 6, 3, 10, 3, 8, 7, 2, 6, 9, 7, 5, 8, 2, 3, 7, 9, 8, 6, 8, 5, 9, 8, 6, 5, 10, 7, 9, 6, 6, 7, 9, 3, 5, 8, 2, 1, 9, 4, 6, 10, 7, 9, 5, 7, 9, 8, 5, 4, 4, 10, 2, 9, 2, 1, 7, 8, 5, 0];
rr = array2d(1..4, 1..62, [0, 10, 3, 6, 2, 0, 0, 0, 0, 3, 8, 0, 7, 0, 0, 0, 8, 10, 0, 10, 6, 0, 0, 0, 10, 5, 0, 1, 9, 9, 0, 0, 7, 8, 0, 3, 8, 5, 0, 0, 0, 0, 4, 0, 0, 0, 6, 0, 0, 0, 10, 5, 8, 9, 0, 0, 6, 7, 0, 5, 0, 0, 0, 0, 0, 0, 5, 0, 0, 6, 0, 0, 9, 1, 0, 0, 0, 5, 1, 8, 5, 3, 0, 0, 0, 4, 0, 0, 0, 0, 0, 5, 0, 5, 0, 6, 7, 0, 8, 5, 10, 0, 0, 0, 0, 1, 0, 10, 4, 7, 0, 7, 0, 4, 0, 0, 0, 0, 6, 0, 0, 10, 0, 0, 0, 3, 4, 7, 0, 7, 9, 0, 3, 0, 0, 0, 2, 0, 0, 0, 0, 0, 7, 0, 8, 8, 0, 0, 6, 8, 7, 5, 3, 7, 6, 0, 0, 0, 2, 9, 0, 2, 3, 8, 6, 7, 0, 8, 4, 0, 0, 3, 8, 0, 0, 3, 0, 0, 0, 0, 7, 0, 5, 0, 5, 0, 0, 0, 0, 1, 9, 4, 9, 0, 9, 0, 0, 3, 8, 7, 1, 0, 0, 1, 0, 0, 5, 0, 8, 6, 0, 3, 7, 0, 10, 3, 0, 0, 8, 0, 9, 4, 0, 0, 8, 2, 0, 4, 2, 9, 0, 6, 0, 5, 0, 9, 6, 0, 0, 0, 2, 7, 8, 5, 7, 0, 0, 0]);

suc = [
   {2, 3, 4},
   {8, 10, 13},
   {9, 14, 7},
   {9, 5, 6},
   {10, 37},
   {21, 12, 13},
   {10, 28, 15},
   {24, 14},
   {24, 43, 53},
   {16, 11, 30},
   {17, 57, 33},
   {25, 19, 33},
   {20, 22},
   {25, 18, 15},
   {52, 30},
   {27, 34, 19},
   {40, 48, 56},
   {37, 38, 23},
   {26, 38},
   {34, 29, 38},
   {27, 44},
   {32, 23},
   {51, 50, 43},
   {27, 30},
   {41, 39},
   {56, 36},
   {42, 31},
   {42, 51, 47},
   {35, 45},
   {59, 47, 39},
   {39},
   {41, 35, 43},
   {41, 46},
   {36, 45, 46},
   {36, 37},
   {40, 49, 54},
   {50, 47},
   {40, 42, 48},
   {60, 46},
   {55},
   {48, 44},
   {57, 52},
   {54},
   {56, 45},
   {49, 51},
   {61},
   {54},
   {49, 52, 53},
   {50, 61},
   {58},
   {53},
   {59, 55},
   {58, 55},
   {57, 61},
   {60},
   {58},
   {60},
   {59},
   {62},
   {62},
   {62},
   {  } ];

deadline = array2d(1..62, 1..3, [6, 4, 0, 7, 1, 4, 9, 5, 3, 10, 2, 5, 14, 3, 0, 14, 1, 3, 19, 0, 5, 22, 3, 1, 26, 2, 1, 31, 3, 1, 33, 4, 2, 38, 3, 0, 43, 4, 0, 46, 4, 2, 48, 3, 2, 51, 0, 5, 52, 2, 2, 56, 0, 4, 63, 3, 3, 67, 4, 4, 70, 5, 5, 72, 3, 0, 72, 4, 3, 76, 1, 5, 80, 0, 3, 84, 2, 5, 87, 0, 0, 88, 2, 0, 88, 4, 2, 89, 5, 1, 93, 0, 2, 107, 0, 2, 108, 0, 2, 109, 2, 1, 125, 5, 5, 132, 3, 2, 134, 0, 1, 135, 5, 4, 137, 1, 2, 141, 1, 5, 142, 0, 4, 145, 5, 3, 160, 5, 3, 164, 4, 5, 178, 4, 5, 178, 2, 0, 180, 4, 2, 187, 3, 0, 189, 2, 3, 189, 1, 2, 190, 3, 0, 190, 4, 0, 192, 0, 2, 194, 1, 1, 195, 0, 0, 203, 1, 5, 205, 2, 1, 205, 0, 0, 206, 1, 2, 207, 3, 1, 209, 2, 2, 215, 0, 3]);
