n_res = 4;
rc = [ 21, 27, 24, 26 ];
n_tasks = 62;
d = [0, 2, 6, 8, 2, 4, 2, 4, 5, 10, 3, 8, 8, 3, 10, 10, 4, 2, 9, 3, 8, 3, 5, 5, 6, 6, 8, 6, 10, 10, 7, 3, 2, 8, 7, 6, 10, 8, 10, 2, 3, 4, 5, 10, 6, 7, 4, 7, 2, 4, 2, 2, 4, 1, 2, 10, 7, 4, 3, 5, 6, 0];
rr = array2d(1..4, 1..62, [0, 4, 1, 9, 4, 10, 2, 3, 9, 2, 2, 9, 1, 4, 6, 10, 3, 1, 3, 2, 1, 5, 3, 5, 9, 6, 1, 3, 4, 1, 1, 7, 3, 7, 10, 5, 8, 4, 4, 9, 6, 6, 6, 8, 6, 2, 7, 5, 9, 8, 8, 1, 1, 8, 6, 6, 8, 8, 9, 2, 6, 0, 0, 10, 10, 1, 9, 8, 6, 1, 8, 4, 2, 9, 7, 1, 9, 8, 9, 7, 8, 2, 3, 7, 5, 9, 4, 7, 1, 2, 8, 8, 5, 4, 8, 6, 3, 3, 8, 2, 4, 7, 3, 2, 7, 3, 10, 1, 10, 1, 10, 5, 3, 10, 8, 5, 8, 1, 4, 7, 10, 4, 9, 0, 0, 1, 9, 7, 8, 3, 3, 9, 2, 8, 6, 10, 8, 1, 1, 4, 9, 4, 1, 8, 7, 1, 10, 6, 4, 2, 4, 1, 7, 4, 2, 8, 8, 9, 3, 7, 2, 8, 9, 3, 8, 7, 8, 10, 2, 8, 1, 8, 2, 2, 1, 9, 3, 9, 10, 5, 5, 10, 9, 3, 8, 0, 0, 9, 7, 6, 8, 1, 1, 7, 7, 3, 3, 2, 8, 5, 1, 3, 3, 6, 10, 9, 10, 10, 6, 1, 2, 1, 4, 6, 7, 5, 10, 7, 1, 5, 1, 7, 10, 6, 7, 9, 5, 2, 5, 8, 7, 8, 9, 4, 2, 5, 1, 7, 5, 1, 4, 3, 7, 8, 2, 7, 5, 0]);

suc = [
   {2, 3, 4},
   {9, 11, 5},
   {35, 6, 7},
   {8, 32},
   {16, 10, 23},
   {31},
   {53},
   {19, 52, 21},
   {29, 23},
   {17, 12, 20},
   {25, 36, 13},
   {45, 14},
   {58},
   {40, 15},
   {48, 29, 22},
   {24, 18, 26},
   {32},
   {33},
   {54},
   {28, 31},
   {27},
   {58},
   {34, 53, 30},
   {57},
   {50, 39},
   {47},
   {29},
   {41},
   {43},
   {46},
   {41},
   {44},
   {60, 38},
   {42, 54},
   {37},
   {57},
   {41, 42},
   {40},
   {58},
   {49},
   {57, 44},
   {51},
   {51},
   {59},
   {48},
   {56},
   {56, 49},
   {55},
   {51},
   {60, 53},
   {55},
   {60},
   {55},
   {61},
   {59},
   {59},
   {61},
   {61},
   {62},
   {62},
   {62},
   {  } ];

deadline = array2d(1..62, 1..3, [1, 2, 4, 1, 3, 5, 2, 4, 1, 4, 3, 3, 4, 0, 1, 7, 4, 0, 11, 2, 2, 12, 4, 0, 15, 0, 2, 18, 0, 2, 20, 1, 5, 20, 2, 4, 21, 0, 0, 22, 3, 2, 23, 2, 4, 25, 3, 5, 25, 4, 0, 25, 1, 5, 26, 4, 3, 26, 5, 4, 27, 3, 2, 30, 1, 5, 30, 2, 0, 48, 0, 3, 51, 4, 0, 55, 3, 4, 55, 0, 3, 56, 5, 1, 61, 2, 5, 62, 1, 1, 63, 2, 3, 66, 4, 4, 68, 3, 5, 71, 5, 0, 73, 2, 1, 76, 1, 5, 76, 2, 4, 79, 3, 0, 79, 5, 2, 80, 3, 5, 81, 4, 0, 82, 3, 5, 82, 4, 5, 84, 4, 4, 89, 4, 1, 92, 4, 1, 93, 3, 5, 95, 1, 3, 95, 2, 3, 96, 2, 4, 100, 4, 1, 112, 0, 3, 112, 0, 1, 113, 4, 4, 114, 5, 4, 118, 3, 5, 121, 0, 1, 122, 5, 3, 123, 3, 0, 125, 2, 1, 136, 4, 3, 141, 2, 1]);
