n_res = 4;
rc = [ 35, 32, 36, 27 ];
n_tasks = 62;
d = [0, 7, 4, 2, 2, 8, 5, 4, 10, 1, 9, 9, 2, 6, 7, 5, 3, 7, 1, 4, 2, 3, 6, 8, 5, 3, 5, 5, 9, 5, 1, 2, 6, 1, 4, 9, 5, 6, 5, 4, 4, 4, 2, 4, 9, 6, 3, 10, 10, 6, 2, 5, 3, 2, 2, 1, 1, 7, 9, 4, 8, 0];
rr = array2d(1..4, 1..62, [0, 8, 5, 3, 0, 4, 3, 1, 3, 6, 6, 7, 7, 5, 6, 3, 2, 10, 0, 2, 0, 9, 0, 4, 0, 6, 2, 8, 7, 10, 0, 2, 0, 0, 3, 2, 0, 0, 3, 2, 3, 8, 2, 0, 2, 7, 8, 0, 0, 0, 8, 9, 0, 10, 0, 5, 0, 1, 10, 4, 8, 0, 0, 0, 5, 3, 8, 1, 5, 4, 0, 2, 1, 0, 0, 6, 6, 3, 9, 10, 8, 4, 6, 0, 0, 0, 0, 8, 2, 3, 8, 3, 10, 8, 4, 0, 0, 5, 1, 1, 0, 4, 7, 0, 0, 2, 7, 5, 10, 6, 10, 0, 2, 5, 4, 8, 9, 5, 8, 10, 0, 10, 9, 0, 0, 0, 1, 8, 1, 7, 8, 5, 10, 6, 4, 1, 9, 10, 10, 6, 1, 10, 4, 0, 0, 9, 10, 8, 0, 0, 7, 0, 0, 6, 8, 8, 6, 6, 2, 1, 6, 1, 9, 5, 10, 5, 0, 10, 5, 9, 0, 1, 4, 6, 0, 9, 5, 0, 1, 9, 1, 7, 9, 8, 9, 0, 0, 10, 1, 1, 6, 6, 1, 4, 3, 3, 7, 3, 2, 0, 0, 4, 9, 7, 2, 8, 10, 7, 0, 0, 6, 0, 0, 6, 4, 4, 5, 9, 6, 8, 3, 5, 5, 8, 5, 0, 10, 0, 9, 6, 0, 8, 10, 10, 0, 0, 0, 0, 0, 0, 3, 7, 5, 0, 7, 1, 9, 0]);

suc = [
   {2, 3, 4},
   {40, 21, 14},
   {12, 5},
   {17, 6, 7},
   {8, 54, 46},
   {33, 10, 20},
   {9, 61},
   {11, 28},
   {58, 45, 13},
   {35, 15},
   {17, 18},
   {25, 42, 31},
   {19},
   {16, 41, 38},
   {43, 39},
   {59, 37, 47},
   {55},
   {24, 22},
   {32, 40, 28},
   {34, 50},
   {26, 53, 23},
   {56, 61},
   {27, 29, 39},
   {36, 38},
   {30},
   {51, 29},
   {42, 36},
   {57, 43},
   {32, 48},
   {53, 36, 37},
   {33},
   {35, 52},
   {38},
   {42, 45},
   {50, 55},
   {52},
   {48, 60},
   {49, 50},
   {49},
   {54},
   {43, 44, 45},
   {48, 54, 47},
   {53},
   {46},
   {52},
   {51, 47},
   {49},
   {61},
   {58},
   {56},
   {58},
   {57},
   {59},
   {55},
   {56},
   {57, 59},
   {60},
   {60},
   {62},
   {62},
   {62},
   {  } ];

deadline = array2d(1..62, 1..3, [3, 1, 3, 9, 1, 4, 15, 5, 4, 19, 4, 3, 20, 3, 3, 21, 1, 5, 23, 2, 1, 23, 1, 4, 25, 0, 2, 28, 3, 2, 29, 4, 4, 34, 2, 2, 36, 3, 5, 36, 4, 0, 42, 0, 5, 47, 2, 1, 50, 4, 1, 55, 1, 3, 62, 2, 5, 64, 1, 3, 66, 2, 3, 71, 5, 3, 75, 4, 5, 77, 5, 1, 81, 2, 3, 87, 2, 0, 87, 0, 5, 91, 0, 3, 97, 3, 2, 100, 2, 3, 100, 2, 3, 100, 2, 1, 106, 4, 2, 107, 1, 5, 107, 4, 5, 108, 0, 1, 110, 5, 5, 112, 2, 2, 112, 2, 3, 113, 4, 4, 117, 2, 4, 117, 3, 4, 121, 5, 5, 122, 2, 0, 123, 4, 0, 124, 4, 1, 124, 3, 5, 125, 4, 5, 126, 4, 4, 126, 4, 4, 127, 1, 0, 127, 0, 1, 128, 3, 2, 128, 1, 5, 130, 1, 1, 135, 2, 5, 136, 0, 3, 139, 3, 4, 142, 0, 0, 147, 0, 4, 147, 5, 3, 151, 2, 1]);
