n_res = 4;
rc = [ 36, 23, 17, 19 ];
n_tasks = 62;
d = [0, 1, 4, 8, 2, 1, 1, 9, 8, 8, 1, 8, 2, 6, 9, 4, 2, 1, 4, 3, 4, 2, 5, 6, 2, 5, 1, 10, 10, 4, 6, 10, 9, 8, 10, 6, 1, 10, 5, 8, 3, 8, 8, 5, 8, 10, 5, 9, 9, 4, 2, 4, 9, 9, 5, 8, 10, 8, 2, 7, 1, 0];
rr = array2d(1..4, 1..62, [0, 8, 0, 0, 5, 0, 0, 0, 0, 10, 0, 0, 0, 0, 2, 8, 3, 0, 0, 9, 4, 10, 0, 7, 5, 0, 0, 0, 0, 0, 0, 4, 0, 0, 3, 0, 0, 0, 7, 2, 0, 0, 0, 0, 0, 5, 0, 6, 9, 0, 0, 0, 3, 0, 0, 10, 3, 0, 0, 0, 3, 0, 0, 0, 5, 0, 0, 3, 0, 0, 0, 0, 0, 0, 2, 0, 0, 0, 0, 0, 0, 0, 0, 0, 1, 0, 0, 7, 0, 0, 0, 0, 0, 0, 5, 0, 0, 0, 1, 10, 0, 0, 0, 0, 0, 6, 10, 0, 8, 0, 0, 0, 0, 0, 0, 10, 0, 0, 0, 0, 0, 9, 0, 0, 0, 0, 0, 0, 0, 0, 5, 0, 0, 0, 9, 0, 0, 7, 0, 0, 0, 0, 10, 0, 0, 0, 0, 0, 0, 0, 1, 0, 0, 0, 6, 0, 0, 7, 0, 0, 0, 0, 0, 0, 0, 0, 7, 0, 0, 0, 0, 0, 0, 9, 6, 0, 0, 0, 6, 0, 0, 4, 0, 0, 0, 0, 0, 0, 0, 4, 0, 0, 0, 1, 8, 0, 0, 5, 0, 0, 0, 0, 0, 10, 0, 0, 0, 0, 0, 0, 0, 0, 0, 2, 7, 3, 0, 0, 0, 0, 0, 9, 0, 0, 0, 0, 5, 1, 0, 0, 0, 0, 0, 0, 0, 0, 0, 2, 0, 0, 0, 0, 0, 0, 1, 0, 0, 0]);

suc = [
   {2, 3, 4},
   {8, 6, 7},
   {16, 34, 44},
   {35, 5, 31},
   {32},
   {9, 10, 14},
   {36, 38},
   {42},
   {35, 11},
   {17, 50, 12},
   {21, 19, 13},
   {54, 15},
   {16, 27, 20},
   {18, 26, 46},
   {36},
   {30, 23},
   {46, 31},
   {24, 25, 51},
   {43, 46, 31},
   {49, 51, 29},
   {38, 22},
   {33},
   {50, 54, 47},
   {36},
   {27, 37},
   {28, 37},
   {58, 45},
   {41, 42, 35},
   {33},
   {49},
   {39},
   {44, 45, 55},
   {39},
   {43},
   {50},
   {41, 57},
   {48},
   {49},
   {40, 41, 45},
   {42},
   {48, 59, 61},
   {44, 47},
   {51, 53, 55},
   {52},
   {48, 59},
   {54},
   {53},
   {60},
   {52, 60},
   {56, 52},
   {60},
   {57},
   {56, 59},
   {58},
   {56},
   {57},
   {58},
   {61},
   {62},
   {62},
   {62},
   {  } ];

deadline = array2d(1..62, 1..3, [3, 0, 0, 10, 0, 5, 11, 2, 0, 13, 1, 3, 21, 2, 5, 22, 3, 0, 22, 2, 1, 25, 1, 5, 26, 4, 3, 33, 0, 1, 35, 2, 4, 40, 2, 1, 43, 2, 3, 44, 3, 5, 47, 2, 1, 50, 1, 1, 51, 3, 2, 57, 3, 4, 58, 1, 0, 66, 4, 2, 66, 0, 4, 68, 1, 2, 84, 1, 2, 85, 0, 3, 88, 3, 2, 97, 1, 0, 102, 4, 5, 106, 0, 4, 111, 0, 3, 112, 5, 3, 112, 5, 2, 119, 3, 0, 121, 3, 3, 121, 5, 2, 123, 4, 1, 124, 4, 5, 130, 2, 3, 130, 0, 3, 133, 0, 2, 140, 2, 3, 140, 0, 3, 147, 2, 5, 148, 3, 2, 150, 4, 5, 157, 5, 3, 176, 2, 5, 176, 3, 1, 178, 2, 1, 179, 2, 3, 184, 3, 3, 185, 2, 5, 198, 2, 5, 211, 5, 5, 212, 4, 5, 213, 2, 2, 215, 3, 2, 218, 4, 3, 225, 0, 3, 232, 5, 0, 233, 4, 4, 235, 4, 5, 237, 1, 3]);
