n_res = 4;
rc = [ 33, 33, 38, 29 ];
n_tasks = 62;
d = [0, 5, 3, 7, 7, 2, 7, 7, 8, 9, 9, 2, 6, 6, 10, 8, 2, 9, 1, 7, 6, 10, 6, 10, 5, 5, 5, 3, 8, 6, 7, 2, 10, 6, 9, 9, 4, 6, 8, 8, 7, 7, 2, 6, 7, 7, 10, 2, 8, 6, 5, 10, 9, 4, 1, 3, 7, 7, 9, 10, 1, 0];
rr = array2d(1..4, 1..62, [0, 2, 4, 5, 4, 6, 2, 3, 6, 7, 5, 1, 5, 7, 5, 10, 2, 7, 6, 5, 4, 7, 8, 2, 9, 3, 7, 9, 6, 6, 6, 4, 4, 10, 4, 7, 4, 9, 3, 4, 5, 6, 10, 9, 4, 7, 4, 3, 6, 2, 4, 10, 7, 4, 4, 8, 3, 8, 3, 10, 4, 0, 0, 6, 1, 8, 1, 3, 2, 3, 10, 5, 2, 1, 3, 8, 2, 8, 2, 2, 7, 4, 5, 4, 10, 7, 9, 8, 2, 9, 10, 1, 2, 4, 5, 10, 5, 4, 4, 2, 7, 5, 2, 6, 2, 3, 6, 6, 4, 10, 9, 6, 5, 4, 4, 9, 3, 5, 6, 9, 1, 10, 3, 0, 0, 10, 7, 8, 1, 10, 2, 2, 8, 1, 7, 10, 9, 9, 10, 3, 9, 1, 6, 6, 10, 8, 9, 4, 3, 8, 6, 4, 10, 7, 10, 2, 8, 6, 10, 3, 8, 8, 10, 10, 7, 6, 10, 4, 6, 6, 4, 5, 2, 4, 2, 3, 6, 1, 1, 3, 6, 9, 8, 1, 1, 0, 0, 5, 1, 3, 9, 1, 7, 4, 3, 4, 2, 5, 4, 4, 9, 7, 10, 1, 4, 8, 6, 10, 5, 6, 9, 1, 9, 1, 10, 2, 1, 8, 2, 6, 3, 1, 2, 6, 1, 8, 3, 3, 9, 5, 7, 3, 7, 4, 6, 2, 7, 2, 1, 4, 2, 6, 9, 3, 9, 2, 2, 0]);

suc = [
   {2, 3, 4},
   {6, 7},
   {10, 5, 22},
   {18, 28, 29},
   {8, 11, 28},
   {37, 14, 31},
   {9, 34, 12},
   {27, 17, 19},
   {18, 13},
   {24, 30},
   {21},
   {16, 25, 15},
   {60, 29, 23},
   {54, 49, 38},
   {17, 47},
   {48, 49, 20},
   {49},
   {43, 58, 35},
   {58},
   {26, 42, 53},
   {24, 26},
   {61, 38},
   {33, 36},
   {25, 38},
   {46},
   {59, 39},
   {48, 42},
   {34, 43, 44},
   {32},
   {40},
   {32},
   {42, 53, 45},
   {56, 51},
   {37},
   {60},
   {41, 46},
   {40, 46},
   {45},
   {60},
   {47},
   {48, 50, 44},
   {47},
   {52, 54},
   {45},
   {57},
   {56, 50, 51},
   {52},
   {51, 53, 55},
   {55},
   {52},
   {61},
   {57},
   {57, 54},
   {59},
   {56},
   {58},
   {59},
   {61},
   {62},
   {62},
   {62},
   {  } ];

deadline = array2d(1..62, 1..3, [2, 3, 3, 5, 2, 1, 6, 1, 5, 9, 4, 5, 10, 5, 1, 12, 5, 5, 15, 5, 1, 21, 4, 2, 26, 2, 2, 27, 3, 5, 28, 3, 2, 30, 0, 0, 38, 0, 4, 39, 5, 2, 40, 5, 0, 42, 2, 0, 46, 5, 1, 47, 1, 2, 49, 3, 3, 54, 5, 4, 57, 1, 3, 57, 3, 3, 57, 0, 2, 60, 2, 2, 61, 1, 2, 62, 4, 3, 65, 5, 5, 74, 3, 3, 75, 3, 1, 79, 2, 2, 79, 2, 1, 81, 5, 3, 89, 0, 5, 91, 5, 1, 92, 5, 1, 94, 3, 4, 100, 3, 4, 104, 2, 3, 109, 2, 3, 116, 4, 2, 117, 2, 5, 124, 3, 3, 125, 1, 5, 126, 5, 1, 129, 0, 0, 130, 5, 1, 130, 2, 1, 131, 4, 4, 131, 0, 1, 147, 0, 4, 159, 0, 2, 160, 5, 3, 163, 4, 0, 165, 2, 4, 169, 4, 2, 174, 0, 1, 184, 3, 0, 187, 3, 4, 192, 4, 2, 196, 3, 5, 197, 2, 3, 200, 1, 2]);
