n_res = 4;
rc = [ 78, 79, 67, 36 ];
n_tasks = 62;
d = [0, 9, 3, 5, 6, 1, 2, 8, 10, 6, 1, 8, 6, 6, 9, 10, 2, 10, 1, 8, 9, 5, 9, 3, 9, 3, 6, 5, 7, 5, 7, 5, 9, 10, 6, 4, 3, 2, 4, 3, 5, 7, 4, 10, 3, 3, 3, 8, 9, 9, 4, 1, 3, 1, 10, 6, 4, 3, 1, 1, 9, 0];
rr = array2d(1..4, 1..62, [0, 0, 6, 7, 0, 2, 5, 0, 8, 6, 8, 0, 5, 7, 0, 1, 0, 8, 0, 0, 2, 0, 0, 5, 9, 0, 4, 9, 8, 6, 3, 5, 2, 3, 3, 8, 0, 10, 0, 0, 7, 3, 10, 9, 3, 10, 6, 8, 6, 0, 2, 0, 7, 4, 0, 3, 4, 10, 0, 9, 2, 0, 0, 7, 5, 10, 8, 2, 0, 0, 9, 0, 0, 10, 9, 6, 0, 7, 0, 10, 7, 8, 6, 8, 3, 9, 0, 7, 3, 6, 10, 10, 6, 3, 0, 2, 0, 5, 9, 10, 0, 9, 0, 8, 0, 9, 7, 7, 9, 0, 10, 0, 8, 8, 9, 4, 2, 4, 7, 8, 8, 8, 3, 0, 0, 5, 1, 0, 0, 0, 2, 10, 5, 10, 5, 3, 7, 8, 6, 8, 4, 4, 5, 3, 3, 9, 0, 4, 0, 7, 0, 8, 0, 7, 0, 6, 0, 0, 3, 8, 0, 0, 7, 10, 7, 2, 6, 5, 5, 5, 0, 7, 0, 7, 5, 10, 10, 4, 1, 3, 9, 9, 6, 9, 0, 0, 0, 0, 4, 9, 0, 2, 1, 9, 4, 10, 4, 4, 0, 0, 8, 0, 2, 3, 3, 3, 2, 10, 0, 1, 7, 6, 2, 2, 1, 5, 2, 2, 3, 2, 4, 4, 0, 1, 3, 10, 1, 0, 4, 1, 1, 7, 6, 0, 4, 0, 1, 8, 1, 0, 0, 3, 2, 9, 4, 8, 4, 0]);

suc = [
   {2, 3, 4},
   {10, 5, 7},
   {9},
   {15, 6, 14},
   {8, 11, 20},
   {29},
   {34, 60},
   {61, 12, 45},
   {37},
   {16, 43, 19},
   {29, 13},
   {40, 55},
   {31},
   {17, 30},
   {24, 35, 23},
   {51},
   {32, 18},
   {42},
   {27, 36, 38},
   {26, 21, 22},
   {25},
   {48, 54, 47},
   {54},
   {41, 28},
   {46},
   {33},
   {42},
   {39},
   {33},
   {45},
   {48, 58, 44},
   {53},
   {46},
   {35},
   {49},
   {52},
   {49},
   {59},
   {47},
   {42, 47},
   {49, 44},
   {56, 50},
   {45},
   {52},
   {52},
   {59},
   {58},
   {57},
   {57},
   {53},
   {55},
   {53},
   {60},
   {61},
   {56, 58},
   {59},
   {61},
   {60},
   {62},
   {62},
   {62},
   {  } ];

deadline = array2d(1..62, 1..3, [4, 0, 1, 6, 1, 1, 6, 1, 3, 12, 3, 3, 15, 0, 0, 17, 4, 0, 23, 2, 3, 24, 1, 4, 29, 4, 4, 29, 1, 5, 33, 0, 0, 35, 4, 2, 37, 0, 5, 43, 0, 4, 44, 0, 1, 44, 1, 3, 45, 3, 1, 45, 4, 3, 47, 5, 2, 48, 1, 5, 49, 4, 5, 50, 4, 5, 51, 2, 1, 56, 0, 4, 61, 3, 5, 63, 4, 4, 64, 4, 4, 64, 3, 0, 71, 0, 2, 74, 0, 2, 74, 2, 4, 75, 5, 2, 76, 4, 4, 78, 5, 5, 81, 4, 2, 83, 3, 3, 84, 5, 4, 91, 2, 5, 93, 3, 1, 93, 2, 2, 95, 4, 3, 96, 0, 0, 100, 4, 5, 100, 2, 0, 103, 5, 1, 103, 2, 3, 105, 1, 1, 105, 5, 2, 107, 2, 0, 109, 1, 4, 110, 1, 1, 113, 3, 3, 114, 2, 3, 118, 4, 3, 125, 3, 2, 125, 5, 1, 127, 0, 5, 128, 2, 3, 129, 0, 1, 129, 5, 1, 130, 5, 2, 132, 2, 3]);
