n_res = 4;
rc = [ 37, 38, 32, 42 ];
n_tasks = 62;
d = [0, 5, 6, 2, 4, 4, 3, 8, 7, 2, 2, 1, 2, 5, 2, 4, 6, 5, 6, 2, 1, 8, 3, 2, 4, 6, 6, 6, 7, 2, 2, 6, 7, 7, 10, 8, 7, 4, 6, 2, 9, 1, 10, 9, 10, 9, 8, 10, 10, 4, 6, 1, 1, 6, 2, 9, 9, 7, 6, 8, 8, 0];
rr = array2d(1..4, 1..62, [0, 1, 2, 7, 1, 8, 4, 6, 2, 10, 3, 5, 4, 4, 10, 9, 9, 9, 3, 3, 4, 1, 10, 5, 3, 8, 2, 4, 1, 7, 5, 3, 2, 6, 8, 1, 8, 4, 3, 4, 6, 4, 4, 5, 1, 4, 4, 10, 5, 5, 1, 2, 6, 9, 5, 2, 9, 3, 3, 3, 4, 0, 0, 5, 9, 6, 4, 8, 5, 1, 2, 3, 2, 8, 4, 8, 9, 6, 1, 2, 6, 3, 2, 9, 2, 10, 9, 9, 10, 9, 3, 4, 3, 9, 9, 7, 2, 5, 10, 5, 4, 3, 3, 1, 1, 9, 4, 3, 4, 4, 10, 8, 1, 6, 10, 2, 10, 1, 9, 4, 6, 4, 1, 0, 0, 7, 8, 8, 6, 3, 9, 5, 6, 9, 2, 2, 5, 10, 7, 8, 4, 10, 9, 4, 8, 5, 7, 10, 8, 2, 7, 2, 7, 2, 7, 4, 10, 2, 9, 8, 2, 2, 9, 1, 6, 4, 3, 8, 2, 2, 4, 5, 2, 6, 4, 6, 6, 4, 10, 3, 9, 5, 6, 1, 4, 0, 0, 9, 8, 1, 8, 4, 4, 1, 2, 8, 4, 2, 8, 7, 4, 4, 1, 7, 4, 3, 4, 5, 1, 6, 10, 5, 5, 3, 10, 6, 2, 5, 9, 5, 5, 8, 6, 10, 8, 9, 7, 6, 8, 7, 2, 3, 9, 8, 1, 8, 2, 5, 1, 9, 9, 5, 5, 1, 1, 4, 7, 0]);

suc = [
   {2, 3, 4},
   {25, 43, 22},
   {32, 14, 7},
   {8, 5, 6},
   {16, 37, 46},
   {16, 19, 31},
   {38},
   {9, 10, 55},
   {50, 43, 13},
   {11, 12, 23},
   {32, 26, 40},
   {18, 36, 31},
   {17, 22, 15},
   {34, 29, 55},
   {16, 18, 26},
   {33, 38, 49},
   {24, 28, 52},
   {27, 20, 37},
   {42, 21, 30},
   {40, 56, 29},
   {35, 44, 22},
   {36, 37},
   {42, 30},
   {51, 35, 44},
   {33, 34, 36},
   {51, 27, 29},
   {49, 44},
   {32, 56, 39},
   {33, 54},
   {34, 47, 39},
   {41},
   {48},
   {35, 45},
   {50, 53},
   {58, 39},
   {52, 46},
   {40, 56, 38},
   {51},
   {48, 61},
   {45, 47},
   {42, 43, 46},
   {49, 50, 45},
   {59, 47},
   {58},
   {48, 52},
   {53, 54},
   {58},
   {60},
   {61},
   {54},
   {59},
   {57, 53},
   {60},
   {61},
   {57},
   {57},
   {59},
   {60},
   {62},
   {62},
   {62},
   {  } ];

deadline = array2d(1..62, 1..3, [3, 5, 1, 4, 5, 4, 5, 0, 3, 11, 0, 4, 11, 2, 4, 12, 1, 3, 13, 3, 1, 15, 0, 2, 15, 3, 5, 21, 0, 5, 22, 0, 5, 29, 4, 5, 29, 2, 5, 31, 2, 2, 31, 3, 3, 33, 0, 0, 33, 4, 5, 38, 4, 3, 41, 4, 1, 47, 0, 1, 69, 2, 4, 74, 2, 5, 75, 4, 2, 83, 3, 2, 84, 0, 2, 86, 4, 1, 86, 1, 0, 89, 2, 3, 94, 1, 0, 99, 3, 2, 102, 0, 2, 103, 0, 0, 104, 1, 5, 105, 1, 2, 112, 0, 3, 117, 5, 4, 122, 0, 2, 124, 4, 5, 126, 0, 2, 128, 4, 5, 135, 3, 3, 140, 0, 5, 141, 2, 5, 142, 1, 0, 144, 3, 0, 151, 4, 0, 151, 1, 1, 155, 3, 1, 156, 4, 4, 156, 2, 2, 157, 0, 4, 162, 0, 2, 164, 0, 2, 165, 2, 1, 166, 4, 1, 167, 0, 1, 170, 1, 0, 175, 1, 1, 175, 0, 4, 181, 0, 4, 183, 4, 3, 184, 2, 1]);
