n_res = 4;
rc = [ 21, 32, 26, 32 ];
n_tasks = 62;
d = [0, 10, 10, 2, 2, 1, 8, 5, 1, 1, 1, 4, 4, 6, 3, 9, 9, 3, 9, 2, 2, 9, 8, 7, 5, 1, 1, 5, 4, 4, 4, 8, 1, 3, 6, 4, 8, 1, 3, 2, 3, 4, 1, 9, 9, 9, 3, 9, 4, 7, 9, 1, 9, 3, 3, 8, 5, 8, 3, 5, 10, 0];
rr = array2d(1..4, 1..62, [0, 2, 0, 0, 6, 7, 8, 0, 6, 10, 6, 0, 0, 0, 3, 0, 0, 3, 4, 0, 0, 0, 0, 0, 6, 0, 0, 10, 1, 5, 0, 0, 0, 2, 0, 0, 0, 0, 0, 6, 0, 0, 0, 0, 0, 0, 4, 0, 0, 3, 2, 0, 5, 0, 0, 0, 10, 0, 4, 6, 0, 0, 0, 0, 10, 0, 2, 1, 0, 2, 0, 0, 7, 4, 0, 8, 0, 4, 0, 5, 0, 2, 0, 9, 0, 0, 7, 9, 0, 0, 0, 0, 4, 10, 0, 10, 7, 0, 0, 5, 0, 0, 3, 8, 7, 0, 2, 7, 5, 9, 10, 0, 0, 0, 1, 6, 10, 9, 0, 0, 9, 0, 3, 0, 0, 0, 10, 5, 0, 6, 2, 0, 7, 0, 0, 0, 1, 9, 0, 4, 0, 0, 5, 0, 3, 6, 0, 0, 0, 0, 0, 0, 1, 0, 0, 0, 0, 5, 0, 0, 8, 0, 4, 0, 7, 0, 10, 0, 0, 2, 0, 0, 4, 0, 4, 6, 0, 0, 0, 0, 5, 7, 0, 0, 0, 0, 0, 0, 10, 3, 0, 8, 4, 0, 0, 2, 9, 6, 8, 4, 2, 1, 7, 3, 4, 7, 6, 4, 2, 5, 6, 1, 4, 2, 10, 4, 0, 6, 4, 7, 1, 7, 0, 0, 0, 0, 0, 10, 0, 7, 5, 6, 0, 0, 3, 0, 0, 0, 7, 8, 9, 6, 0, 4, 7, 2, 8, 0]);

suc = [
   {2, 3, 4},
   {53, 5},
   {8, 10, 51},
   {36},
   {25, 6, 22},
   {16, 26, 7},
   {9, 11, 14},
   {17, 19, 39},
   {18, 58},
   {12, 13, 15},
   {54, 28, 38},
   {37, 31},
   {35, 46},
   {24, 34, 43},
   {30},
   {57, 21},
   {58},
   {43, 60},
   {41, 20},
   {27, 29, 23},
   {44, 45},
   {34},
   {43},
   {30},
   {50},
   {41},
   {52},
   {32, 45},
   {34},
   {40, 49, 42},
   {59},
   {33},
   {49},
   {48, 35},
   {61},
   {51},
   {57},
   {50},
   {47},
   {48},
   {61},
   {47},
   {59},
   {46},
   {48},
   {55},
   {55},
   {61},
   {50},
   {55},
   {56},
   {56},
   {59},
   {56},
   {58},
   {57},
   {60},
   {60},
   {62},
   {62},
   {62},
   {  } ];

deadline = array2d(1..62, 1..3, [1, 5, 3, 8, 3, 3, 14, 2, 4, 14, 4, 2, 17, 2, 0, 18, 2, 4, 18, 4, 5, 22, 0, 1, 24, 0, 5, 25, 4, 5, 35, 3, 2, 36, 3, 2, 40, 0, 3, 41, 1, 2, 41, 3, 1, 41, 0, 3, 43, 1, 0, 44, 4, 3, 44, 3, 1, 46, 2, 5, 46, 0, 4, 63, 3, 0, 64, 2, 5, 65, 0, 0, 66, 5, 4, 66, 0, 4, 70, 1, 1, 70, 2, 1, 71, 1, 3, 73, 0, 2, 76, 5, 2, 77, 2, 3, 77, 3, 4, 79, 3, 0, 79, 3, 4, 81, 0, 2, 81, 5, 1, 84, 5, 2, 85, 4, 4, 85, 2, 1, 94, 5, 4, 94, 3, 2, 98, 4, 2, 100, 4, 0, 106, 5, 4, 112, 5, 1, 112, 4, 0, 116, 4, 1, 117, 1, 2, 117, 0, 0, 122, 1, 1, 123, 3, 3, 123, 4, 5, 124, 4, 2, 129, 2, 5, 130, 2, 5, 134, 5, 2, 139, 0, 1, 148, 5, 4, 148, 4, 4, 152, 5, 0, 159, 0, 3]);
