n_res = 4;
rc = [ 54, 46, 44, 43 ];
n_tasks = 62;
d = [0, 7, 7, 7, 8, 5, 5, 9, 4, 7, 1, 5, 5, 5, 5, 10, 1, 5, 4, 8, 7, 7, 5, 6, 3, 6, 8, 5, 3, 7, 2, 9, 2, 4, 2, 10, 3, 10, 4, 2, 5, 5, 10, 9, 3, 4, 5, 1, 6, 2, 9, 2, 4, 10, 7, 7, 2, 2, 3, 7, 6, 0];
rr = array2d(1..4, 1..62, [0, 7, 1, 7, 3, 8, 8, 6, 1, 7, 5, 3, 8, 8, 4, 8, 9, 8, 1, 6, 1, 10, 2, 7, 5, 2, 7, 10, 4, 7, 5, 9, 10, 3, 9, 9, 2, 1, 7, 1, 8, 10, 7, 3, 8, 10, 3, 2, 4, 10, 2, 9, 10, 6, 6, 1, 5, 5, 3, 3, 6, 0, 0, 5, 10, 4, 2, 7, 5, 4, 10, 4, 4, 4, 6, 6, 2, 2, 9, 6, 7, 5, 7, 9, 7, 8, 3, 7, 5, 6, 10, 4, 8, 4, 2, 3, 5, 3, 10, 2, 8, 7, 4, 1, 8, 6, 8, 8, 8, 4, 7, 1, 3, 6, 7, 7, 5, 2, 9, 10, 5, 3, 1, 0, 0, 10, 10, 6, 2, 5, 1, 6, 3, 9, 5, 9, 5, 9, 3, 3, 4, 9, 5, 5, 4, 7, 7, 8, 9, 7, 6, 1, 1, 9, 1, 1, 2, 5, 3, 5, 6, 4, 5, 10, 3, 4, 6, 3, 1, 9, 3, 1, 5, 1, 7, 8, 10, 6, 8, 2, 10, 10, 6, 4, 10, 0, 0, 10, 5, 5, 3, 7, 2, 5, 6, 5, 4, 1, 4, 8, 5, 6, 6, 7, 4, 8, 2, 5, 3, 4, 8, 5, 9, 5, 3, 9, 4, 2, 9, 8, 3, 7, 2, 8, 3, 10, 5, 10, 4, 2, 3, 8, 1, 7, 7, 1, 2, 8, 5, 2, 1, 1, 10, 7, 1, 7, 7, 0]);

suc = [
   {2, 3, 4},
   {16, 10, 5},
   {44, 7},
   {9, 12, 25},
   {8, 11, 6},
   {38, 14, 22},
   {48},
   {17, 49, 15},
   {18},
   {18, 31},
   {24, 19, 23},
   {21, 13},
   {17},
   {36, 37, 47},
   {28},
   {29, 22},
   {38},
   {40, 20, 44},
   {34, 28, 42},
   {22},
   {58, 60, 53},
   {32, 37},
   {43, 45, 30},
   {25, 26},
   {45},
   {33, 27, 37},
   {39},
   {57},
   {57},
   {50, 35, 36},
   {40, 42, 47},
   {48, 54},
   {48, 42, 38},
   {52, 61},
   {41, 60},
   {58, 55},
   {51},
   {41, 51},
   {50},
   {51, 53},
   {56},
   {53, 46},
   {49, 46},
   {49, 45, 47},
   {52},
   {57, 52},
   {58},
   {59},
   {56, 50, 55},
   {54},
   {54},
   {55},
   {56},
   {60},
   {59},
   {61},
   {59},
   {61},
   {62},
   {62},
   {62},
   {  } ];

deadline = array2d(1..62, 1..3, [12, 4, 5, 20, 4, 3, 22, 3, 4, 25, 4, 5, 27, 5, 2, 28, 2, 4, 35, 5, 2, 39, 0, 1, 42, 3, 5, 44, 1, 2, 46, 0, 5, 61, 0, 5, 62, 5, 3, 70, 5, 3, 74, 1, 0, 83, 0, 5, 86, 2, 0, 86, 2, 0, 87, 0, 3, 87, 4, 4, 90, 5, 2, 91, 3, 4, 95, 5, 5, 95, 3, 3, 95, 1, 3, 96, 3, 3, 98, 2, 0, 102, 4, 2, 107, 5, 1, 111, 5, 1, 112, 1, 2, 112, 5, 5, 114, 2, 4, 116, 0, 3, 116, 3, 4, 117, 5, 0, 118, 3, 0, 119, 4, 2, 121, 4, 5, 122, 0, 0, 123, 3, 1, 123, 5, 5, 128, 4, 2, 129, 1, 3, 130, 3, 2, 130, 2, 1, 135, 0, 2, 141, 4, 0, 143, 4, 1, 143, 1, 4, 146, 0, 4, 146, 0, 1, 148, 4, 5, 148, 5, 0, 148, 1, 0, 150, 0, 2, 151, 1, 2, 153, 1, 3, 155, 4, 4, 156, 0, 1, 160, 2, 1, 164, 2, 2]);
