n_res = 4;
rc = [ 18, 21, 16, 21 ];
n_tasks = 62;
d = [0, 1, 6, 6, 8, 3, 9, 9, 1, 4, 1, 10, 4, 4, 10, 4, 9, 5, 9, 4, 1, 7, 9, 10, 8, 9, 5, 2, 5, 1, 2, 5, 9, 8, 3, 4, 8, 2, 10, 8, 4, 6, 5, 1, 8, 7, 3, 5, 9, 1, 7, 9, 6, 9, 2, 6, 6, 5, 6, 6, 2, 0];
rr = array2d(1..4, 1..62, [0, 0, 0, 0, 0, 3, 0, 0, 0, 0, 0, 0, 0, 1, 0, 3, 0, 0, 0, 0, 0, 0, 4, 0, 0, 0, 0, 0, 0, 0, 0, 0, 0, 0, 6, 0, 0, 0, 1, 0, 0, 0, 0, 4, 0, 9, 0, 0, 1, 0, 0, 8, 0, 0, 0, 0, 0, 0, 0, 0, 0, 0, 0, 7, 0, 3, 1, 0, 0, 0, 0, 0, 0, 3, 0, 0, 0, 0, 0, 0, 0, 8, 0, 0, 0, 0, 0, 3, 0, 0, 0, 0, 0, 0, 8, 8, 0, 0, 10, 0, 0, 6, 0, 0, 0, 0, 0, 0, 9, 2, 0, 5, 5, 0, 0, 7, 0, 0, 6, 3, 0, 0, 0, 0, 0, 0, 0, 0, 0, 0, 0, 0, 8, 2, 7, 0, 5, 0, 1, 0, 0, 0, 0, 0, 0, 7, 0, 3, 0, 0, 1, 4, 2, 10, 4, 3, 0, 0, 0, 5, 0, 10, 0, 0, 1, 0, 2, 0, 0, 0, 0, 0, 0, 0, 0, 0, 3, 0, 3, 0, 0, 0, 0, 2, 0, 0, 0, 0, 9, 0, 0, 0, 6, 8, 0, 0, 0, 0, 0, 0, 0, 0, 4, 4, 6, 0, 1, 0, 0, 0, 10, 0, 0, 0, 0, 0, 0, 0, 0, 0, 0, 0, 0, 0, 0, 0, 0, 5, 0, 0, 1, 0, 0, 0, 0, 0, 0, 0, 0, 0, 0, 1, 0, 0, 10, 0, 3, 0]);

suc = [
   {2, 3, 4},
   {9, 6, 7},
   {41, 12, 31},
   {49, 18, 5},
   {48, 53, 14},
   {16, 51, 11},
   {8, 10, 36},
   {25, 14, 55},
   {17, 42},
   {13, 39},
   {29, 21},
   {32, 33, 15},
   {33, 27},
   {52},
   {24, 35, 22},
   {40, 19},
   {20, 36, 31},
   {39},
   {56, 26, 37},
   {32},
   {39, 23},
   {51, 44},
   {45},
   {54, 28, 38},
   {31},
   {50, 46},
   {48, 58},
   {47},
   {30},
   {32},
   {40, 34, 38},
   {61, 53},
   {49},
   {58},
   {49, 43, 52},
   {41, 51},
   {41},
   {57, 60},
   {50, 55, 47},
   {43, 44, 46},
   {44, 54},
   {43, 45},
   {61},
   {61},
   {50, 46},
   {47},
   {53},
   {52, 55},
   {60},
   {54},
   {57},
   {56},
   {59},
   {57},
   {56, 59},
   {60},
   {58},
   {59},
   {62},
   {62},
   {62},
   {  } ];

deadline = array2d(1..62, 1..3, [1, 0, 2, 2, 3, 4, 3, 1, 2, 7, 3, 0, 8, 4, 3, 9, 5, 0, 10, 1, 0, 10, 3, 1, 14, 0, 4, 16, 4, 4, 22, 4, 1, 23, 3, 5, 28, 0, 5, 32, 0, 1, 35, 2, 1, 37, 2, 0, 41, 3, 1, 43, 0, 4, 53, 5, 5, 55, 4, 0, 55, 3, 4, 55, 2, 3, 55, 3, 1, 55, 4, 5, 58, 0, 3, 58, 0, 5, 58, 0, 0, 59, 0, 3, 60, 0, 2, 64, 0, 3, 65, 5, 0, 71, 1, 1, 84, 1, 2, 89, 5, 4, 92, 2, 2, 92, 2, 0, 93, 1, 3, 93, 0, 1, 101, 5, 4, 102, 3, 0, 102, 1, 5, 103, 0, 4, 106, 2, 4, 106, 2, 4, 110, 5, 0, 112, 4, 5, 113, 1, 5, 114, 5, 1, 115, 2, 5, 124, 0, 0, 124, 2, 5, 127, 4, 4, 131, 4, 1, 134, 4, 5, 141, 1, 5, 141, 1, 5, 146, 5, 2, 147, 4, 4, 148, 2, 4, 149, 4, 4, 154, 3, 1, 154, 2, 0]);
