n_res = 4;
rc = [ 11, 12, 10, 13 ];
n_tasks = 62;
d = [0, 9, 8, 7, 4, 2, 7, 6, 8, 10, 5, 4, 8, 2, 10, 8, 3, 1, 6, 10, 8, 2, 1, 6, 9, 5, 4, 10, 9, 5, 8, 5, 2, 6, 8, 10, 2, 3, 8, 10, 4, 1, 6, 1, 2, 3, 3, 8, 7, 10, 8, 5, 5, 10, 3, 10, 5, 8, 7, 8, 10, 0];
rr = array2d(1..4, 1..62, [0, 3, 0, 0, 0, 0, 0, 4, 0, 0, 0, 6, 6, 0, 0, 3, 0, 0, 0, 2, 0, 0, 2, 2, 0, 0, 0, 0, 0, 0, 5, 0, 9, 0, 0, 0, 1, 0, 0, 1, 0, 1, 0, 0, 0, 1, 0, 0, 3, 0, 0, 0, 0, 0, 9, 0, 0, 0, 0, 1, 0, 0, 0, 0, 0, 6, 10, 0, 0, 0, 0, 0, 0, 0, 0, 10, 0, 0, 0, 0, 9, 0, 4, 8, 0, 0, 0, 0, 6, 0, 6, 2, 0, 0, 0, 8, 0, 4, 0, 0, 4, 0, 0, 0, 0, 2, 0, 0, 0, 7, 0, 10, 8, 3, 1, 0, 0, 0, 0, 10, 6, 0, 0, 0, 0, 0, 9, 0, 0, 0, 0, 0, 6, 3, 0, 0, 0, 0, 0, 0, 0, 6, 0, 0, 0, 0, 0, 0, 4, 0, 0, 0, 0, 0, 0, 6, 0, 0, 2, 0, 0, 0, 0, 0, 3, 0, 0, 0, 0, 0, 0, 0, 0, 0, 0, 0, 0, 0, 0, 0, 7, 0, 0, 0, 1, 0, 0, 0, 0, 0, 0, 7, 6, 0, 0, 0, 8, 0, 0, 0, 5, 0, 9, 0, 0, 0, 0, 0, 0, 0, 0, 6, 0, 10, 0, 0, 0, 0, 0, 0, 0, 0, 0, 8, 0, 0, 0, 0, 7, 0, 5, 0, 4, 0, 0, 0, 0, 0, 0, 2, 0, 8, 0, 0, 0, 0, 0, 0]);

suc = [
   {2, 3, 4},
   {9, 5, 6},
   {26, 37, 15},
   {8, 34},
   {24, 32},
   {23, 13, 7},
   {41, 14},
   {26, 10, 19},
   {18, 11, 42},
   {17, 18, 20},
   {16, 12, 21},
   {17, 13, 25},
   {36},
   {57, 37, 47},
   {28, 60},
   {52, 38},
   {33, 36, 29},
   {48},
   {46, 22, 31},
   {35, 28},
   {59, 58, 27},
   {25, 51},
   {49},
   {44},
   {50, 45},
   {40, 30, 39},
   {48, 35},
   {57},
   {45, 46, 39},
   {47},
   {35},
   {56, 50, 61},
   {48, 52},
   {37, 47},
   {61},
   {41, 39},
   {51, 46},
   {43},
   {49, 44},
   {41, 43, 53},
   {45},
   {49},
   {50},
   {53, 55},
   {54},
   {56, 53},
   {56},
   {57},
   {58},
   {59, 54},
   {54},
   {55},
   {60},
   {55},
   {58},
   {59},
   {61},
   {60},
   {62},
   {62},
   {62},
   {  } ];

deadline = array2d(1..62, 1..3, [3, 1, 1, 5, 3, 4, 7, 3, 2, 7, 4, 0, 10, 1, 5, 11, 5, 0, 16, 4, 4, 16, 4, 2, 19, 0, 3, 21, 2, 4, 22, 2, 3, 25, 2, 5, 28, 1, 5, 30, 0, 4, 32, 3, 1, 43, 5, 0, 45, 4, 5, 47, 0, 0, 49, 4, 4, 52, 1, 5, 59, 0, 3, 60, 4, 1, 66, 1, 2, 68, 4, 3, 70, 3, 1, 71, 5, 4, 73, 3, 2, 75, 4, 1, 81, 5, 0, 88, 1, 2, 90, 5, 4, 94, 1, 3, 94, 4, 3, 96, 3, 3, 100, 0, 0, 102, 1, 1, 106, 4, 0, 111, 2, 2, 112, 0, 0, 114, 0, 5, 118, 3, 1, 120, 3, 0, 123, 3, 4, 132, 5, 4, 134, 0, 0, 136, 5, 5, 137, 4, 4, 138, 5, 3, 143, 4, 0, 149, 0, 5, 153, 3, 2, 155, 5, 1, 159, 1, 0, 162, 5, 5, 167, 0, 4, 168, 5, 1, 170, 5, 2, 175, 3, 4, 182, 5, 4, 189, 5, 0, 196, 3, 3, 196, 1, 1]);
