n_res = 4;
rc = [ 13, 16, 16, 18 ];
n_tasks = 62;
d = [0, 7, 1, 2, 5, 3, 10, 3, 1, 10, 8, 6, 10, 10, 1, 9, 7, 3, 2, 10, 2, 1, 10, 1, 3, 5, 3, 1, 1, 3, 10, 8, 6, 9, 4, 9, 10, 1, 7, 4, 4, 9, 2, 9, 10, 4, 4, 4, 2, 3, 9, 4, 10, 3, 2, 10, 1, 4, 8, 7, 2, 0];
rr = array2d(1..4, 1..62, [0, 2, 9, 0, 4, 0, 0, 0, 0, 0, 0, 0, 0, 10, 0, 0, 0, 0, 0, 0, 0, 0, 0, 8, 2, 4, 0, 0, 1, 0, 0, 0, 0, 0, 0, 3, 0, 2, 3, 0, 0, 0, 0, 0, 0, 0, 2, 0, 0, 0, 0, 0, 0, 0, 0, 0, 0, 3, 0, 0, 0, 0, 0, 0, 0, 0, 0, 0, 1, 10, 0, 0, 0, 0, 9, 0, 0, 7, 0, 0, 0, 5, 0, 0, 0, 0, 0, 0, 0, 0, 0, 2, 9, 0, 0, 0, 4, 0, 0, 0, 0, 9, 0, 7, 0, 0, 5, 0, 0, 0, 0, 0, 0, 4, 0, 0, 9, 0, 0, 0, 0, 0, 1, 0, 0, 0, 0, 1, 0, 0, 0, 0, 2, 10, 0, 0, 0, 0, 8, 0, 0, 0, 9, 0, 3, 0, 0, 0, 0, 0, 4, 2, 0, 0, 0, 4, 2, 6, 0, 0, 0, 0, 0, 0, 0, 0, 3, 7, 0, 0, 0, 9, 0, 6, 0, 0, 6, 0, 0, 8, 7, 0, 0, 0, 0, 0, 0, 0, 0, 0, 0, 4, 0, 0, 0, 0, 8, 3, 0, 0, 0, 0, 10, 7, 0, 0, 0, 4, 6, 0, 0, 0, 0, 0, 0, 0, 0, 0, 0, 0, 0, 0, 6, 0, 0, 0, 2, 0, 0, 0, 0, 2, 0, 0, 2, 0, 7, 0, 0, 3, 0, 0, 0, 0, 9, 5, 0, 0]);

suc = [
   {2, 3, 4},
   {9, 10, 31},
   {11, 5, 14},
   {17, 6, 15},
   {18, 27, 7},
   {61, 21, 46},
   {8, 32, 30},
   {43, 12, 31},
   {27, 46, 23},
   {40, 41, 43},
   {45, 20, 13},
   {35, 19, 13},
   {56, 49, 26},
   {50, 20, 37},
   {16, 33, 49},
   {24, 48, 59},
   {34, 29, 22},
   {20, 28, 54},
   {25, 22, 23},
   {32, 53, 22},
   {44},
   {48, 58, 36},
   {40, 28, 37},
   {35, 30, 31},
   {34, 50, 37},
   {28, 53, 38},
   {41, 45, 29},
   {57, 55},
   {59, 35, 36},
   {41, 42},
   {34, 52},
   {33, 49},
   {40, 36, 55},
   {38},
   {42, 51},
   {47},
   {54, 38, 39},
   {42, 58},
   {56, 44},
   {48, 47},
   {50, 52, 54},
   {60},
   {44, 46, 47},
   {45},
   {55},
   {53},
   {51},
   {51},
   {57},
   {60},
   {52},
   {57},
   {60},
   {56},
   {59},
   {58},
   {61},
   {61},
   {62},
   {62},
   {62},
   {  } ];

deadline = array2d(1..62, 1..3, [4, 3, 3, 5, 1, 0, 6, 5, 5, 13, 2, 0, 20, 4, 0, 25, 1, 0, 35, 3, 1, 40, 1, 2, 41, 3, 0, 42, 5, 2, 43, 2, 4, 45, 1, 2, 50, 3, 2, 50, 2, 1, 55, 2, 4, 58, 1, 1, 59, 0, 4, 61, 1, 0, 69, 3, 1, 70, 2, 3, 75, 3, 4, 77, 2, 3, 79, 3, 3, 83, 1, 1, 93, 4, 3, 93, 5, 1, 98, 5, 5, 99, 5, 3, 100, 0, 2, 101, 5, 1, 102, 4, 4, 102, 5, 0, 109, 4, 5, 112, 1, 3, 112, 5, 5, 117, 0, 5, 119, 3, 2, 119, 1, 2, 120, 0, 0, 120, 3, 4, 123, 3, 5, 124, 1, 1, 126, 1, 1, 129, 3, 1, 142, 5, 0, 145, 0, 0, 146, 3, 5, 151, 5, 3, 153, 2, 2, 171, 4, 4, 171, 4, 4, 172, 1, 5, 176, 1, 4, 178, 4, 4, 178, 2, 5, 188, 4, 3, 189, 5, 3, 189, 3, 3, 194, 1, 0, 194, 0, 0, 195, 1, 3, 200, 5, 3]);
