n_res = 4;
rc = [ 35, 39, 36, 43 ];
n_tasks = 62;
d = [0, 9, 4, 7, 2, 5, 10, 5, 7, 4, 4, 5, 9, 1, 8, 3, 3, 4, 7, 1, 5, 3, 9, 5, 10, 4, 10, 8, 9, 10, 2, 7, 1, 2, 2, 2, 2, 7, 10, 1, 9, 2, 1, 10, 9, 8, 9, 5, 2, 2, 1, 4, 9, 2, 9, 4, 5, 2, 9, 1, 7, 0];
rr = array2d(1..4, 1..62, [0, 4, 10, 2, 6, 2, 1, 9, 6, 9, 6, 5, 3, 3, 3, 5, 5, 2, 4, 4, 10, 5, 6, 4, 10, 9, 1, 2, 5, 3, 4, 2, 7, 4, 9, 7, 2, 2, 7, 8, 6, 9, 9, 7, 1, 6, 3, 2, 10, 1, 2, 3, 9, 3, 2, 9, 6, 9, 1, 5, 8, 0, 0, 7, 4, 4, 10, 7, 2, 4, 1, 9, 4, 7, 3, 1, 1, 10, 7, 10, 3, 9, 10, 8, 3, 1, 5, 2, 1, 1, 9, 9, 10, 2, 2, 8, 4, 8, 2, 6, 6, 5, 4, 7, 3, 10, 1, 4, 4, 10, 1, 7, 8, 4, 8, 4, 7, 1, 6, 10, 3, 9, 8, 0, 0, 7, 4, 3, 2, 6, 9, 10, 2, 2, 6, 4, 8, 9, 9, 2, 5, 6, 4, 9, 7, 3, 10, 2, 6, 9, 2, 8, 5, 5, 10, 7, 5, 4, 3, 4, 4, 5, 2, 6, 2, 9, 7, 5, 1, 2, 10, 2, 1, 7, 6, 3, 2, 6, 8, 2, 4, 4, 1, 3, 10, 0, 0, 3, 4, 1, 9, 5, 8, 2, 6, 1, 1, 9, 1, 8, 3, 6, 3, 9, 10, 4, 9, 5, 6, 3, 4, 9, 9, 8, 2, 1, 8, 5, 6, 5, 9, 6, 6, 8, 7, 1, 8, 9, 10, 7, 3, 10, 6, 5, 2, 6, 5, 6, 2, 7, 4, 1, 10, 2, 4, 3, 3, 0]);

suc = [
   {2, 3, 4},
   {33, 10},
   {9, 5, 7},
   {10, 51, 6},
   {41, 11, 30},
   {40, 18, 13},
   {8, 16, 47},
   {54, 22, 30},
   {12, 46},
   {35},
   {24, 20, 15},
   {17, 42, 25},
   {16, 38, 14},
   {43, 37},
   {19, 46, 55},
   {17},
   {50, 29},
   {32, 48, 21},
   {27, 31, 23},
   {45},
   {24, 34},
   {53, 29},
   {26, 28, 36},
   {45},
   {37},
   {56},
   {51},
   {45, 43, 29},
   {44},
   {35},
   {40, 35},
   {36, 38, 44},
   {40, 50},
   {49},
   {48, 36, 52},
   {42, 50, 58},
   {60, 47},
   {39},
   {49, 52, 61},
   {61},
   {51},
   {56},
   {59, 44, 52},
   {61},
   {54},
   {58},
   {48},
   {57},
   {57, 55},
   {56},
   {53, 54},
   {53},
   {58},
   {59},
   {60},
   {57},
   {59},
   {60},
   {62},
   {62},
   {62},
   {  } ];

deadline = array2d(1..62, 1..3, [2, 5, 4, 2, 3, 3, 8, 0, 2, 10, 2, 5, 11, 2, 5, 17, 2, 2, 23, 2, 1, 27, 1, 3, 27, 3, 3, 27, 0, 2, 31, 0, 4, 32, 3, 0, 35, 1, 3, 36, 5, 1, 39, 5, 3, 43, 2, 3, 46, 3, 4, 47, 5, 2, 51, 2, 5, 55, 2, 4, 62, 3, 4, 63, 0, 4, 69, 2, 4, 69, 4, 2, 78, 3, 0, 80, 4, 3, 83, 4, 1, 84, 4, 2, 85, 2, 4, 88, 1, 3, 90, 3, 4, 94, 0, 3, 95, 2, 2, 98, 1, 1, 98, 2, 3, 98, 0, 5, 100, 2, 5, 100, 2, 3, 107, 2, 0, 107, 3, 0, 109, 3, 2, 112, 4, 1, 114, 4, 2, 118, 4, 4, 125, 0, 2, 130, 3, 1, 132, 0, 2, 137, 1, 1, 140, 3, 3, 141, 4, 2, 144, 1, 3, 144, 4, 0, 145, 5, 3, 150, 1, 3, 151, 4, 2, 156, 4, 5, 156, 4, 3, 157, 4, 5, 160, 3, 5, 160, 4, 1, 164, 0, 0, 168, 5, 3]);
