n_res = 4;
rc = [ 39, 56, 36, 27 ];
n_tasks = 62;
d = [0, 10, 9, 9, 5, 5, 6, 10, 5, 3, 4, 9, 5, 6, 3, 3, 8, 3, 6, 8, 9, 9, 1, 1, 4, 6, 10, 7, 1, 2, 8, 4, 7, 8, 6, 10, 10, 2, 5, 10, 10, 9, 7, 7, 7, 8, 10, 6, 3, 5, 9, 8, 4, 2, 4, 9, 4, 10, 7, 3, 4, 0];
rr = array2d(1..4, 1..62, [0, 3, 10, 0, 3, 0, 0, 0, 0, 0, 2, 5, 0, 0, 0, 0, 0, 0, 9, 0, 0, 10, 0, 0, 0, 0, 3, 8, 10, 9, 0, 4, 8, 0, 1, 0, 0, 0, 5, 8, 0, 0, 3, 0, 0, 2, 1, 10, 9, 0, 0, 7, 0, 7, 0, 5, 0, 0, 0, 3, 5, 0, 0, 1, 3, 0, 8, 3, 0, 2, 0, 2, 1, 0, 0, 0, 0, 7, 0, 0, 0, 0, 0, 10, 10, 0, 10, 0, 8, 3, 0, 0, 10, 8, 0, 1, 0, 8, 7, 9, 4, 0, 0, 3, 0, 0, 0, 10, 0, 10, 2, 5, 0, 10, 0, 1, 10, 4, 0, 0, 7, 1, 0, 0, 0, 5, 9, 0, 2, 0, 10, 5, 3, 7, 0, 0, 2, 3, 0, 0, 0, 0, 0, 10, 0, 8, 9, 0, 2, 0, 8, 8, 0, 0, 0, 2, 0, 0, 0, 0, 5, 5, 0, 8, 5, 1, 0, 10, 0, 6, 2, 0, 6, 0, 0, 0, 6, 0, 7, 0, 5, 0, 0, 0, 1, 0, 0, 7, 0, 8, 0, 0, 1, 3, 4, 0, 9, 0, 8, 0, 7, 3, 2, 1, 4, 0, 4, 3, 0, 4, 2, 6, 0, 0, 0, 1, 3, 4, 5, 2, 0, 0, 2, 5, 0, 0, 3, 4, 3, 0, 10, 10, 0, 0, 0, 0, 1, 0, 2, 7, 0, 0, 7, 8, 0, 0, 2, 0]);

suc = [
   {2, 3, 4},
   {14},
   {58, 22},
   {21, 20, 5},
   {8, 12, 6},
   {11, 23, 7},
   {43},
   {9, 53, 37},
   {10, 26, 13},
   {19, 15},
   {18, 28, 52},
   {54},
   {16, 17, 35},
   {31},
   {24},
   {33, 28, 45},
   {27, 30},
   {40, 25},
   {25, 55},
   {56},
   {36},
   {53},
   {57},
   {41, 42, 29},
   {31},
   {39},
   {51, 54},
   {32, 36},
   {49, 38},
   {40},
   {34},
   {44},
   {49},
   {35, 60},
   {61},
   {57},
   {43},
   {46},
   {57},
   {59, 47},
   {48},
   {43},
   {45},
   {47},
   {50},
   {52},
   {51},
   {52},
   {55},
   {55},
   {56},
   {60},
   {59, 60},
   {56},
   {61},
   {58},
   {58, 59},
   {61},
   {62},
   {62},
   {62},
   {  } ];

deadline = array2d(1..62, 1..3, [5, 4, 5, 9, 3, 5, 9, 4, 4, 13, 1, 5, 19, 1, 3, 20, 4, 1, 26, 1, 1, 28, 2, 3, 33, 3, 0, 35, 3, 0, 40, 2, 0, 45, 4, 0, 46, 0, 1, 47, 5, 2, 53, 1, 5, 72, 5, 0, 73, 5, 2, 76, 2, 5, 85, 1, 0, 87, 5, 5, 100, 4, 4, 111, 5, 2, 123, 3, 2, 126, 2, 2, 126, 4, 3, 134, 1, 1, 135, 0, 5, 141, 2, 2, 142, 3, 3, 145, 0, 1, 148, 2, 4, 150, 0, 1, 152, 1, 4, 152, 0, 2, 155, 2, 0, 159, 1, 5, 163, 4, 1, 168, 3, 4, 170, 2, 3, 174, 1, 1, 175, 4, 2, 180, 1, 2, 181, 3, 4, 185, 5, 0, 188, 5, 0, 190, 3, 3, 194, 1, 3, 196, 1, 1, 199, 3, 1, 201, 5, 2, 202, 0, 1, 202, 0, 2, 206, 5, 5, 206, 5, 0, 207, 1, 5, 209, 4, 5, 209, 3, 4, 215, 4, 4, 216, 2, 4, 217, 1, 5, 228, 4, 4, 236, 2, 1]);
