n_res = 4;
rc = [ 17, 16, 15, 16 ];
n_tasks = 62;
d = [0, 4, 10, 10, 6, 9, 1, 6, 2, 10, 10, 9, 1, 3, 10, 8, 3, 5, 3, 3, 10, 2, 7, 5, 6, 4, 7, 8, 6, 1, 8, 3, 7, 8, 4, 7, 1, 10, 2, 1, 1, 3, 1, 3, 9, 10, 10, 4, 8, 2, 8, 6, 7, 4, 9, 7, 1, 10, 6, 9, 1, 0];
rr = array2d(1..4, 1..62, [0, 1, 0, 3, 9, 8, 0, 0, 3, 8, 0, 6, 0, 3, 10, 0, 10, 8, 6, 1, 7, 1, 6, 3, 6, 0, 0, 0, 10, 5, 6, 0, 6, 6, 8, 5, 1, 9, 1, 4, 0, 1, 5, 5, 7, 0, 0, 0, 10, 1, 8, 3, 2, 10, 1, 3, 5, 4, 0, 0, 0, 0, 0, 5, 4, 4, 10, 9, 6, 6, 7, 0, 1, 0, 3, 8, 7, 0, 1, 1, 0, 0, 1, 3, 0, 10, 9, 2, 9, 2, 9, 5, 0, 10, 9, 5, 9, 6, 5, 6, 4, 2, 9, 0, 6, 2, 3, 9, 1, 5, 3, 7, 2, 7, 3, 9, 0, 0, 6, 7, 7, 10, 1, 0, 0, 0, 5, 9, 8, 7, 8, 6, 5, 7, 3, 5, 0, 9, 3, 0, 5, 8, 0, 3, 4, 5, 10, 2, 10, 6, 0, 3, 4, 2, 0, 7, 9, 0, 8, 0, 3, 4, 10, 4, 7, 3, 8, 8, 0, 7, 0, 6, 0, 0, 4, 9, 0, 0, 6, 10, 1, 9, 10, 5, 3, 0, 0, 0, 8, 3, 0, 6, 1, 2, 1, 1, 0, 8, 6, 7, 9, 4, 9, 4, 4, 0, 5, 4, 10, 7, 8, 8, 10, 8, 0, 2, 0, 1, 6, 0, 2, 0, 10, 6, 0, 0, 9, 6, 5, 0, 0, 0, 9, 2, 5, 4, 0, 1, 10, 0, 4, 5, 3, 5, 0, 0, 0, 0]);

suc = [
   {2, 3, 4},
   {8, 16, 5},
   {14, 6, 7},
   {20, 29},
   {25, 12, 21},
   {10, 12, 28},
   {9, 18},
   {9, 13, 15},
   {26, 11},
   {33, 29, 23},
   {48, 20, 28},
   {17, 19},
   {56, 20, 45},
   {17, 43, 22},
   {49, 58},
   {44, 22},
   {24, 18, 39},
   {41, 34, 42},
   {24, 38},
   {37, 21},
   {51, 46, 31},
   {36, 46, 31},
   {32, 38},
   {35, 26, 27},
   {48, 36, 54},
   {40, 30},
   {40, 50, 36},
   {34, 38, 31},
   {41, 30},
   {34, 42, 53},
   {58, 60},
   {35, 37},
   {50, 35, 45},
   {59},
   {48, 41, 53},
   {49, 61},
   {44, 39},
   {40, 44, 39},
   {50, 53},
   {42, 51},
   {49, 47},
   {56, 47},
   {59, 45},
   {46, 47},
   {57},
   {52},
   {52, 55},
   {61, 55},
   {56},
   {51, 52},
   {57, 55},
   {54},
   {54},
   {57},
   {59},
   {60},
   {58, 60},
   {61},
   {62},
   {62},
   {62},
   {  } ];

deadline = array2d(1..62, 1..3, [4, 2, 4, 11, 4, 0, 14, 3, 3, 15, 4, 1, 15, 2, 3, 16, 3, 5, 17, 0, 1, 18, 2, 5, 24, 4, 0, 27, 3, 0, 29, 3, 2, 35, 5, 4, 35, 5, 5, 36, 4, 2, 42, 3, 1, 48, 5, 3, 50, 4, 1, 51, 3, 2, 53, 1, 5, 56, 1, 3, 57, 1, 2, 59, 2, 0, 76, 0, 2, 76, 3, 1, 77, 4, 5, 82, 0, 2, 90, 2, 2, 90, 0, 4, 92, 3, 4, 95, 5, 4, 111, 2, 0, 111, 3, 0, 114, 0, 5, 115, 2, 0, 115, 1, 1, 118, 1, 0, 119, 1, 0, 124, 4, 1, 131, 2, 4, 135, 1, 5, 138, 3, 1, 139, 1, 5, 140, 3, 1, 140, 0, 3, 142, 2, 4, 145, 3, 3, 146, 0, 4, 148, 5, 1, 154, 1, 4, 161, 2, 5, 166, 0, 5, 176, 2, 4, 181, 2, 5, 182, 0, 0, 182, 1, 4, 183, 4, 1, 184, 1, 0, 184, 5, 3, 185, 1, 3, 187, 3, 3, 194, 0, 1, 202, 4, 3]);
