n_res = 4;
rc = [ 40, 44, 32, 44 ];
n_tasks = 62;
d = [0, 8, 5, 10, 2, 5, 8, 6, 4, 5, 1, 9, 1, 9, 1, 8, 1, 9, 8, 8, 4, 4, 6, 9, 1, 5, 2, 3, 7, 3, 3, 4, 6, 5, 10, 7, 2, 1, 7, 3, 4, 4, 1, 6, 9, 4, 4, 10, 2, 5, 5, 10, 6, 1, 3, 2, 5, 10, 5, 4, 2, 0];
rr = array2d(1..4, 1..62, [0, 3, 5, 0, 2, 10, 6, 4, 3, 9, 7, 10, 4, 0, 4, 8, 3, 0, 2, 0, 3, 2, 4, 6, 0, 0, 2, 9, 3, 7, 0, 7, 5, 7, 5, 7, 10, 1, 3, 10, 0, 1, 2, 10, 0, 7, 7, 1, 1, 4, 8, 4, 2, 9, 0, 10, 4, 8, 0, 3, 0, 0, 0, 6, 5, 8, 7, 10, 3, 3, 1, 4, 7, 7, 10, 3, 6, 0, 2, 0, 0, 7, 10, 10, 7, 8, 6, 2, 9, 7, 0, 7, 9, 0, 8, 1, 0, 9, 0, 0, 0, 0, 4, 4, 0, 0, 7, 5, 0, 9, 3, 3, 5, 10, 0, 7, 7, 0, 0, 3, 9, 3, 4, 0, 0, 2, 1, 4, 7, 7, 8, 0, 6, 0, 0, 5, 4, 2, 4, 9, 0, 1, 0, 1, 0, 3, 9, 9, 10, 1, 7, 7, 0, 0, 0, 3, 0, 4, 10, 4, 7, 3, 3, 6, 0, 10, 10, 7, 4, 8, 2, 8, 3, 3, 0, 0, 6, 0, 10, 8, 3, 0, 0, 10, 3, 0, 0, 0, 3, 0, 1, 3, 0, 0, 8, 3, 1, 0, 0, 9, 2, 2, 0, 0, 5, 7, 10, 4, 3, 2, 4, 10, 7, 6, 1, 7, 8, 5, 1, 10, 0, 6, 2, 0, 4, 0, 1, 5, 6, 4, 3, 0, 2, 10, 6, 4, 4, 5, 2, 7, 7, 0, 0, 4, 8, 6, 0, 0]);

suc = [
   {2, 3, 4},
   {34, 28, 6},
   {33, 31, 7},
   {8, 5, 6},
   {9, 14, 15},
   {27},
   {9, 10, 26},
   {40, 34, 20},
   {12, 13, 30},
   {27, 11, 21},
   {48, 35},
   {16, 17, 24},
   {38},
   {44, 22},
   {18, 19, 23},
   {32},
   {57},
   {25, 28},
   {48, 50, 22},
   {32, 49, 58},
   {42},
   {53, 37, 54},
   {58},
   {36, 46, 52},
   {49},
   {51},
   {41, 29},
   {33, 36, 31},
   {50, 35},
   {36},
   {45, 54, 47},
   {59, 38, 47},
   {44},
   {43, 44},
   {45, 38},
   {55},
   {39},
   {51, 43},
   {51, 45},
   {53, 46},
   {60},
   {50, 54},
   {60},
   {56},
   {52},
   {56, 49, 47},
   {48},
   {55},
   {55},
   {58},
   {52, 61},
   {60},
   {57},
   {56},
   {61},
   {57, 61},
   {59},
   {59},
   {62},
   {62},
   {62},
   {  } ];

deadline = array2d(1..62, 1..3, [3, 0, 0, 4, 5, 5, 5, 2, 2, 8, 1, 1, 13, 5, 3, 17, 3, 1, 19, 4, 2, 19, 2, 3, 20, 0, 2, 22, 1, 2, 23, 3, 3, 29, 1, 2, 31, 4, 2, 38, 5, 4, 38, 2, 4, 39, 1, 5, 40, 2, 0, 45, 1, 2, 47, 5, 1, 48, 3, 3, 49, 3, 2, 54, 5, 2, 55, 3, 0, 59, 0, 0, 59, 4, 2, 65, 3, 5, 68, 0, 4, 69, 0, 0, 72, 4, 1, 79, 0, 1, 80, 1, 3, 80, 5, 4, 81, 5, 4, 81, 4, 5, 82, 0, 2, 82, 4, 2, 83, 2, 0, 84, 0, 0, 85, 3, 2, 86, 2, 5, 86, 5, 1, 87, 4, 4, 89, 1, 0, 91, 2, 0, 97, 0, 2, 98, 3, 0, 99, 0, 4, 100, 5, 5, 105, 4, 3, 114, 2, 4, 122, 1, 3, 128, 0, 2, 130, 2, 3, 131, 4, 0, 135, 5, 4, 135, 1, 1, 138, 1, 2, 140, 3, 4, 142, 2, 0, 142, 1, 5, 143, 1, 0, 144, 3, 1]);
