n_res = 4;
rc = [ 22, 23, 33, 23 ];
n_tasks = 62;
d = [0, 8, 8, 5, 1, 6, 8, 1, 5, 5, 9, 3, 7, 7, 4, 8, 2, 6, 6, 10, 2, 2, 6, 1, 9, 6, 5, 3, 9, 5, 8, 5, 6, 5, 2, 1, 2, 8, 9, 9, 8, 2, 4, 2, 4, 6, 7, 2, 1, 6, 7, 7, 8, 4, 2, 9, 1, 6, 8, 7, 9, 0];
rr = array2d(1..4, 1..62, [0, 0, 0, 6, 0, 9, 8, 9, 0, 0, 1, 2, 8, 0, 0, 3, 0, 0, 0, 2, 7, 9, 6, 5, 2, 0, 0, 0, 0, 0, 10, 0, 0, 10, 1, 10, 0, 0, 0, 7, 2, 0, 7, 0, 0, 3, 2, 5, 0, 0, 1, 0, 0, 4, 8, 0, 7, 8, 6, 0, 6, 0, 0, 3, 8, 0, 4, 0, 0, 10, 3, 0, 0, 5, 0, 4, 9, 0, 5, 0, 0, 2, 3, 0, 0, 0, 0, 1, 6, 6, 0, 5, 0, 0, 0, 0, 0, 0, 9, 0, 0, 7, 0, 0, 0, 0, 10, 0, 2, 7, 4, 2, 3, 7, 8, 0, 10, 0, 0, 0, 0, 4, 0, 0, 0, 5, 4, 0, 9, 1, 5, 0, 0, 10, 0, 7, 5, 0, 10, 0, 3, 6, 10, 3, 0, 0, 0, 8, 0, 5, 8, 2, 4, 0, 0, 10, 0, 0, 0, 0, 2, 2, 9, 0, 0, 9, 6, 0, 2, 0, 3, 0, 0, 0, 2, 5, 6, 9, 0, 6, 0, 0, 0, 4, 0, 0, 0, 0, 0, 7, 7, 0, 0, 8, 5, 0, 0, 0, 0, 1, 0, 0, 5, 0, 0, 0, 2, 3, 0, 0, 4, 0, 0, 0, 5, 2, 0, 0, 8, 0, 6, 5, 0, 7, 0, 6, 0, 3, 5, 6, 2, 10, 0, 0, 8, 5, 0, 3, 8, 9, 0, 7, 1, 3, 0, 9, 9, 0]);

suc = [
   {2, 3, 4},
   {25, 11, 22},
   {8, 29, 6},
   {52, 5, 54},
   {53, 21, 7},
   {38, 9, 22},
   {18, 12, 14},
   {10, 42, 39},
   {16, 24, 13},
   {19, 44, 55},
   {16, 43},
   {17, 35, 29},
   {48, 25, 15},
   {43, 19, 31},
   {19, 52, 30},
   {46, 28, 36},
   {20, 31},
   {48, 34, 30},
   {41, 35},
   {40, 30, 23},
   {41, 51, 60},
   {33, 45, 37},
   {34, 27, 38},
   {32, 25, 36},
   {26, 45, 54},
   {33, 35},
   {32, 42, 36},
   {53, 54, 39},
   {40, 47, 31},
   {32, 44, 39},
   {41, 37, 38},
   {60},
   {52, 53, 46},
   {42, 45},
   {50, 37},
   {50},
   {58},
   {49, 55},
   {50},
   {48, 44, 46},
   {56},
   {43, 47},
   {61},
   {49},
   {47},
   {55},
   {51, 61},
   {56, 49},
   {58},
   {57, 51},
   {59},
   {56},
   {59},
   {59},
   {57, 58},
   {57},
   {61},
   {60},
   {62},
   {62},
   {62},
   {  } ];

deadline = array2d(1..62, 1..3, [1, 3, 1, 1, 0, 2, 6, 5, 4, 6, 1, 5, 9, 0, 1, 9, 1, 2, 11, 0, 0, 15, 5, 2, 18, 2, 3, 19, 3, 3, 21, 4, 2, 22, 4, 4, 24, 0, 4, 24, 0, 0, 26, 5, 1, 27, 5, 5, 29, 3, 0, 30, 2, 1, 31, 3, 2, 32, 4, 3, 34, 2, 1, 36, 4, 1, 48, 0, 2, 48, 1, 4, 54, 1, 2, 56, 0, 0, 68, 5, 5, 71, 2, 2, 73, 5, 5, 75, 2, 2, 81, 0, 3, 81, 4, 3, 84, 4, 3, 91, 4, 3, 96, 1, 0, 97, 3, 5, 99, 4, 5, 105, 3, 1, 116, 4, 4, 117, 4, 1, 122, 2, 1, 122, 0, 2, 123, 0, 1, 126, 0, 2, 127, 3, 4, 127, 2, 4, 134, 2, 2, 137, 4, 4, 137, 4, 4, 138, 2, 1, 138, 1, 4, 142, 4, 2, 146, 5, 1, 154, 5, 5, 159, 5, 4, 164, 2, 3, 168, 3, 0, 169, 5, 3, 173, 0, 5, 175, 0, 4, 176, 3, 1, 181, 4, 2]);
