n_res = 4;
rc = [ 24, 40, 33, 46 ];
n_tasks = 62;
d = [0, 2, 6, 7, 5, 3, 10, 2, 4, 1, 3, 7, 5, 9, 4, 7, 3, 9, 5, 8, 9, 8, 3, 10, 1, 6, 9, 2, 2, 5, 1, 9, 6, 5, 5, 8, 6, 6, 9, 3, 1, 6, 6, 6, 4, 5, 1, 9, 5, 6, 8, 2, 4, 10, 1, 1, 10, 1, 7, 5, 2, 0];
rr = array2d(1..4, 1..62, [0, 4, 0, 0, 0, 2, 0, 0, 0, 7, 5, 5, 3, 4, 4, 0, 5, 0, 7, 0, 0, 1, 0, 0, 3, 7, 0, 0, 8, 2, 10, 0, 5, 0, 4, 0, 0, 0, 0, 4, 7, 5, 0, 0, 0, 0, 0, 0, 0, 9, 0, 0, 0, 9, 10, 6, 8, 3, 3, 0, 0, 0, 0, 0, 6, 0, 0, 0, 10, 4, 0, 0, 0, 1, 0, 4, 0, 6, 0, 8, 0, 0, 6, 2, 1, 0, 9, 7, 9, 0, 0, 2, 0, 0, 0, 7, 0, 6, 8, 3, 7, 5, 0, 0, 9, 6, 0, 0, 0, 5, 7, 0, 6, 0, 1, 1, 0, 10, 0, 7, 0, 3, 8, 0, 0, 0, 0, 0, 0, 0, 4, 0, 9, 5, 0, 0, 0, 0, 7, 0, 0, 0, 2, 2, 1, 0, 1, 0, 0, 0, 0, 0, 0, 10, 8, 1, 7, 0, 9, 9, 0, 0, 6, 0, 1, 2, 3, 3, 4, 1, 0, 10, 6, 6, 0, 5, 0, 0, 0, 8, 0, 0, 0, 0, 4, 0, 0, 2, 0, 5, 1, 10, 8, 0, 2, 0, 5, 0, 6, 8, 7, 10, 0, 2, 0, 9, 1, 3, 0, 5, 7, 1, 9, 9, 2, 10, 3, 0, 0, 0, 0, 0, 2, 0, 0, 0, 9, 3, 0, 10, 0, 7, 8, 4, 0, 0, 0, 8, 10, 0, 0, 0, 8, 0, 7, 2, 0, 0]);

suc = [
   {2, 3, 4},
   {8, 28, 5},
   {24, 17, 53},
   {29, 14, 7},
   {9, 11, 6},
   {56, 39},
   {44},
   {49, 10, 51},
   {20, 30},
   {32},
   {18, 12, 13},
   {16, 15},
   {14},
   {32, 41, 21},
   {21, 54, 23},
   {19, 22},
   {26},
   {34, 43},
   {25, 20},
   {52, 54, 23},
   {56},
   {43, 23},
   {31},
   {48, 44},
   {33, 50},
   {27},
   {57, 42, 38},
   {34, 29, 30},
   {46, 38},
   {48, 35, 55},
   {40, 53},
   {36, 38, 39},
   {40, 42, 51},
   {55},
   {37, 46},
   {59, 47},
   {42, 54},
   {45},
   {60},
   {45, 46},
   {43},
   {58, 52},
   {51, 47},
   {49, 47},
   {48, 55},
   {49, 57},
   {52},
   {59},
   {56},
   {58},
   {53},
   {61},
   {57, 61},
   {58},
   {60},
   {61},
   {59},
   {60},
   {62},
   {62},
   {62},
   {  } ];

deadline = array2d(1..62, 1..3, [1, 5, 3, 5, 2, 0, 13, 4, 1, 18, 2, 5, 19, 4, 1, 21, 5, 0, 22, 2, 1, 22, 4, 4, 23, 0, 0, 23, 4, 2, 23, 4, 5, 32, 4, 2, 34, 1, 0, 36, 2, 1, 39, 4, 1, 41, 3, 3, 46, 2, 3, 49, 1, 4, 49, 5, 0, 51, 2, 0, 55, 3, 2, 62, 1, 1, 65, 3, 0, 73, 1, 1, 80, 4, 5, 83, 0, 0, 85, 5, 2, 88, 3, 5, 92, 1, 4, 94, 4, 3, 94, 2, 3, 95, 1, 3, 95, 5, 2, 96, 0, 5, 99, 2, 3, 101, 0, 2, 103, 3, 1, 107, 4, 3, 107, 3, 4, 109, 3, 4, 110, 0, 0, 112, 3, 1, 114, 4, 0, 116, 3, 5, 118, 2, 5, 122, 0, 2, 124, 2, 4, 125, 0, 2, 126, 0, 3, 127, 2, 0, 132, 0, 5, 134, 4, 1, 141, 1, 5, 143, 5, 0, 145, 0, 2, 147, 5, 3, 148, 1, 2, 150, 2, 4, 155, 2, 1, 157, 3, 5, 159, 3, 0, 161, 3, 3]);
