n_res = 4;
rc = [ 25, 17, 31, 32 ];
n_tasks = 62;
d = [0, 10, 8, 1, 3, 1, 9, 7, 1, 7, 6, 2, 6, 10, 6, 3, 1, 2, 3, 8, 8, 3, 8, 5, 3, 8, 5, 9, 4, 6, 9, 6, 8, 6, 1, 4, 1, 9, 4, 6, 1, 2, 3, 4, 10, 3, 5, 5, 6, 8, 5, 5, 5, 10, 10, 9, 9, 5, 7, 7, 5, 0];
rr = array2d(1..4, 1..62, [0, 8, 1, 0, 6, 0, 0, 2, 0, 0, 0, 0, 0, 3, 4, 0, 10, 0, 0, 9, 9, 0, 0, 0, 0, 9, 4, 0, 0, 2, 0, 0, 0, 2, 0, 3, 0, 0, 0, 7, 3, 0, 0, 6, 0, 0, 4, 3, 3, 7, 1, 1, 7, 5, 0, 0, 2, 0, 0, 2, 3, 0, 0, 9, 0, 1, 0, 1, 0, 0, 0, 0, 0, 1, 5, 2, 0, 0, 0, 2, 2, 2, 3, 0, 10, 0, 0, 10, 1, 3, 3, 2, 5, 4, 0, 0, 0, 3, 2, 0, 2, 0, 1, 1, 0, 7, 0, 8, 0, 0, 0, 0, 0, 0, 0, 2, 2, 0, 3, 0, 0, 6, 5, 0, 0, 5, 9, 0, 9, 2, 3, 0, 9, 0, 0, 9, 0, 0, 9, 0, 8, 3, 10, 0, 0, 0, 10, 0, 0, 0, 7, 0, 0, 0, 0, 0, 0, 10, 0, 4, 0, 7, 7, 0, 2, 8, 2, 3, 5, 8, 2, 9, 8, 6, 0, 0, 0, 0, 0, 7, 0, 5, 6, 0, 9, 0, 0, 7, 8, 7, 0, 10, 0, 0, 0, 1, 8, 0, 0, 0, 0, 7, 9, 0, 0, 7, 9, 9, 0, 1, 8, 0, 8, 7, 6, 0, 0, 0, 5, 0, 3, 0, 1, 0, 0, 10, 0, 8, 7, 8, 10, 7, 0, 1, 0, 0, 4, 0, 2, 0, 0, 2, 3, 0, 0, 5, 6, 0]);

suc = [
   {2, 3, 4},
   {10, 5},
   {17, 12, 7},
   {16, 19, 6},
   {24, 11},
   {9, 27, 23},
   {8, 29},
   {39, 15},
   {52, 61, 30},
   {21, 51, 13},
   {56, 19, 36},
   {18, 43, 14},
   {16},
   {20, 28, 22},
   {41, 54, 47},
   {53, 38, 55},
   {45},
   {31},
   {32, 38},
   {24},
   {28},
   {25, 34, 41},
   {40, 33},
   {26, 35},
   {29},
   {30},
   {57, 42},
   {61, 37, 30},
   {57, 46},
   {48, 44},
   {35, 44},
   {50, 37},
   {49, 34, 37},
   {45},
   {48, 47},
   {40},
   {52},
   {46},
   {56, 42, 43},
   {43, 45},
   {56, 53, 55},
   {53},
   {46},
   {59},
   {48, 50, 51},
   {47},
   {49, 50},
   {58},
   {61},
   {60},
   {52, 54},
   {55},
   {58, 59},
   {59},
   {57},
   {58},
   {60},
   {60},
   {62},
   {62},
   {62},
   {  } ];

deadline = array2d(1..62, 1..3, [5, 1, 4, 10, 5, 3, 17, 2, 2, 20, 4, 3, 22, 4, 2, 23, 3, 1, 24, 2, 2, 26, 4, 5, 27, 4, 0, 29, 3, 1, 30, 5, 1, 36, 5, 1, 36, 0, 5, 37, 1, 3, 38, 1, 5, 46, 4, 0, 48, 2, 3, 50, 4, 4, 51, 0, 5, 52, 3, 5, 53, 1, 1, 54, 0, 1, 54, 2, 2, 56, 1, 0, 57, 2, 1, 58, 4, 5, 59, 3, 0, 59, 0, 5, 68, 0, 1, 69, 0, 2, 70, 5, 4, 74, 4, 1, 78, 0, 5, 78, 0, 0, 83, 4, 3, 87, 3, 2, 100, 4, 2, 103, 2, 4, 111, 4, 0, 111, 2, 2, 114, 1, 3, 116, 3, 3, 116, 0, 0, 120, 4, 1, 124, 0, 0, 125, 4, 0, 133, 2, 4, 136, 0, 0, 139, 4, 3, 142, 2, 2, 144, 1, 3, 144, 5, 4, 146, 0, 1, 147, 2, 0, 147, 3, 2, 149, 2, 4, 158, 4, 5, 160, 0, 4, 160, 2, 4, 163, 0, 1, 176, 2, 0, 178, 1, 3]);
