n_res = 4;
rc = [ 50, 50, 47, 38 ];
n_tasks = 62;
d = [0, 5, 3, 2, 9, 1, 8, 8, 3, 9, 4, 1, 9, 9, 10, 8, 6, 8, 2, 2, 8, 8, 6, 2, 6, 7, 3, 3, 6, 7, 3, 6, 1, 8, 3, 8, 9, 9, 3, 1, 9, 10, 1, 6, 10, 6, 10, 3, 9, 7, 8, 5, 8, 10, 10, 1, 9, 4, 7, 9, 9, 0];
rr = array2d(1..4, 1..62, [0, 10, 8, 2, 6, 7, 0, 1, 3, 6, 0, 10, 10, 6, 7, 8, 10, 4, 9, 0, 0, 10, 10, 10, 6, 9, 8, 0, 0, 9, 2, 3, 2, 0, 4, 3, 0, 6, 5, 4, 0, 2, 9, 3, 8, 10, 10, 0, 0, 0, 4, 2, 6, 2, 0, 3, 6, 3, 0, 5, 5, 0, 0, 0, 0, 7, 6, 0, 7, 0, 3, 9, 5, 4, 5, 8, 3, 7, 8, 8, 3, 6, 7, 0, 5, 6, 5, 8, 6, 0, 5, 9, 6, 9, 5, 0, 9, 0, 5, 3, 0, 6, 5, 0, 3, 5, 2, 0, 1, 9, 6, 0, 4, 9, 0, 5, 0, 9, 3, 0, 3, 3, 6, 0, 0, 3, 3, 0, 0, 8, 1, 0, 9, 1, 1, 5, 9, 0, 6, 0, 8, 5, 0, 1, 7, 8, 3, 0, 0, 6, 7, 9, 10, 0, 5, 10, 6, 6, 0, 9, 0, 4, 8, 10, 10, 5, 7, 1, 2, 0, 4, 8, 4, 10, 6, 0, 6, 2, 7, 2, 2, 8, 9, 3, 0, 0, 0, 9, 5, 0, 0, 8, 0, 10, 8, 4, 0, 0, 8, 5, 0, 6, 7, 0, 8, 7, 0, 2, 5, 6, 6, 0, 0, 9, 3, 9, 0, 5, 7, 7, 10, 2, 0, 0, 0, 2, 6, 2, 4, 8, 9, 3, 5, 0, 2, 8, 0, 6, 3, 10, 1, 1, 4, 4, 3, 10, 6, 0]);

suc = [
   {2, 3, 4},
   {10, 5, 7},
   {20, 29, 14},
   {17, 6, 30},
   {32, 58, 54},
   {8, 39, 15},
   {12, 13, 36},
   {9, 28, 49},
   {24, 48, 44},
   {33, 11, 38},
   {16, 29},
   {25, 18, 27},
   {19, 28, 55},
   {32, 19, 36},
   {36, 29, 22},
   {48, 35, 22},
   {24, 33, 27},
   {21, 39},
   {34, 42, 52},
   {57, 37, 30},
   {26, 46, 23},
   {28, 23},
   {42, 44, 55},
   {51, 50, 35},
   {26, 55},
   {33, 41},
   {42, 35, 53},
   {40, 50, 43},
   {61, 45, 37},
   {31},
   {34, 44, 38},
   {41, 49, 47},
   {43, 45},
   {50, 51, 39},
   {40, 45, 37},
   {46},
   {41},
   {40, 48},
   {58},
   {60, 46},
   {59},
   {49, 43},
   {57, 47},
   {53},
   {52},
   {52, 47},
   {56},
   {61},
   {57, 51},
   {53, 54},
   {60},
   {54},
   {56, 58},
   {56},
   {59},
   {59},
   {60},
   {61},
   {62},
   {62},
   {62},
   {  } ];

deadline = array2d(1..62, 1..3, [3, 3, 0, 5, 5, 4, 14, 1, 3, 16, 4, 0, 16, 1, 2, 17, 2, 0, 22, 4, 3, 25, 0, 0, 27, 5, 2, 27, 5, 4, 29, 3, 5, 30, 0, 0, 32, 0, 0, 36, 0, 2, 37, 1, 4, 40, 4, 2, 43, 1, 1, 44, 5, 1, 45, 4, 3, 45, 3, 0, 49, 4, 4, 49, 0, 0, 53, 0, 0, 55, 0, 0, 57, 0, 0, 58, 0, 3, 62, 3, 3, 64, 5, 4, 68, 0, 4, 80, 3, 5, 81, 4, 3, 81, 0, 2, 88, 3, 4, 93, 0, 3, 97, 1, 2, 100, 3, 5, 106, 1, 3, 107, 3, 4, 111, 0, 2, 118, 0, 4, 121, 4, 5, 125, 2, 5, 132, 5, 0, 133, 1, 1, 141, 0, 2, 144, 4, 5, 144, 0, 3, 151, 3, 1, 152, 2, 2, 154, 3, 5, 155, 5, 3, 157, 1, 4, 158, 2, 5, 163, 3, 2, 178, 2, 4, 181, 5, 3, 181, 1, 4, 183, 5, 0, 187, 2, 3, 188, 1, 0, 189, 2, 1, 190, 3, 2]);
