n_res = 4;
rc = [ 21, 21, 19, 21 ];
n_tasks = 62;
d = [0, 2, 5, 4, 9, 6, 3, 10, 10, 2, 6, 4, 6, 10, 6, 4, 7, 10, 4, 7, 7, 6, 6, 6, 3, 1, 8, 5, 6, 8, 4, 4, 7, 2, 1, 5, 3, 8, 10, 8, 2, 3, 6, 6, 1, 9, 9, 4, 10, 10, 3, 10, 7, 8, 4, 5, 2, 1, 10, 4, 5, 0];
rr = array2d(1..4, 1..62, [0, 0, 0, 0, 3, 0, 0, 0, 0, 0, 0, 4, 0, 4, 0, 0, 8, 0, 0, 0, 0, 0, 0, 0, 0, 0, 0, 6, 0, 0, 0, 0, 0, 0, 0, 10, 0, 0, 0, 0, 4, 7, 0, 0, 0, 8, 5, 0, 0, 5, 0, 0, 0, 0, 0, 0, 0, 0, 7, 0, 0, 0, 0, 0, 0, 0, 0, 7, 2, 9, 0, 0, 0, 0, 2, 0, 0, 0, 0, 0, 5, 0, 7, 0, 0, 2, 6, 0, 0, 0, 0, 0, 4, 0, 0, 0, 0, 0, 0, 0, 10, 0, 0, 0, 2, 7, 0, 0, 0, 0, 0, 0, 0, 6, 0, 0, 0, 0, 0, 0, 0, 0, 3, 0, 0, 9, 0, 0, 0, 0, 0, 0, 0, 0, 10, 0, 0, 0, 0, 1, 0, 5, 0, 5, 0, 0, 9, 0, 0, 0, 0, 0, 0, 9, 0, 4, 0, 7, 0, 0, 0, 1, 0, 0, 0, 0, 0, 0, 0, 0, 0, 10, 0, 0, 4, 0, 8, 0, 0, 3, 10, 8, 0, 5, 0, 0, 0, 0, 1, 10, 0, 0, 0, 0, 8, 6, 0, 0, 0, 0, 1, 0, 0, 0, 0, 0, 0, 6, 0, 0, 0, 10, 8, 0, 9, 0, 0, 0, 8, 0, 2, 0, 2, 0, 0, 2, 0, 0, 0, 0, 1, 0, 0, 0, 6, 0, 0, 0, 0, 2, 7, 0, 0, 0, 0, 0, 0, 0]);

suc = [
   {2, 3, 4},
   {8, 36, 46},
   {9},
   {32, 10, 5},
   {9, 6, 7},
   {59, 45},
   {33, 11, 38},
   {17, 59, 31},
   {16, 20},
   {12, 13, 44},
   {14, 15},
   {31, 23},
   {18, 27, 37},
   {17},
   {21},
   {27, 19},
   {26, 29},
   {29, 23},
   {39},
   {24, 61, 30},
   {48, 44, 22},
   {41, 42, 28},
   {58, 35, 38},
   {48, 25},
   {59},
   {37, 30, 55},
   {39},
   {45},
   {52},
   {49},
   {33, 43, 37},
   {34, 50, 54},
   {35},
   {40, 42, 36},
   {52, 54},
   {51},
   {47},
   {41, 43},
   {48, 51},
   {61, 53},
   {51, 52},
   {49, 46, 47},
   {54},
   {56, 45, 47},
   {50},
   {58, 53},
   {57},
   {49},
   {56},
   {58},
   {55},
   {53, 55},
   {60},
   {56},
   {57},
   {60},
   {61},
   {60},
   {62},
   {62},
   {62},
   {  } ];

deadline = array2d(1..62, 1..3, [2, 0, 1, 3, 2, 4, 5, 4, 5, 8, 1, 2, 13, 5, 1, 18, 5, 1, 20, 0, 1, 23, 0, 4, 25, 3, 1, 29, 2, 1, 29, 5, 5, 32, 1, 2, 32, 4, 4, 33, 5, 4, 33, 2, 1, 33, 5, 2, 36, 4, 3, 48, 0, 5, 53, 2, 5, 54, 4, 2, 56, 1, 2, 61, 1, 5, 63, 3, 3, 68, 0, 1, 69, 0, 5, 71, 0, 5, 71, 1, 3, 73, 4, 5, 77, 3, 4, 79, 0, 0, 85, 2, 3, 86, 0, 2, 91, 0, 0, 96, 4, 3, 96, 2, 5, 103, 2, 3, 103, 3, 4, 109, 1, 0, 111, 2, 3, 113, 1, 0, 115, 5, 1, 116, 2, 4, 127, 4, 0, 130, 4, 3, 132, 3, 1, 133, 5, 1, 135, 5, 3, 138, 3, 2, 138, 2, 5, 139, 4, 3, 144, 2, 0, 147, 2, 1, 147, 5, 1, 147, 3, 1, 152, 0, 2, 154, 2, 1, 156, 0, 3, 157, 4, 3, 163, 0, 2, 164, 0, 3, 168, 1, 3, 170, 3, 2]);
