n_res = 4;
rc = [ 13, 15, 12, 12 ];
n_tasks = 62;
d = [0, 3, 4, 1, 8, 9, 2, 6, 4, 1, 2, 4, 3, 7, 8, 1, 9, 4, 7, 4, 3, 9, 3, 9, 7, 3, 2, 9, 1, 7, 6, 10, 9, 4, 3, 8, 10, 10, 8, 8, 8, 7, 2, 6, 6, 1, 1, 1, 9, 3, 7, 8, 4, 2, 7, 8, 7, 5, 3, 10, 1, 0];
rr = array2d(1..4, 1..62, [0, 3, 0, 9, 0, 0, 0, 5, 0, 0, 0, 0, 0, 0, 9, 0, 7, 0, 0, 4, 0, 0, 0, 0, 0, 0, 0, 1, 0, 0, 3, 0, 8, 5, 7, 0, 0, 0, 0, 5, 0, 0, 0, 8, 0, 0, 0, 0, 0, 0, 0, 8, 0, 0, 7, 0, 7, 0, 0, 0, 0, 0, 0, 0, 4, 0, 4, 7, 9, 0, 9, 0, 0, 5, 0, 0, 0, 0, 0, 0, 0, 0, 0, 8, 0, 8, 9, 0, 0, 0, 0, 0, 0, 3, 0, 0, 0, 0, 3, 10, 6, 0, 3, 0, 0, 0, 6, 8, 0, 0, 0, 0, 0, 0, 0, 0, 0, 0, 0, 9, 6, 4, 0, 0, 0, 0, 0, 0, 0, 0, 0, 0, 0, 0, 7, 0, 0, 0, 0, 3, 0, 0, 0, 0, 0, 0, 0, 0, 0, 10, 0, 0, 7, 0, 0, 0, 0, 0, 0, 0, 0, 0, 0, 0, 0, 8, 2, 0, 0, 0, 0, 0, 3, 10, 0, 0, 8, 7, 0, 0, 0, 0, 0, 0, 9, 0, 0, 0, 0, 0, 0, 0, 0, 0, 0, 9, 0, 0, 3, 5, 0, 0, 0, 7, 4, 0, 9, 0, 10, 0, 0, 0, 9, 0, 0, 10, 0, 0, 0, 0, 0, 2, 0, 0, 0, 0, 0, 0, 0, 0, 0, 0, 10, 6, 0, 0, 5, 0, 0, 0, 0, 5, 0, 0, 0, 0, 0, 0]);

suc = [
   {2, 3, 4},
   {21, 6},
   {33, 18, 5},
   {9, 12, 41},
   {11, 13, 7},
   {8, 17, 28},
   {29},
   {10, 26, 22},
   {34, 42},
   {34, 36, 47},
   {19, 37, 14},
   {16, 23},
   {25, 15},
   {40, 35, 52},
   {61, 45},
   {39, 30, 31},
   {24, 37},
   {42},
   {20},
   {23},
   {24},
   {38, 31},
   {56, 27, 46},
   {42, 60},
   {50, 35},
   {39},
   {32, 29},
   {59},
   {57},
   {33, 54, 47},
   {51},
   {60, 45, 55},
   {34, 44},
   {50, 37},
   {48, 43, 53},
   {44},
   {40},
   {58},
   {43, 44, 54},
   {49},
   {52, 46},
   {43, 53, 47},
   {61},
   {49, 45},
   {53},
   {48, 49},
   {56, 55},
   {54},
   {58, 51},
   {56, 51, 52},
   {55},
   {58},
   {57},
   {57},
   {59},
   {61},
   {59},
   {60},
   {62},
   {62},
   {62},
   {  } ];

deadline = array2d(1..62, 1..3, [6, 5, 2, 7, 4, 0, 8, 0, 3, 15, 1, 0, 18, 4, 3, 18, 1, 1, 21, 4, 0, 21, 4, 3, 22, 1, 2, 23, 1, 3, 26, 0, 1, 29, 2, 4, 30, 1, 4, 30, 1, 3, 32, 0, 3, 38, 4, 1, 42, 2, 1, 45, 1, 2, 48, 4, 5, 48, 3, 5, 52, 1, 3, 59, 1, 1, 68, 0, 3, 68, 1, 3, 71, 0, 3, 71, 1, 3, 72, 1, 1, 77, 5, 4, 80, 1, 5, 84, 2, 0, 88, 3, 3, 91, 5, 5, 91, 4, 4, 93, 1, 0, 95, 0, 3, 96, 1, 2, 97, 1, 0, 100, 1, 0, 103, 0, 5, 106, 5, 2, 114, 2, 0, 115, 4, 1, 120, 3, 1, 120, 4, 2, 122, 2, 0, 127, 1, 2, 129, 2, 4, 135, 5, 5, 136, 0, 5, 139, 4, 2, 143, 2, 2, 149, 2, 2, 150, 4, 5, 150, 4, 4, 151, 1, 4, 153, 1, 0, 158, 0, 0, 161, 1, 2, 165, 0, 5, 167, 1, 2, 174, 0, 4, 174, 1, 5]);
