n_res = 4;
rc = [ 45, 44, 42, 54 ];
n_tasks = 62;
d = [0, 7, 5, 9, 7, 4, 6, 10, 1, 8, 8, 10, 3, 6, 8, 10, 7, 6, 8, 7, 3, 1, 6, 6, 6, 5, 10, 7, 1, 1, 9, 1, 9, 2, 3, 10, 6, 10, 3, 3, 1, 2, 5, 2, 9, 2, 7, 3, 9, 10, 9, 2, 10, 10, 1, 3, 6, 1, 1, 4, 9, 0];
rr = array2d(1..4, 1..62, [0, 10, 2, 3, 3, 10, 5, 9, 4, 5, 7, 5, 4, 3, 9, 5, 4, 1, 3, 8, 9, 8, 7, 6, 5, 2, 9, 5, 3, 1, 4, 3, 9, 5, 9, 2, 5, 1, 10, 10, 10, 5, 2, 10, 2, 1, 4, 8, 2, 1, 1, 3, 8, 7, 4, 6, 10, 9, 2, 7, 5, 0, 0, 1, 6, 4, 10, 5, 1, 4, 2, 9, 1, 3, 3, 7, 9, 2, 6, 10, 9, 3, 3, 5, 1, 4, 9, 5, 2, 3, 6, 8, 9, 3, 5, 8, 5, 9, 7, 7, 10, 8, 4, 2, 9, 7, 8, 6, 2, 2, 9, 8, 10, 9, 10, 1, 2, 10, 5, 7, 2, 1, 6, 0, 0, 9, 3, 10, 2, 7, 3, 6, 1, 5, 7, 6, 2, 4, 9, 8, 3, 7, 4, 6, 5, 3, 6, 2, 3, 8, 5, 4, 10, 1, 2, 9, 7, 4, 4, 10, 8, 7, 4, 8, 8, 9, 1, 6, 10, 10, 7, 4, 2, 2, 7, 6, 10, 4, 7, 5, 9, 9, 10, 7, 9, 0, 0, 9, 7, 5, 2, 2, 3, 9, 6, 9, 4, 10, 3, 8, 7, 8, 3, 9, 3, 8, 4, 4, 8, 8, 10, 2, 9, 9, 5, 9, 2, 6, 6, 1, 4, 2, 3, 5, 1, 5, 5, 10, 5, 7, 9, 1, 8, 7, 8, 7, 6, 3, 6, 7, 3, 7, 9, 10, 5, 7, 2, 0]);

suc = [
   {2, 3, 4},
   {18, 5, 7},
   {41, 45, 30},
   {49, 28, 14},
   {8, 9, 6},
   {17, 34, 30},
   {12, 21, 15},
   {10, 50, 14},
   {19, 35, 11},
   {28, 22},
   {24, 49, 23},
   {57, 27, 13},
   {16, 26, 23},
   {16, 36, 47},
   {25, 20},
   {32, 20, 22},
   {29, 37, 21},
   {48, 50, 43},
   {27, 28, 29},
   {51, 44, 54},
   {26, 36, 38},
   {40, 52, 46},
   {34, 59, 44},
   {58, 61, 30},
   {26, 54, 31},
   {40, 44, 39},
   {32, 34},
   {45, 46, 39},
   {40, 33, 31},
   {43, 47, 31},
   {42, 36},
   {51, 55},
   {42, 38, 47},
   {46},
   {48, 37},
   {56, 55},
   {56, 38},
   {45, 39},
   {58, 52},
   {60},
   {49, 42, 43},
   {48},
   {53},
   {52},
   {57},
   {54},
   {51},
   {53},
   {50, 53},
   {58},
   {60},
   {61},
   {56},
   {61, 55},
   {60},
   {57},
   {59},
   {59},
   {62},
   {62},
   {62},
   {  } ];

deadline = array2d(1..62, 1..3, [2, 5, 1, 8, 2, 0, 11, 5, 4, 11, 0, 3, 13, 3, 2, 14, 4, 4, 14, 3, 1, 14, 5, 2, 19, 3, 4, 30, 3, 5, 36, 4, 3, 37, 4, 2, 38, 5, 4, 40, 5, 5, 40, 5, 5, 43, 5, 4, 44, 4, 3, 46, 1, 3, 47, 2, 4, 47, 2, 4, 51, 5, 2, 58, 3, 3, 59, 0, 0, 61, 0, 1, 68, 2, 1, 69, 5, 0, 71, 0, 3, 86, 2, 2, 87, 2, 4, 88, 4, 0, 90, 1, 2, 92, 1, 0, 94, 0, 2, 94, 1, 5, 95, 1, 0, 96, 4, 5, 97, 5, 4, 98, 5, 1, 98, 1, 5, 98, 5, 0, 99, 4, 3, 99, 5, 3, 102, 2, 5, 105, 2, 2, 107, 5, 3, 108, 3, 2, 109, 2, 5, 113, 0, 1, 116, 1, 1, 118, 5, 2, 120, 4, 0, 122, 0, 0, 124, 4, 3, 125, 0, 5, 138, 5, 5, 139, 1, 0, 143, 4, 3, 150, 0, 1, 152, 4, 4, 152, 5, 5, 156, 0, 1, 165, 0, 2]);
