n_res = 4;
rc = [ 35, 34, 30, 32 ];
n_tasks = 62;
d = [0, 5, 9, 5, 2, 8, 6, 6, 4, 6, 10, 8, 9, 9, 9, 6, 2, 8, 2, 6, 6, 4, 2, 3, 1, 4, 9, 10, 9, 4, 1, 8, 1, 2, 5, 5, 9, 10, 3, 7, 9, 7, 3, 8, 5, 1, 1, 4, 3, 3, 8, 2, 2, 5, 10, 8, 4, 8, 5, 2, 4, 0];
rr = array2d(1..4, 1..62, [0, 0, 5, 0, 8, 1, 10, 8, 8, 8, 0, 5, 1, 4, 8, 7, 7, 8, 6, 0, 0, 1, 3, 7, 10, 5, 1, 0, 9, 9, 8, 10, 7, 6, 7, 7, 5, 2, 9, 4, 2, 8, 0, 7, 3, 8, 3, 0, 5, 5, 3, 5, 10, 5, 8, 4, 0, 2, 0, 1, 6, 0, 0, 7, 0, 3, 0, 0, 7, 10, 4, 0, 0, 0, 3, 8, 5, 1, 0, 2, 2, 0, 4, 7, 0, 0, 9, 9, 0, 8, 4, 9, 0, 10, 1, 6, 8, 6, 0, 1, 8, 9, 0, 6, 9, 8, 0, 8, 9, 8, 2, 7, 3, 9, 7, 8, 9, 5, 7, 8, 2, 1, 4, 0, 0, 0, 10, 4, 3, 3, 9, 10, 0, 8, 9, 6, 9, 0, 0, 0, 10, 0, 5, 6, 9, 1, 0, 4, 7, 2, 0, 4, 3, 8, 2, 9, 2, 9, 2, 9, 6, 5, 0, 3, 0, 4, 2, 9, 0, 10, 7, 3, 0, 0, 8, 1, 8, 0, 6, 0, 8, 0, 0, 9, 0, 0, 0, 5, 1, 0, 10, 6, 9, 6, 2, 0, 1, 6, 0, 5, 8, 0, 4, 0, 9, 0, 0, 1, 0, 4, 3, 0, 9, 6, 3, 5, 0, 5, 9, 7, 5, 1, 10, 1, 6, 3, 4, 7, 9, 5, 6, 5, 8, 0, 0, 0, 0, 9, 1, 0, 10, 6, 3, 2, 9, 10, 0, 0]);

suc = [
   {2, 3, 4},
   {21, 46, 15},
   {8, 43, 5},
   {10, 28, 46},
   {11, 6, 7},
   {9, 36, 23},
   {16, 19, 13},
   {31, 14, 30},
   {10, 29},
   {17, 44, 37},
   {57, 12, 36},
   {50, 27, 20},
   {35, 37, 15},
   {17, 52, 21},
   {48, 18, 39},
   {24, 28, 53},
   {32, 33, 34},
   {34, 20, 22},
   {32, 25, 27},
   {59},
   {56, 22},
   {58, 27},
   {33, 49, 31},
   {35, 30, 39},
   {38, 26, 30},
   {35, 37, 47},
   {28, 45, 44},
   {61},
   {33, 52, 39},
   {41, 44, 60},
   {32, 34, 50},
   {40, 42},
   {40, 58, 47},
   {38},
   {41, 36, 55},
   {50},
   {48, 49},
   {40, 42, 53},
   {49, 42},
   {41, 61},
   {51},
   {45},
   {51, 52, 45},
   {61},
   {47},
   {53, 54, 55},
   {59},
   {55},
   {54},
   {51},
   {59},
   {54},
   {56, 58},
   {57},
   {56},
   {57},
   {60},
   {60},
   {62},
   {62},
   {62},
   {  } ];

deadline = array2d(1..62, 1..3, [2, 2, 5, 2, 0, 4, 2, 4, 2, 2, 3, 1, 2, 2, 4, 9, 2, 0, 9, 4, 1, 9, 0, 5, 11, 2, 0, 15, 4, 5, 19, 4, 2, 33, 1, 2, 36, 5, 1, 44, 3, 5, 49, 2, 2, 51, 2, 0, 62, 4, 5, 63, 4, 2, 64, 4, 3, 69, 4, 1, 70, 4, 1, 80, 3, 1, 81, 3, 1, 85, 0, 5, 90, 5, 3, 106, 1, 2, 106, 0, 0, 108, 2, 2, 112, 4, 2, 112, 1, 1, 120, 5, 4, 123, 0, 5, 124, 4, 2, 125, 5, 1, 128, 4, 1, 129, 2, 2, 134, 1, 0, 153, 3, 1, 159, 1, 2, 159, 5, 4, 162, 2, 4, 168, 5, 2, 168, 0, 1, 169, 2, 4, 171, 2, 3, 172, 1, 3, 175, 5, 4, 181, 1, 2, 182, 0, 0, 185, 4, 4, 186, 4, 2, 191, 3, 2, 192, 2, 4, 192, 2, 3, 192, 2, 1, 193, 0, 0, 195, 3, 5, 196, 1, 4, 201, 3, 5, 203, 1, 2, 207, 0, 0, 210, 2, 0]);
