n_res = 4;
rc = [ 42, 24, 32, 31 ];
n_tasks = 62;
d = [0, 10, 9, 1, 6, 5, 3, 1, 8, 1, 9, 9, 6, 1, 1, 7, 1, 7, 6, 3, 7, 4, 6, 3, 2, 3, 4, 1, 7, 6, 3, 5, 1, 5, 7, 10, 9, 6, 6, 2, 2, 10, 9, 1, 2, 1, 2, 9, 5, 8, 4, 3, 7, 1, 9, 1, 8, 1, 3, 10, 7, 0];
rr = array2d(1..4, 1..62, [0, 0, 7, 7, 8, 1, 8, 10, 6, 5, 10, 8, 10, 10, 6, 9, 9, 0, 10, 0, 2, 7, 10, 0, 3, 0, 4, 2, 5, 0, 0, 5, 10, 7, 9, 3, 5, 9, 6, 1, 6, 4, 1, 10, 0, 4, 7, 0, 6, 0, 0, 0, 2, 0, 2, 4, 0, 1, 10, 5, 8, 0, 0, 1, 6, 0, 2, 1, 2, 0, 7, 10, 1, 1, 3, 1, 4, 6, 4, 0, 0, 1, 9, 9, 0, 0, 5, 2, 3, 8, 3, 0, 10, 0, 10, 1, 3, 2, 5, 3, 0, 10, 0, 10, 0, 4, 0, 7, 9, 2, 2, 6, 3, 10, 0, 0, 0, 3, 8, 3, 0, 1, 2, 0, 0, 8, 5, 6, 5, 8, 9, 0, 4, 5, 1, 8, 2, 5, 6, 3, 0, 10, 3, 7, 8, 3, 0, 4, 2, 3, 0, 10, 1, 7, 8, 1, 0, 0, 6, 0, 0, 2, 6, 8, 5, 4, 8, 0, 0, 10, 4, 0, 3, 10, 7, 0, 5, 2, 0, 1, 8, 1, 6, 1, 6, 0, 0, 7, 2, 0, 7, 8, 0, 2, 5, 8, 1, 1, 3, 0, 0, 0, 4, 2, 1, 0, 1, 3, 0, 7, 7, 0, 10, 0, 3, 3, 6, 4, 0, 0, 1, 6, 10, 3, 9, 2, 0, 0, 5, 1, 5, 4, 7, 9, 0, 7, 8, 9, 8, 7, 2, 6, 9, 3, 0, 5, 0, 0]);

suc = [
   {2, 3, 4},
   {8, 35, 7},
   {17, 12, 23},
   {9, 5, 31},
   {10, 11, 6},
   {28, 13, 15},
   {34, 21, 14},
   {9, 29, 23},
   {43, 53, 39},
   {25, 20, 36},
   {24, 41, 23},
   {24, 27, 19},
   {38, 58, 14},
   {59, 46},
   {16, 33},
   {18, 43, 22},
   {32, 36, 52},
   {30, 47},
   {32, 25, 46},
   {32, 56, 39},
   {24, 50, 31},
   {40, 41, 26},
   {48, 34},
   {57, 47, 39},
   {38},
   {56, 30},
   {48, 33, 37},
   {33, 45, 30},
   {45, 47},
   {48, 58, 36},
   {42, 52},
   {40, 34, 37},
   {40, 43, 35},
   {51, 54, 55},
   {53},
   {44, 37},
   {60, 38},
   {49},
   {44},
   {49, 42, 55},
   {56, 42, 45},
   {61},
   {50, 44},
   {51, 46},
   {52},
   {54},
   {58},
   {49, 54},
   {50, 53},
   {51},
   {59},
   {55},
   {59},
   {60},
   {57},
   {57, 61},
   {60},
   {61},
   {62},
   {62},
   {62},
   {  } ];

deadline = array2d(1..62, 1..3, [5, 0, 4, 7, 2, 2, 17, 4, 5, 17, 3, 3, 20, 4, 0, 22, 2, 2, 23, 5, 3, 27, 5, 0, 29, 2, 2, 31, 3, 2, 32, 1, 4, 36, 0, 2, 38, 2, 0, 39, 3, 2, 40, 2, 2, 40, 3, 4, 46, 4, 4, 49, 3, 4, 50, 2, 0, 55, 5, 2, 58, 4, 2, 63, 3, 5, 63, 3, 3, 64, 3, 3, 64, 5, 5, 76, 4, 0, 77, 2, 2, 79, 3, 3, 79, 1, 4, 80, 0, 3, 80, 1, 3, 83, 4, 0, 93, 1, 3, 93, 4, 3, 97, 0, 3, 102, 4, 4, 105, 5, 2, 106, 4, 5, 112, 3, 4, 116, 4, 4, 121, 5, 5, 131, 5, 4, 133, 1, 0, 135, 3, 3, 135, 0, 3, 136, 0, 1, 138, 0, 2, 138, 2, 3, 143, 5, 2, 148, 3, 0, 149, 0, 0, 152, 3, 2, 164, 3, 2, 169, 2, 4, 171, 1, 3, 181, 0, 4, 184, 2, 1, 187, 5, 2, 192, 1, 4, 194, 4, 4, 194, 2, 1, 195, 4, 3]);
