n_res = 4;
rc = [ 29, 33, 24, 31 ];
n_tasks = 62;
d = [0, 2, 7, 2, 4, 4, 1, 5, 1, 7, 4, 9, 1, 8, 4, 3, 2, 9, 10, 8, 9, 1, 1, 1, 2, 1, 6, 2, 10, 3, 4, 4, 2, 5, 10, 1, 1, 2, 2, 1, 3, 2, 7, 4, 3, 10, 2, 5, 5, 2, 2, 6, 5, 4, 10, 8, 9, 8, 6, 8, 9, 0];
rr = array2d(1..4, 1..62, [0, 7, 0, 7, 3, 7, 2, 0, 4, 7, 2, 10, 10, 7, 0, 3, 0, 9, 0, 6, 2, 4, 2, 0, 5, 4, 0, 4, 6, 2, 7, 0, 10, 0, 2, 10, 1, 3, 3, 4, 7, 7, 3, 7, 2, 8, 7, 8, 0, 2, 3, 8, 0, 5, 1, 1, 9, 0, 0, 3, 8, 0, 0, 0, 1, 0, 2, 1, 2, 2, 7, 5, 1, 8, 3, 1, 0, 3, 1, 2, 6, 6, 6, 0, 0, 5, 8, 9, 9, 0, 9, 0, 3, 4, 9, 0, 0, 2, 4, 2, 2, 8, 7, 7, 5, 9, 0, 3, 0, 9, 5, 0, 3, 9, 0, 4, 2, 5, 10, 1, 0, 5, 1, 0, 0, 4, 10, 0, 0, 3, 3, 6, 7, 10, 6, 2, 1, 2, 3, 7, 2, 7, 4, 0, 0, 2, 0, 0, 0, 0, 1, 2, 5, 9, 7, 4, 5, 4, 0, 9, 1, 0, 2, 0, 9, 9, 6, 10, 4, 0, 0, 5, 1, 8, 0, 5, 3, 0, 7, 3, 6, 7, 7, 1, 10, 0, 0, 0, 0, 7, 3, 1, 6, 9, 3, 5, 8, 9, 9, 6, 10, 1, 2, 2, 10, 0, 0, 1, 7, 1, 0, 4, 7, 6, 10, 9, 4, 8, 0, 4, 6, 4, 2, 10, 0, 6, 0, 10, 0, 0, 9, 0, 2, 0, 0, 3, 0, 0, 7, 9, 7, 8, 0, 0, 5, 8, 5, 0]);

suc = [
   {2, 3, 4},
   {8, 49, 32},
   {9, 44, 5},
   {17, 33},
   {21, 6, 7},
   {50},
   {16, 12, 20},
   {10, 15},
   {24, 58, 28},
   {18, 11, 31},
   {25, 35, 13},
   {24, 27, 14},
   {44},
   {38, 26, 30},
   {19, 21, 23},
   {45, 29, 39},
   {48, 28, 36},
   {20},
   {41, 44},
   {22},
   {25, 59, 60},
   {35, 28},
   {24},
   {61},
   {61},
   {40, 43, 39},
   {57, 31},
   {61, 45},
   {34, 30},
   {41, 35},
   {37, 38},
   {34, 38},
   {56, 47},
   {57, 52, 37},
   {42, 43},
   {40},
   {53, 47},
   {40, 42},
   {42},
   {41},
   {50, 46},
   {47},
   {54},
   {48, 56, 59},
   {56},
   {51},
   {48, 58},
   {55},
   {55},
   {54},
   {52, 54},
   {53},
   {58},
   {55},
   {60},
   {57},
   {60},
   {59},
   {62},
   {62},
   {62},
   {  } ];

deadline = array2d(1..62, 1..3, [2, 4, 5, 4, 5, 2, 9, 2, 5, 12, 2, 0, 14, 5, 0, 21, 1, 1, 24, 2, 5, 26, 2, 4, 28, 4, 4, 29, 1, 3, 29, 4, 4, 30, 1, 4, 32, 5, 1, 38, 5, 3, 41, 3, 0, 42, 0, 4, 44, 5, 3, 54, 0, 4, 56, 2, 4, 63, 4, 3, 64, 2, 5, 69, 4, 4, 69, 3, 4, 70, 1, 0, 73, 3, 5, 73, 3, 5, 76, 3, 5, 78, 2, 5, 78, 2, 4, 82, 5, 0, 83, 2, 0, 88, 0, 1, 89, 0, 0, 90, 4, 5, 91, 2, 4, 92, 5, 1, 92, 3, 3, 93, 5, 0, 103, 1, 0, 106, 0, 4, 112, 5, 2, 115, 2, 1, 122, 0, 3, 125, 2, 0, 128, 2, 2, 130, 4, 1, 130, 0, 5, 131, 1, 3, 133, 3, 4, 148, 1, 1, 151, 4, 2, 152, 2, 4, 153, 0, 4, 153, 3, 2, 153, 4, 2, 159, 2, 1, 160, 4, 5, 172, 3, 4, 173, 4, 2, 174, 0, 2, 177, 4, 3, 182, 4, 0]);
