n_res = 4;
rc = [ 48, 50, 40, 36 ];
n_tasks = 62;
d = [0, 10, 7, 5, 5, 2, 1, 8, 5, 2, 1, 9, 4, 3, 10, 8, 5, 8, 5, 7, 8, 1, 10, 3, 9, 2, 8, 10, 6, 4, 2, 7, 1, 4, 5, 9, 8, 10, 2, 2, 10, 9, 7, 3, 9, 5, 6, 5, 6, 3, 10, 1, 2, 5, 5, 8, 4, 4, 2, 1, 5, 0];
rr = array2d(1..4, 1..62, [0, 10, 5, 6, 5, 0, 0, 0, 0, 3, 0, 6, 10, 9, 10, 10, 0, 0, 0, 9, 2, 1, 1, 0, 0, 0, 0, 4, 0, 0, 4, 8, 5, 5, 0, 0, 3, 6, 8, 0, 0, 4, 6, 0, 5, 1, 0, 7, 0, 7, 3, 8, 3, 0, 0, 1, 8, 0, 0, 4, 0, 0, 0, 0, 0, 2, 1, 0, 0, 0, 0, 2, 0, 2, 0, 0, 0, 0, 0, 0, 4, 5, 0, 0, 10, 0, 9, 0, 0, 4, 0, 0, 1, 0, 1, 9, 1, 3, 0, 2, 2, 4, 9, 0, 2, 0, 9, 0, 4, 0, 9, 0, 0, 5, 0, 0, 0, 5, 0, 0, 6, 7, 0, 0, 0, 0, 0, 8, 3, 5, 5, 5, 8, 0, 10, 0, 0, 7, 0, 0, 7, 10, 0, 8, 3, 1, 0, 0, 0, 0, 0, 0, 2, 8, 9, 4, 0, 0, 0, 2, 0, 3, 10, 1, 0, 0, 0, 10, 0, 2, 0, 0, 0, 0, 7, 0, 10, 2, 0, 0, 10, 0, 4, 0, 7, 0, 0, 3, 0, 10, 0, 9, 0, 1, 0, 0, 7, 0, 0, 2, 4, 3, 5, 0, 8, 7, 3, 3, 7, 7, 7, 3, 5, 0, 0, 0, 5, 4, 10, 0, 0, 0, 0, 0, 0, 7, 3, 0, 7, 0, 6, 0, 10, 0, 10, 0, 0, 0, 0, 7, 7, 0, 3, 6, 2, 0, 0, 0]);

suc = [
   {2, 3, 4},
   {11, 6, 7},
   {44},
   {9, 21, 5},
   {10, 12, 14},
   {8, 58, 15},
   {26, 47},
   {56},
   {33, 18},
   {16, 51},
   {48},
   {13, 46},
   {17, 19, 20},
   {32, 25, 15},
   {23},
   {42},
   {47},
   {38, 35, 22},
   {40},
   {23},
   {29, 30},
   {37},
   {24, 36},
   {60, 31},
   {50},
   {27},
   {28, 31},
   {42},
   {45},
   {53},
   {34, 39},
   {41},
   {50, 55},
   {52},
   {41},
   {59, 37},
   {39},
   {49},
   {61},
   {56, 49, 45},
   {52, 54},
   {43},
   {50},
   {48, 52},
   {53},
   {56},
   {57},
   {61},
   {58},
   {54},
   {54},
   {59},
   {57},
   {57, 59},
   {60},
   {61},
   {58},
   {60},
   {62},
   {62},
   {62},
   {  } ];

deadline = array2d(1..62, 1..3, [1, 1, 3, 2, 4, 1, 2, 2, 2, 4, 4, 0, 6, 2, 5, 8, 4, 1, 10, 5, 5, 11, 0, 4, 12, 1, 0, 13, 2, 2, 13, 1, 3, 14, 2, 1, 14, 0, 3, 14, 4, 2, 18, 4, 4, 19, 2, 5, 20, 5, 5, 21, 5, 1, 25, 5, 3, 35, 3, 0, 36, 3, 2, 39, 4, 1, 41, 5, 4, 47, 1, 0, 50, 5, 4, 50, 1, 5, 53, 0, 2, 55, 2, 1, 57, 5, 4, 59, 3, 4, 68, 0, 2, 68, 5, 2, 72, 0, 3, 74, 3, 4, 78, 4, 3, 84, 2, 5, 90, 3, 3, 105, 5, 2, 109, 2, 4, 111, 2, 0, 119, 2, 4, 119, 4, 4, 120, 0, 5, 120, 2, 4, 121, 4, 4, 122, 0, 1, 125, 0, 4, 125, 0, 2, 128, 5, 0, 131, 5, 3, 133, 1, 3, 137, 2, 3, 140, 5, 4, 141, 5, 5, 145, 1, 5, 145, 1, 3, 147, 5, 3, 150, 3, 4, 150, 0, 2, 151, 1, 5, 152, 5, 2, 156, 1, 4]);
