n_res = 4;
rc = [ 40, 46, 44, 33 ];
n_tasks = 62;
d = [0, 9, 1, 7, 1, 9, 8, 10, 8, 4, 10, 7, 5, 7, 1, 3, 10, 5, 10, 1, 5, 9, 2, 3, 6, 1, 10, 8, 10, 5, 6, 7, 3, 10, 2, 8, 1, 6, 8, 3, 7, 1, 5, 5, 2, 9, 7, 9, 2, 1, 8, 6, 5, 8, 8, 3, 10, 7, 1, 9, 9, 0];
rr = array2d(1..4, 1..62, [0, 1, 9, 7, 3, 8, 0, 4, 5, 7, 10, 0, 3, 2, 3, 3, 0, 3, 10, 2, 9, 4, 4, 0, 9, 7, 5, 2, 1, 0, 0, 0, 0, 0, 3, 4, 0, 9, 1, 1, 10, 0, 2, 0, 1, 0, 0, 0, 0, 5, 0, 3, 7, 6, 0, 7, 9, 2, 9, 8, 0, 0, 0, 4, 6, 8, 10, 5, 8, 1, 9, 5, 0, 7, 5, 1, 1, 5, 3, 6, 8, 1, 6, 9, 0, 8, 0, 5, 3, 10, 3, 5, 0, 2, 6, 9, 2, 4, 0, 1, 10, 8, 3, 0, 7, 2, 7, 6, 1, 4, 9, 8, 0, 6, 10, 9, 0, 0, 7, 0, 1, 0, 0, 0, 0, 0, 6, 4, 3, 1, 1, 4, 0, 5, 0, 4, 2, 0, 0, 10, 10, 10, 9, 10, 0, 0, 0, 7, 7, 0, 5, 6, 6, 9, 10, 3, 4, 3, 7, 9, 9, 1, 3, 8, 0, 8, 7, 0, 0, 3, 9, 6, 3, 0, 7, 9, 9, 6, 8, 9, 3, 2, 10, 1, 6, 0, 0, 6, 0, 9, 0, 3, 4, 3, 10, 5, 5, 0, 0, 6, 4, 6, 2, 1, 0, 8, 0, 7, 0, 4, 5, 7, 1, 0, 0, 5, 8, 8, 0, 1, 8, 0, 1, 10, 7, 3, 5, 0, 2, 6, 3, 0, 3, 6, 10, 4, 0, 7, 2, 6, 6, 1, 2, 0, 9, 8, 3, 0]);

suc = [
   {2, 3, 4},
   {49, 14, 23},
   {9, 10, 7},
   {44, 5, 6},
   {40, 19},
   {27, 37, 15},
   {8, 26, 42},
   {51, 23},
   {11, 12, 13},
   {16, 17, 34},
   {50, 21},
   {46},
   {24, 33, 47},
   {41},
   {55},
   {18},
   {25, 20},
   {25},
   {28, 22, 36},
   {29},
   {31},
   {43},
   {32},
   {27},
   {60, 53},
   {28},
   {35, 30},
   {43, 52, 39},
   {56, 46},
   {45},
   {48},
   {33},
   {58, 38},
   {36},
   {49, 43, 55},
   {57},
   {51},
   {57},
   {47},
   {60},
   {46},
   {49},
   {56},
   {52},
   {56},
   {55},
   {54},
   {61},
   {53},
   {61},
   {59},
   {54},
   {61},
   {58},
   {59},
   {58},
   {59},
   {60},
   {62},
   {62},
   {62},
   {  } ];

deadline = array2d(1..62, 1..3, [5, 4, 2, 10, 4, 5, 13, 2, 2, 13, 3, 5, 15, 3, 3, 18, 0, 2, 18, 5, 1, 19, 5, 3, 19, 2, 3, 27, 1, 3, 30, 2, 5, 34, 2, 0, 36, 5, 2, 39, 1, 2, 42, 3, 4, 43, 4, 0, 48, 5, 2, 49, 1, 0, 53, 5, 3, 56, 5, 4, 57, 4, 0, 58, 0, 4, 60, 1, 3, 62, 3, 1, 62, 4, 2, 66, 3, 0, 67, 5, 1, 71, 2, 1, 73, 4, 3, 74, 1, 0, 83, 1, 5, 88, 3, 1, 90, 4, 0, 92, 2, 5, 93, 2, 3, 96, 4, 1, 100, 0, 1, 106, 5, 0, 108, 2, 4, 110, 2, 4, 112, 3, 0, 112, 3, 1, 115, 5, 4, 116, 3, 0, 117, 0, 3, 120, 0, 4, 121, 2, 3, 121, 1, 0, 123, 1, 5, 124, 4, 3, 126, 2, 2, 130, 2, 5, 133, 5, 5, 135, 3, 5, 138, 4, 1, 139, 1, 2, 139, 2, 0, 142, 5, 3, 145, 5, 4, 146, 4, 1, 148, 4, 4, 149, 4, 2]);
