n_res = 4;
rc = [ 14, 11, 11, 17 ];
n_tasks = 62;
d = [0, 2, 1, 4, 9, 2, 8, 1, 5, 4, 3, 2, 6, 5, 10, 10, 1, 4, 3, 5, 3, 1, 1, 3, 5, 6, 10, 9, 6, 1, 5, 6, 3, 8, 4, 2, 1, 3, 3, 8, 3, 1, 4, 6, 9, 8, 8, 8, 3, 1, 6, 5, 5, 3, 2, 9, 2, 3, 6, 5, 5, 0];
rr = array2d(1..4, 1..62, [0, 1, 0, 0, 0, 10, 0, 0, 1, 0, 9, 1, 0, 0, 2, 9, 0, 0, 0, 0, 0, 0, 0, 0, 0, 0, 0, 0, 0, 0, 0, 4, 7, 6, 0, 8, 1, 0, 6, 0, 0, 0, 0, 7, 4, 0, 5, 6, 0, 0, 0, 1, 0, 2, 0, 0, 0, 0, 0, 0, 0, 0, 0, 0, 0, 8, 0, 0, 3, 0, 0, 0, 0, 0, 0, 0, 0, 0, 0, 0, 3, 0, 5, 0, 9, 0, 0, 0, 6, 0, 0, 0, 0, 0, 0, 0, 0, 0, 0, 0, 0, 0, 0, 0, 0, 0, 0, 5, 0, 0, 0, 0, 0, 0, 0, 0, 0, 0, 0, 2, 0, 0, 0, 0, 0, 0, 0, 0, 4, 0, 0, 0, 0, 0, 0, 0, 0, 0, 0, 0, 0, 0, 0, 5, 0, 3, 0, 3, 0, 9, 0, 0, 5, 6, 0, 0, 0, 0, 0, 0, 0, 0, 0, 0, 0, 0, 3, 0, 0, 0, 0, 0, 0, 0, 9, 0, 0, 0, 9, 9, 0, 0, 2, 10, 0, 0, 0, 0, 5, 0, 0, 0, 0, 6, 0, 1, 0, 0, 9, 8, 0, 0, 5, 5, 0, 0, 0, 0, 0, 0, 4, 0, 0, 1, 0, 0, 10, 0, 0, 0, 9, 0, 0, 9, 0, 6, 3, 7, 0, 0, 0, 0, 0, 0, 1, 9, 0, 0, 6, 0, 0, 0, 9, 0, 0, 0, 6, 0]);

suc = [
   {2, 3, 4},
   {17, 5, 7},
   {24},
   {18},
   {12, 6, 14},
   {8, 10, 23},
   {11, 44, 37},
   {9, 13, 33},
   {57, 34, 29},
   {16, 45},
   {50, 15},
   {25, 19, 38},
   {32, 28, 21},
   {20, 22},
   {30, 39},
   {30},
   {26},
   {40, 20, 39},
   {29, 31},
   {41, 44},
   {61, 30},
   {34, 52, 58},
   {43, 35, 36},
   {50, 27},
   {32, 41},
   {56},
   {49, 35},
   {44},
   {46},
   {41, 42, 51},
   {56, 34, 52},
   {48, 53},
   {53},
   {36, 60},
   {48, 46, 47},
   {61},
   {45},
   {45},
   {56, 51},
   {55, 47},
   {49},
   {43},
   {48, 49},
   {50, 52, 47},
   {46, 55},
   {61},
   {59},
   {54},
   {58},
   {57, 51, 54},
   {53},
   {57, 54},
   {60},
   {55},
   {60},
   {58},
   {59},
   {59},
   {62},
   {62},
   {62},
   {  } ];

deadline = array2d(1..62, 1..3, [1, 1, 2, 2, 0, 1, 2, 2, 0, 7, 2, 3, 9, 1, 0, 14, 2, 4, 16, 3, 4, 17, 1, 3, 17, 1, 5, 20, 4, 3, 20, 4, 5, 22, 4, 0, 25, 1, 2, 25, 2, 5, 25, 5, 5, 31, 4, 3, 34, 2, 4, 35, 1, 0, 37, 4, 5, 38, 2, 2, 39, 2, 4, 41, 2, 0, 42, 3, 0, 42, 5, 5, 42, 3, 2, 45, 1, 2, 46, 3, 4, 47, 4, 5, 48, 0, 5, 49, 2, 0, 49, 3, 4, 50, 3, 0, 52, 2, 1, 52, 5, 5, 52, 3, 5, 54, 1, 3, 54, 5, 3, 56, 2, 2, 59, 1, 0, 62, 0, 3, 64, 5, 4, 65, 2, 3, 67, 4, 2, 74, 4, 1, 81, 1, 4, 85, 1, 5, 86, 1, 1, 88, 4, 4, 99, 3, 2, 103, 1, 2, 103, 4, 0, 107, 4, 4, 109, 0, 3, 109, 4, 1, 115, 0, 5, 117, 0, 3, 121, 2, 0, 123, 3, 3, 124, 1, 4, 126, 3, 2, 127, 2, 4, 130, 1, 5]);
