n_res = 4;
rc = [ 24, 12, 35, 10 ];
n_tasks = 62;
d = [0, 6, 6, 1, 9, 8, 6, 6, 5, 1, 5, 8, 9, 2, 4, 6, 1, 9, 5, 3, 8, 6, 3, 6, 3, 3, 7, 8, 10, 4, 10, 7, 8, 2, 6, 4, 6, 9, 1, 7, 9, 4, 5, 3, 2, 7, 9, 1, 1, 2, 3, 1, 4, 1, 2, 3, 2, 1, 7, 8, 9, 0];
rr = array2d(1..4, 1..62, [0, 9, 7, 0, 0, 1, 9, 0, 0, 0, 0, 0, 6, 0, 4, 0, 4, 8, 0, 4, 0, 1, 0, 6, 0, 4, 10, 0, 0, 0, 0, 0, 0, 0, 0, 10, 0, 10, 0, 0, 0, 0, 0, 0, 0, 5, 0, 2, 0, 0, 4, 7, 0, 0, 0, 0, 3, 0, 0, 0, 0, 0, 0, 0, 0, 4, 0, 0, 0, 0, 0, 0, 0, 0, 0, 0, 0, 0, 0, 0, 9, 0, 0, 0, 2, 0, 0, 0, 0, 0, 0, 0, 9, 0, 9, 2, 4, 0, 0, 0, 0, 1, 0, 5, 5, 0, 0, 0, 0, 0, 7, 0, 0, 0, 2, 0, 0, 0, 0, 3, 2, 0, 10, 0, 0, 0, 0, 0, 6, 0, 0, 10, 7, 0, 4, 1, 0, 7, 0, 9, 0, 0, 0, 0, 0, 0, 0, 0, 0, 0, 0, 6, 10, 8, 0, 8, 0, 0, 0, 0, 0, 0, 2, 0, 10, 0, 0, 4, 0, 0, 0, 0, 0, 0, 0, 0, 0, 6, 10, 5, 0, 0, 0, 0, 0, 0, 0, 0, 0, 0, 0, 0, 0, 0, 0, 3, 0, 0, 0, 0, 0, 0, 0, 0, 0, 0, 3, 0, 0, 0, 4, 0, 0, 0, 0, 0, 0, 0, 0, 0, 0, 0, 7, 0, 0, 0, 0, 0, 0, 0, 7, 0, 3, 0, 0, 5, 0, 0, 0, 0, 0, 0, 0, 0, 0, 3, 0, 0]);

suc = [
   {2, 3, 4},
   {10, 5, 14},
   {9, 6, 7},
   {18, 12, 22},
   {8, 26, 11},
   {8, 30, 15},
   {32},
   {45, 20, 21},
   {35, 28, 13},
   {33, 45},
   {16, 56, 12},
   {40, 43, 15},
   {29, 14, 23},
   {24, 19},
   {17, 59, 25},
   {49, 34, 38},
   {31},
   {50, 39, 23},
   {25, 50, 54},
   {36, 37},
   {32, 27, 22},
   {24, 29, 38},
   {48, 51, 43},
   {44},
   {34, 27, 31},
   {27, 30},
   {57},
   {52},
   {41, 34, 36},
   {45},
   {38, 39},
   {41, 37},
   {41, 35},
   {42, 44, 39},
   {40, 43, 37},
   {40, 44, 53},
   {48, 46},
   {42, 47},
   {60},
   {49, 42, 50},
   {46},
   {58},
   {52, 47},
   {51, 61, 47},
   {48, 52, 46},
   {56, 49, 53},
   {60},
   {56, 54},
   {58, 51, 54},
   {58},
   {55},
   {57, 59, 53},
   {55},
   {57, 55},
   {60},
   {59},
   {61},
   {61},
   {62},
   {62},
   {62},
   {  } ];

deadline = array2d(1..62, 1..3, [1, 4, 1, 3, 4, 4, 10, 5, 2, 15, 0, 1, 26, 5, 0, 27, 0, 4, 27, 4, 4, 35, 1, 2, 53, 4, 4, 57, 1, 3, 58, 4, 5, 62, 1, 4, 71, 3, 5, 74, 1, 5, 79, 1, 2, 85, 0, 3, 87, 0, 5, 89, 2, 2, 90, 4, 3, 92, 3, 4, 94, 5, 3, 96, 2, 3, 97, 0, 2, 97, 3, 0, 98, 3, 5, 100, 4, 4, 102, 1, 2, 104, 4, 3, 114, 4, 2, 116, 4, 0, 119, 4, 2, 120, 2, 0, 124, 4, 2, 126, 2, 3, 128, 2, 4, 128, 3, 5, 137, 0, 5, 139, 2, 3, 139, 5, 2, 140, 2, 3, 140, 3, 1, 143, 3, 4, 145, 0, 1, 147, 1, 0, 149, 2, 4, 151, 5, 0, 153, 5, 2, 157, 0, 4, 163, 0, 4, 165, 4, 5, 165, 4, 0, 167, 2, 2, 168, 1, 5, 174, 0, 1, 179, 3, 0, 179, 2, 5, 179, 5, 0, 180, 1, 4, 182, 1, 0, 183, 3, 3, 184, 3, 5, 184, 2, 1]);
