n_res = 4;
rc = [ 28, 25, 29, 30 ];
n_tasks = 62;
d = [0, 10, 5, 5, 1, 2, 1, 3, 10, 4, 1, 1, 5, 6, 1, 4, 7, 10, 9, 9, 4, 2, 4, 9, 8, 3, 8, 5, 7, 1, 9, 5, 10, 8, 8, 10, 9, 8, 6, 2, 10, 7, 10, 4, 8, 3, 8, 5, 10, 6, 2, 2, 9, 3, 3, 9, 6, 10, 3, 5, 4, 0];
rr = array2d(1..4, 1..62, [0, 5, 7, 2, 0, 3, 0, 4, 8, 0, 0, 10, 4, 2, 10, 10, 1, 7, 6, 7, 3, 7, 0, 9, 0, 4, 0, 1, 4, 0, 3, 10, 0, 0, 9, 2, 8, 0, 7, 3, 0, 4, 7, 0, 5, 7, 5, 6, 9, 2, 0, 9, 3, 8, 9, 7, 1, 1, 0, 3, 1, 0, 0, 0, 9, 0, 4, 5, 4, 2, 1, 0, 2, 0, 10, 0, 4, 2, 0, 0, 2, 9, 2, 2, 10, 0, 8, 10, 3, 0, 9, 7, 0, 1, 10, 2, 1, 3, 9, 8, 8, 8, 8, 10, 0, 6, 10, 10, 0, 9, 0, 0, 0, 9, 2, 10, 5, 3, 7, 2, 0, 3, 9, 0, 0, 2, 10, 0, 10, 5, 5, 1, 5, 8, 10, 1, 0, 0, 10, 1, 5, 6, 8, 9, 6, 3, 1, 6, 4, 1, 0, 3, 1, 8, 9, 3, 4, 0, 10, 2, 0, 2, 3, 1, 7, 1, 0, 3, 0, 0, 3, 1, 0, 6, 2, 4, 8, 0, 0, 1, 7, 8, 0, 4, 8, 0, 0, 0, 6, 0, 1, 8, 5, 8, 6, 5, 2, 10, 8, 8, 1, 6, 7, 0, 2, 4, 0, 7, 0, 6, 5, 8, 0, 0, 4, 7, 0, 1, 5, 6, 6, 0, 5, 0, 2, 1, 1, 7, 10, 1, 0, 4, 5, 0, 9, 3, 4, 9, 0, 7, 1, 0, 0, 7, 5, 9, 8, 0]);

suc = [
   {2, 3, 4},
   {8, 10, 13},
   {11, 21, 7},
   {34, 5, 31},
   {35, 6, 14},
   {16, 19, 23},
   {9, 38, 15},
   {41, 34, 53},
   {40, 50, 12},
   {45, 54},
   {24, 40},
   {33, 59, 30},
   {17, 43, 51},
   {28, 39},
   {37, 22},
   {51, 44, 37},
   {25, 18, 26},
   {49, 20},
   {33, 45, 46},
   {22},
   {55},
   {24, 34},
   {27},
   {32},
   {28, 53},
   {29, 39},
   {52},
   {44},
   {46, 38},
   {54},
   {55},
   {58, 60},
   {42, 37},
   {46, 39},
   {36, 38},
   {48, 42, 47},
   {54},
   {48},
   {56},
   {44, 55},
   {50, 43},
   {57},
   {49},
   {61, 45},
   {48, 59},
   {52, 61},
   {49, 50, 53},
   {57},
   {56},
   {51},
   {52, 61},
   {58},
   {58},
   {56},
   {57},
   {60},
   {60},
   {59},
   {62},
   {62},
   {62},
   {  } ];

deadline = array2d(1..62, 1..3, [2, 3, 0, 3, 5, 2, 4, 1, 1, 4, 3, 1, 9, 0, 3, 10, 1, 1, 11, 1, 5, 15, 3, 5, 18, 0, 0, 21, 3, 0, 24, 0, 0, 25, 0, 0, 30, 3, 4, 32, 2, 5, 32, 4, 0, 34, 5, 3, 36, 0, 3, 38, 1, 2, 40, 1, 0, 42, 0, 2, 43, 5, 0, 48, 5, 1, 52, 2, 0, 54, 0, 1, 60, 5, 1, 61, 5, 2, 66, 4, 2, 70, 5, 2, 70, 2, 2, 71, 2, 2, 77, 3, 4, 83, 4, 4, 84, 5, 2, 85, 2, 2, 87, 5, 4, 95, 5, 1, 98, 4, 1, 99, 4, 5, 101, 3, 3, 105, 3, 4, 107, 0, 2, 109, 0, 5, 115, 5, 0, 117, 5, 4, 121, 4, 3, 122, 5, 3, 127, 3, 5, 130, 1, 3, 137, 4, 3, 138, 5, 4, 138, 2, 1, 147, 1, 3, 149, 3, 5, 163, 4, 5, 165, 3, 2, 167, 3, 4, 168, 4, 1, 168, 2, 2, 169, 4, 4, 171, 4, 5, 172, 4, 4, 174, 3, 4]);
