n_res = 4;
rc = [ 52, 38, 49, 47 ];
n_tasks = 62;
d = [0, 2, 3, 6, 9, 8, 9, 6, 5, 7, 3, 7, 1, 4, 4, 1, 10, 2, 1, 7, 3, 10, 5, 9, 8, 4, 5, 6, 7, 2, 10, 2, 3, 1, 4, 8, 3, 2, 1, 5, 4, 5, 5, 8, 6, 8, 7, 3, 3, 7, 10, 8, 7, 10, 1, 9, 5, 8, 2, 5, 10, 0];
rr = array2d(1..4, 1..62, [0, 10, 9, 9, 8, 5, 2, 1, 8, 1, 1, 8, 1, 2, 10, 6, 8, 9, 8, 7, 5, 10, 9, 7, 3, 3, 4, 10, 8, 6, 6, 2, 8, 5, 4, 10, 6, 3, 5, 8, 5, 4, 4, 8, 10, 5, 9, 4, 8, 10, 5, 7, 2, 5, 2, 2, 6, 1, 4, 10, 8, 0, 0, 10, 6, 10, 9, 4, 4, 5, 9, 1, 5, 1, 1, 8, 4, 8, 8, 2, 2, 3, 6, 7, 9, 5, 9, 5, 8, 4, 7, 3, 2, 4, 5, 1, 2, 7, 2, 3, 4, 2, 9, 1, 6, 3, 5, 6, 2, 2, 9, 4, 6, 4, 3, 2, 9, 4, 1, 6, 3, 6, 2, 0, 0, 6, 7, 2, 4, 10, 4, 2, 8, 7, 5, 3, 9, 7, 6, 9, 2, 2, 8, 5, 4, 8, 7, 4, 6, 7, 4, 4, 5, 1, 8, 2, 9, 4, 9, 9, 10, 1, 2, 1, 6, 3, 8, 2, 6, 3, 5, 1, 3, 6, 6, 7, 8, 5, 8, 3, 2, 2, 5, 1, 8, 0, 0, 10, 10, 7, 8, 10, 4, 8, 9, 8, 9, 4, 4, 3, 8, 3, 2, 8, 3, 1, 9, 8, 3, 8, 3, 5, 2, 4, 8, 1, 6, 8, 5, 10, 7, 5, 3, 6, 8, 9, 5, 6, 2, 6, 5, 5, 3, 6, 6, 3, 1, 9, 4, 3, 5, 8, 9, 7, 9, 9, 9, 0]);

suc = [
   {2, 3, 4},
   {46, 15},
   {40, 19},
   {16, 37, 5},
   {14, 6, 7},
   {8, 44, 23},
   {41, 28},
   {9, 26, 12},
   {49, 10, 11},
   {17, 34, 31},
   {60, 13, 30},
   {17, 13},
   {47},
   {21},
   {18},
   {25, 35, 20},
   {32, 48, 27},
   {42, 22},
   {24, 46},
   {52},
   {50, 36, 29},
   {41, 23},
   {34, 38},
   {56, 29},
   {51},
   {54},
   {52, 29, 46},
   {32, 49, 31},
   {33},
   {45},
   {59},
   {43, 45, 38},
   {58},
   {43, 36, 39},
   {58, 44},
   {53, 47},
   {52},
   {39},
   {57, 50},
   {57, 42, 45},
   {56, 44},
   {49, 43, 60},
   {61},
   {51},
   {50},
   {55},
   {48},
   {51, 55},
   {53},
   {53},
   {57, 54},
   {60, 61},
   {54, 55},
   {61},
   {56},
   {58},
   {59},
   {59},
   {62},
   {62},
   {62},
   {  } ];

deadline = array2d(1..62, 1..3, [1, 1, 1, 4, 2, 4, 9, 2, 5, 11, 3, 4, 19, 2, 1, 24, 2, 3, 47, 4, 1, 50, 1, 0, 51, 5, 3, 54, 0, 1, 55, 3, 1, 62, 1, 3, 63, 3, 1, 66, 0, 3, 68, 3, 5, 73, 4, 4, 76, 3, 1, 80, 1, 4, 82, 1, 0, 85, 5, 4, 90, 2, 1, 90, 4, 0, 91, 4, 3, 94, 0, 3, 94, 5, 5, 100, 3, 1, 106, 2, 1, 110, 3, 5, 110, 1, 5, 119, 4, 4, 119, 0, 5, 123, 0, 0, 125, 5, 4, 128, 1, 4, 133, 5, 0, 138, 5, 5, 141, 1, 2, 143, 4, 4, 149, 4, 1, 152, 4, 2, 156, 5, 0, 157, 1, 1, 158, 2, 1, 159, 1, 4, 165, 0, 3, 176, 2, 5, 177, 2, 0, 179, 1, 2, 180, 3, 1, 181, 4, 2, 182, 3, 3, 188, 1, 1, 192, 5, 4, 194, 4, 2, 198, 1, 3, 200, 2, 4, 209, 3, 4, 215, 2, 5, 223, 5, 0, 226, 1, 4, 230, 0, 5, 232, 1, 0]);
