n_res = 4;
rc = [ 21, 20, 18, 18 ];
n_tasks = 62;
d = [0, 7, 10, 2, 5, 2, 10, 1, 9, 5, 5, 2, 9, 6, 9, 8, 7, 7, 4, 7, 3, 6, 7, 4, 9, 7, 4, 5, 7, 6, 8, 4, 5, 10, 5, 7, 4, 5, 7, 10, 7, 6, 1, 2, 4, 5, 1, 8, 3, 7, 4, 4, 2, 10, 9, 5, 6, 10, 1, 3, 3, 0];
rr = array2d(1..4, 1..62, [0, 0, 0, 0, 6, 0, 0, 0, 1, 0, 3, 4, 0, 0, 0, 0, 0, 9, 6, 9, 0, 0, 1, 0, 0, 4, 0, 0, 0, 0, 0, 0, 0, 0, 0, 8, 7, 0, 0, 5, 3, 0, 4, 0, 0, 0, 9, 0, 0, 0, 0, 0, 6, 10, 3, 0, 4, 0, 1, 3, 0, 0, 0, 0, 0, 0, 0, 0, 0, 7, 0, 0, 0, 0, 2, 0, 7, 0, 5, 0, 0, 0, 0, 0, 0, 0, 8, 0, 0, 0, 0, 7, 0, 0, 8, 7, 0, 0, 0, 0, 0, 0, 0, 8, 0, 10, 3, 6, 0, 0, 0, 9, 6, 3, 0, 0, 0, 0, 0, 0, 0, 0, 5, 0, 0, 0, 10, 0, 0, 0, 9, 0, 0, 8, 0, 0, 0, 0, 0, 4, 0, 0, 0, 0, 0, 8, 0, 0, 0, 0, 0, 0, 0, 0, 0, 0, 0, 0, 0, 0, 0, 0, 0, 0, 0, 0, 0, 0, 0, 0, 0, 0, 5, 0, 0, 0, 0, 0, 0, 0, 0, 8, 0, 0, 0, 0, 0, 2, 0, 10, 0, 4, 0, 0, 0, 0, 0, 0, 0, 2, 0, 0, 0, 0, 0, 0, 5, 0, 0, 6, 0, 0, 8, 9, 8, 0, 2, 9, 0, 0, 1, 0, 0, 1, 4, 0, 0, 0, 0, 0, 0, 0, 0, 7, 0, 0, 0, 0, 0, 0, 0, 3, 0, 0, 0, 0, 0, 0]);

suc = [
   {2, 3, 4},
   {16, 21, 5},
   {32, 18},
   {16, 9, 17},
   {8, 6, 7},
   {17, 27, 13},
   {33, 26},
   {56, 61, 37},
   {10, 28, 42},
   {11, 12, 37},
   {35, 14, 15},
   {21},
   {30, 22, 23},
   {25, 58, 19},
   {50, 47, 39},
   {20, 22, 31},
   {34, 43},
   {24, 34, 44},
   {24, 46},
   {51},
   {24, 25, 33},
   {40},
   {34, 37, 38},
   {41, 59, 55},
   {40, 54, 55},
   {27, 31},
   {28, 30, 44},
   {36, 29, 46},
   {52, 60, 47},
   {32, 38},
   {32, 43, 52},
   {35},
   {36, 38, 39},
   {41, 42, 35},
   {48, 36, 47},
   {49, 51, 55},
   {40, 48},
   {41, 50, 58},
   {43, 52},
   {50, 45},
   {48},
   {49, 45},
   {49, 44, 53},
   {45},
   {46},
   {57},
   {51},
   {57},
   {56, 58, 61},
   {60},
   {53, 54},
   {53, 54},
   {61},
   {56},
   {57},
   {59},
   {60},
   {59},
   {62},
   {62},
   {62},
   {  } ];

deadline = array2d(1..62, 1..3, [1, 1, 1, 2, 3, 0, 3, 1, 4, 5, 5, 5, 9, 4, 5, 11, 5, 0, 22, 1, 0, 26, 4, 2, 28, 5, 3, 32, 0, 5, 34, 4, 1, 37, 4, 3, 48, 0, 1, 51, 0, 2, 52, 5, 3, 53, 0, 1, 53, 5, 1, 58, 3, 1, 66, 0, 3, 76, 3, 3, 79, 2, 3, 84, 3, 0, 86, 2, 3, 87, 1, 4, 87, 1, 4, 90, 0, 0, 91, 3, 2, 95, 0, 5, 99, 5, 3, 101, 0, 1, 101, 5, 4, 103, 0, 1, 115, 1, 1, 119, 3, 0, 122, 0, 3, 125, 0, 0, 128, 1, 2, 128, 4, 3, 130, 4, 0, 132, 4, 3, 137, 4, 5, 138, 1, 4, 140, 3, 0, 144, 0, 2, 144, 3, 0, 145, 4, 3, 152, 1, 2, 154, 1, 5, 155, 3, 5, 158, 1, 0, 159, 1, 4, 164, 1, 0, 167, 3, 3, 170, 3, 3, 175, 4, 3, 175, 1, 1, 175, 4, 4, 177, 2, 2, 179, 4, 1, 179, 0, 3, 180, 4, 0, 183, 3, 0]);
