n_res = 4;
rc = [ 24, 31, 31, 34 ];
n_tasks = 62;
d = [0, 3, 3, 8, 10, 2, 10, 3, 6, 7, 7, 1, 4, 3, 6, 7, 9, 4, 4, 2, 9, 1, 7, 2, 3, 6, 1, 8, 1, 9, 3, 10, 4, 6, 10, 7, 1, 5, 8, 5, 10, 5, 4, 7, 1, 6, 9, 2, 4, 8, 1, 8, 3, 1, 10, 1, 3, 9, 8, 5, 9, 0];
rr = array2d(1..4, 1..62, [0, 0, 0, 7, 9, 4, 0, 10, 0, 10, 1, 1, 0, 6, 0, 4, 10, 0, 2, 0, 8, 2, 1, 0, 0, 10, 0, 5, 0, 4, 6, 0, 0, 6, 3, 4, 0, 1, 10, 5, 0, 5, 2, 0, 8, 0, 9, 1, 0, 3, 5, 0, 10, 0, 0, 2, 9, 1, 7, 3, 5, 0, 0, 0, 0, 8, 0, 8, 3, 7, 4, 6, 0, 0, 9, 3, 0, 1, 7, 4, 1, 3, 1, 9, 10, 1, 1, 8, 10, 0, 2, 2, 5, 0, 2, 2, 9, 6, 0, 6, 6, 9, 9, 3, 2, 7, 0, 2, 8, 0, 0, 7, 4, 8, 0, 3, 4, 7, 6, 4, 5, 7, 5, 0, 0, 0, 8, 9, 1, 0, 7, 8, 6, 8, 6, 2, 9, 9, 10, 6, 0, 2, 8, 7, 2, 7, 0, 3, 8, 0, 5, 3, 2, 0, 2, 8, 4, 3, 10, 0, 9, 0, 1, 3, 3, 9, 0, 6, 0, 9, 5, 0, 2, 1, 4, 3, 7, 9, 0, 9, 10, 3, 0, 10, 0, 0, 0, 3, 8, 4, 9, 9, 8, 8, 2, 10, 0, 7, 5, 6, 3, 2, 8, 4, 4, 0, 9, 5, 6, 0, 8, 10, 7, 3, 0, 1, 1, 0, 5, 7, 10, 0, 3, 2, 7, 6, 7, 4, 8, 2, 1, 2, 9, 9, 4, 4, 1, 6, 10, 10, 0, 1, 0, 6, 0, 0, 3, 0]);

suc = [
   {2, 3, 4},
   {16, 41, 5},
   {8, 6, 7},
   {21, 14, 15},
   {27, 12, 37},
   {34, 13, 23},
   {9, 11, 22},
   {10, 11, 20},
   {33, 36, 29},
   {32, 19, 30},
   {27, 36, 23},
   {24, 48, 43},
   {16, 21, 31},
   {18, 28, 29},
   {26, 50, 46},
   {17, 58},
   {24, 49, 60},
   {57, 22, 39},
   {40, 52, 23},
   {32, 25, 38},
   {40, 41, 43},
   {48, 54},
   {28, 45, 44},
   {51, 30},
   {40, 26, 37},
   {35, 36, 55},
   {34, 42, 52},
   {31},
   {32, 60, 30},
   {59},
   {33, 46},
   {56},
   {39},
   {35, 39},
   {58, 44},
   {47},
   {45},
   {41, 42},
   {49, 43},
   {42},
   {49, 52, 47},
   {44, 45},
   {50},
   {54},
   {50, 46},
   {56, 51, 47},
   {48, 57},
   {58, 53},
   {51, 54},
   {61, 53},
   {55},
   {57, 53, 55},
   {60},
   {56},
   {59},
   {61},
   {59},
   {61},
   {62},
   {62},
   {62},
   {  } ];

deadline = array2d(1..62, 1..3, [2, 3, 2, 6, 0, 5, 7, 1, 4, 12, 1, 5, 12, 5, 2, 13, 5, 4, 13, 1, 4, 21, 4, 4, 26, 4, 2, 27, 3, 1, 27, 2, 1, 28, 0, 2, 33, 0, 5, 35, 4, 4, 42, 3, 0, 51, 1, 2, 51, 5, 5, 59, 0, 4, 60, 5, 2, 63, 4, 5, 68, 1, 0, 69, 2, 3, 73, 1, 1, 75, 4, 5, 79, 4, 1, 80, 3, 1, 85, 1, 3, 86, 1, 5, 90, 5, 2, 92, 2, 1, 96, 0, 0, 106, 1, 4, 106, 1, 5, 106, 0, 1, 114, 4, 5, 117, 0, 2, 119, 1, 2, 121, 4, 4, 124, 0, 1, 126, 3, 4, 127, 4, 5, 127, 1, 4, 128, 3, 1, 128, 0, 5, 131, 3, 2, 132, 5, 0, 138, 3, 4, 142, 1, 1, 143, 2, 0, 144, 3, 0, 144, 5, 3, 145, 3, 4, 146, 4, 4, 152, 0, 4, 153, 1, 1, 153, 0, 4, 157, 4, 5, 159, 3, 3, 161, 5, 5, 163, 3, 1, 169, 4, 3, 173, 3, 1]);
