n_res = 4;
rc = [ 78, 73, 67, 70 ];
n_tasks = 62;
d = [0, 7, 8, 2, 1, 10, 5, 5, 9, 6, 5, 8, 8, 5, 6, 1, 1, 4, 7, 3, 6, 8, 9, 6, 7, 7, 10, 3, 7, 10, 4, 4, 10, 7, 4, 3, 1, 5, 3, 1, 2, 8, 3, 3, 7, 1, 1, 10, 10, 5, 1, 10, 5, 5, 3, 3, 1, 5, 10, 6, 6, 0];
rr = array2d(1..4, 1..62, [0, 9, 10, 8, 8, 7, 1, 3, 9, 5, 8, 3, 6, 9, 10, 1, 7, 7, 4, 6, 7, 8, 4, 7, 5, 1, 10, 1, 5, 2, 5, 2, 7, 9, 2, 10, 2, 1, 2, 7, 8, 9, 6, 9, 9, 9, 6, 10, 7, 1, 8, 8, 2, 4, 10, 6, 7, 6, 7, 7, 4, 0, 0, 10, 8, 10, 5, 6, 2, 4, 6, 3, 1, 7, 9, 8, 2, 3, 7, 7, 5, 9, 8, 7, 5, 6, 10, 2, 2, 7, 9, 2, 5, 6, 5, 10, 10, 2, 7, 4, 1, 7, 5, 5, 6, 7, 8, 2, 10, 10, 3, 6, 2, 3, 8, 6, 9, 4, 1, 8, 5, 1, 4, 0, 0, 2, 1, 5, 4, 1, 1, 1, 2, 5, 2, 10, 2, 8, 8, 1, 10, 10, 7, 4, 2, 6, 6, 3, 4, 9, 3, 5, 3, 5, 6, 10, 3, 10, 10, 3, 3, 10, 10, 9, 7, 7, 1, 2, 1, 2, 1, 1, 4, 1, 5, 8, 1, 4, 6, 2, 3, 7, 3, 2, 3, 0, 0, 8, 10, 1, 4, 8, 10, 7, 6, 4, 8, 1, 3, 4, 4, 10, 1, 4, 7, 9, 10, 5, 10, 10, 7, 1, 10, 1, 2, 6, 6, 1, 8, 2, 5, 1, 7, 2, 10, 4, 5, 5, 1, 7, 9, 8, 7, 2, 9, 10, 9, 5, 8, 3, 9, 2, 8, 3, 9, 8, 9, 0]);

suc = [
   {2, 3, 4},
   {29},
   {8, 11, 15},
   {37, 5, 7},
   {9, 6},
   {19, 20, 22},
   {17, 27, 12},
   {16, 13, 14},
   {40, 10, 34},
   {17},
   {24, 44, 30},
   {54, 38},
   {26, 43, 31},
   {60},
   {28},
   {29},
   {18, 21},
   {57},
   {29, 23},
   {41},
   {25, 43},
   {33, 36},
   {43},
   {50},
   {41, 42, 58},
   {32, 35},
   {52},
   {48, 30},
   {60},
   {46},
   {47},
   {49},
   {54},
   {59},
   {45, 39},
   {50, 47},
   {55},
   {60},
   {50},
   {45},
   {54},
   {51},
   {44, 55},
   {51},
   {51, 53},
   {55},
   {56},
   {52},
   {56},
   {57},
   {59},
   {53},
   {59},
   {57},
   {56},
   {61},
   {61},
   {61},
   {62},
   {62},
   {62},
   {  } ];

deadline = array2d(1..62, 1..3, [5, 0, 2, 6, 0, 5, 12, 1, 0, 16, 2, 4, 21, 4, 1, 22, 4, 2, 22, 0, 0, 25, 4, 1, 26, 2, 5, 30, 3, 1, 33, 3, 2, 34, 0, 0, 36, 5, 2, 36, 2, 0, 42, 5, 4, 43, 2, 0, 43, 3, 3, 44, 4, 4, 45, 3, 3, 47, 3, 1, 48, 2, 2, 52, 5, 0, 53, 2, 3, 54, 1, 1, 54, 5, 3, 61, 2, 1, 62, 4, 1, 64, 1, 0, 76, 2, 3, 79, 2, 4, 81, 0, 1, 86, 2, 1, 88, 3, 4, 89, 4, 1, 94, 1, 2, 96, 1, 5, 96, 3, 3, 97, 1, 0, 98, 1, 4, 100, 5, 5, 100, 5, 5, 101, 0, 4, 102, 5, 5, 102, 3, 2, 105, 0, 4, 105, 1, 3, 106, 2, 4, 108, 2, 3, 111, 3, 5, 112, 4, 4, 112, 3, 5, 116, 3, 4, 116, 3, 5, 118, 1, 3, 118, 0, 3, 121, 1, 2, 126, 0, 0, 131, 0, 4, 131, 1, 3, 131, 3, 0, 133, 5, 4, 134, 2, 3]);
