n_res = 4;
rc = [ 39, 29, 34, 35 ];
n_tasks = 62;
d = [0, 5, 10, 4, 4, 9, 6, 2, 3, 2, 5, 5, 2, 6, 1, 5, 6, 10, 4, 9, 10, 7, 2, 9, 6, 10, 5, 3, 2, 9, 10, 8, 9, 7, 6, 6, 8, 8, 9, 10, 1, 10, 7, 7, 9, 1, 6, 1, 9, 8, 6, 9, 7, 7, 1, 3, 1, 5, 10, 9, 4, 0];
rr = array2d(1..4, 1..62, [0, 4, 3, 0, 2, 0, 5, 7, 0, 0, 8, 2, 6, 7, 7, 10, 8, 0, 3, 0, 2, 7, 1, 9, 0, 3, 6, 9, 0, 9, 7, 0, 10, 8, 6, 2, 2, 7, 8, 5, 0, 0, 0, 2, 8, 6, 2, 5, 0, 8, 7, 4, 8, 8, 3, 5, 0, 5, 8, 10, 0, 0, 0, 6, 0, 2, 8, 1, 0, 1, 0, 2, 0, 7, 5, 3, 8, 0, 1, 10, 0, 1, 8, 7, 0, 10, 3, 8, 5, 3, 10, 0, 0, 5, 6, 1, 0, 2, 10, 8, 10, 0, 0, 1, 5, 1, 1, 0, 3, 6, 5, 2, 9, 1, 0, 2, 0, 8, 2, 0, 0, 0, 0, 0, 0, 1, 10, 1, 0, 6, 2, 7, 0, 1, 0, 10, 10, 1, 9, 0, 2, 8, 3, 1, 3, 5, 8, 6, 7, 7, 3, 8, 0, 0, 5, 10, 9, 0, 7, 8, 9, 2, 8, 8, 3, 8, 3, 1, 6, 4, 6, 2, 1, 3, 8, 0, 0, 1, 0, 7, 10, 2, 4, 9, 5, 0, 0, 9, 8, 4, 2, 3, 0, 10, 3, 8, 0, 1, 7, 9, 0, 10, 7, 7, 8, 7, 4, 0, 6, 8, 4, 1, 4, 9, 0, 8, 9, 0, 9, 2, 2, 0, 0, 1, 4, 9, 10, 0, 3, 8, 0, 0, 3, 5, 10, 10, 0, 0, 0, 6, 9, 4, 10, 0, 3, 1, 5, 0]);

suc = [
   {2, 3, 4},
   {8, 10, 5},
   {18, 6, 7},
   {16, 9, 47},
   {22},
   {48, 35, 14},
   {40, 11},
   {12, 39, 15},
   {37, 12, 13},
   {25, 19, 28},
   {36, 44},
   {59, 54, 23},
   {17, 29},
   {16},
   {20, 21},
   {43},
   {45, 23},
   {54, 46},
   {24, 37},
   {34, 42, 31},
   {26, 27, 31},
   {32, 50, 30},
   {53},
   {57},
   {46, 38},
   {32, 57, 45},
   {33, 38, 41},
   {35},
   {60, 30},
   {58, 43},
   {32},
   {52},
   {37},
   {56, 51, 52},
   {38, 39},
   {50},
   {45},
   {56, 53},
   {49, 42, 46},
   {49},
   {42, 44},
   {52},
   {59},
   {56, 47},
   {48},
   {50, 58},
   {48, 49, 53},
   {54, 55},
   {51},
   {60},
   {55},
   {60},
   {55},
   {61},
   {58},
   {57},
   {59, 61},
   {61},
   {62},
   {62},
   {62},
   {  } ];

deadline = array2d(1..62, 1..3, [2, 3, 3, 2, 5, 5, 3, 1, 0, 3, 1, 3, 5, 5, 0, 6, 5, 3, 6, 0, 2, 9, 1, 0, 10, 0, 5, 12, 1, 5, 15, 1, 0, 15, 0, 4, 16, 3, 0, 17, 5, 3, 20, 5, 5, 22, 2, 4, 30, 4, 3, 34, 5, 0, 39, 3, 1, 51, 3, 3, 52, 2, 5, 56, 2, 1, 59, 5, 5, 61, 4, 1, 64, 0, 2, 66, 2, 2, 68, 0, 4, 71, 5, 5, 76, 3, 2, 77, 1, 0, 78, 2, 3, 78, 2, 2, 78, 2, 4, 81, 5, 2, 84, 2, 4, 96, 3, 0, 98, 4, 2, 99, 2, 3, 103, 2, 0, 105, 3, 1, 110, 1, 3, 111, 3, 2, 113, 0, 3, 115, 0, 0, 119, 2, 5, 121, 4, 2, 123, 2, 5, 123, 5, 3, 133, 2, 2, 134, 5, 1, 135, 4, 3, 136, 2, 0, 140, 2, 2, 142, 5, 0, 145, 4, 3, 146, 5, 1, 146, 0, 2, 147, 5, 1, 150, 5, 1, 150, 2, 5, 152, 4, 1, 154, 2, 1]);
