n_res = 4;
rc = [ 14, 18, 14, 18 ];
n_tasks = 62;
d = [0, 3, 8, 3, 1, 4, 4, 3, 5, 2, 7, 2, 5, 6, 5, 3, 3, 10, 4, 3, 2, 5, 10, 8, 6, 1, 9, 3, 6, 3, 1, 8, 10, 10, 7, 2, 1, 2, 7, 10, 9, 8, 9, 5, 1, 7, 7, 9, 6, 3, 6, 7, 1, 5, 9, 3, 8, 1, 4, 6, 6, 0];
rr = array2d(1..4, 1..62, [0, 0, 1, 0, 10, 0, 0, 3, 0, 4, 8, 8, 0, 5, 0, 0, 1, 0, 0, 4, 0, 7, 0, 0, 3, 0, 0, 0, 0, 0, 0, 0, 0, 0, 0, 0, 9, 0, 0, 0, 0, 0, 0, 0, 4, 1, 0, 1, 2, 0, 0, 0, 0, 0, 6, 0, 2, 0, 0, 0, 10, 0, 0, 7, 0, 0, 0, 0, 0, 0, 0, 0, 0, 0, 0, 0, 5, 0, 0, 0, 0, 0, 0, 0, 0, 0, 0, 0, 7, 0, 0, 0, 6, 0, 0, 0, 2, 9, 0, 0, 0, 0, 4, 10, 10, 10, 0, 0, 0, 0, 0, 3, 4, 4, 0, 4, 0, 0, 0, 6, 0, 0, 0, 0, 0, 0, 0, 0, 0, 10, 4, 0, 0, 0, 0, 0, 7, 0, 0, 9, 0, 0, 0, 0, 0, 0, 0, 0, 0, 2, 0, 8, 1, 0, 0, 2, 10, 1, 0, 0, 0, 0, 7, 0, 0, 0, 0, 0, 0, 0, 0, 0, 0, 0, 0, 0, 5, 0, 0, 0, 0, 0, 0, 0, 0, 0, 0, 0, 0, 1, 0, 0, 0, 0, 1, 0, 0, 0, 0, 0, 0, 0, 0, 7, 8, 0, 9, 0, 8, 9, 0, 0, 0, 0, 0, 8, 0, 0, 0, 0, 0, 0, 0, 8, 0, 10, 0, 0, 0, 0, 0, 0, 1, 0, 0, 0, 0, 0, 0, 0, 0, 3, 0, 0, 8, 9, 0, 0]);

suc = [
   {2, 3, 4},
   {9, 10, 19},
   {17, 20, 7},
   {17, 5, 6},
   {18, 27, 50},
   {11, 12, 14},
   {8, 11, 38},
   {24, 43, 13},
   {37, 38},
   {20, 29, 15},
   {57, 42, 23},
   {16, 30},
   {25, 44, 45},
   {25, 22, 23},
   {45, 21, 31},
   {48, 19, 46},
   {32, 42, 51},
   {32, 33, 26},
   {24, 57, 36},
   {24, 45, 22},
   {48, 33, 22},
   {49, 35, 38},
   {36, 53, 55},
   {49},
   {28, 36, 31},
   {28, 44},
   {47},
   {34, 35, 39},
   {41, 43, 54},
   {32, 50, 46},
   {33, 34, 39},
   {35},
   {40, 49},
   {37},
   {58, 52},
   {40, 58},
   {41, 52},
   {56, 44},
   {40, 41},
   {54},
   {47},
   {43},
   {50, 47},
   {51, 61, 46},
   {51},
   {52},
   {48, 56, 58},
   {53, 55},
   {56, 53},
   {59},
   {57, 55},
   {59, 54},
   {59},
   {60},
   {60},
   {61},
   {60},
   {61},
   {62},
   {62},
   {62},
   {  } ];

deadline = array2d(1..62, 1..3, [3, 0, 4, 11, 0, 5, 12, 1, 1, 18, 4, 3, 23, 3, 1, 27, 5, 2, 38, 5, 2, 39, 0, 5, 39, 2, 4, 40, 2, 5, 51, 0, 5, 52, 4, 5, 52, 5, 3, 55, 0, 2, 56, 3, 4, 57, 1, 2, 62, 5, 0, 63, 2, 0, 68, 3, 4, 70, 5, 4, 70, 0, 5, 72, 5, 1, 73, 2, 2, 76, 4, 4, 87, 4, 1, 90, 2, 0, 96, 0, 5, 97, 4, 4, 97, 5, 1, 98, 2, 4, 99, 2, 3, 101, 2, 2, 104, 1, 3, 104, 5, 3, 105, 5, 2, 111, 2, 4, 111, 3, 5, 115, 5, 4, 117, 3, 4, 120, 2, 1, 124, 3, 3, 125, 2, 1, 127, 1, 3, 129, 0, 4, 131, 5, 0, 132, 3, 5, 137, 2, 3, 145, 1, 2, 149, 5, 1, 158, 4, 3, 161, 5, 0, 167, 0, 2, 167, 2, 2, 169, 5, 5, 173, 0, 4, 174, 1, 0, 175, 0, 0, 179, 1, 5, 188, 1, 2, 188, 2, 5, 188, 3, 5, 191, 5, 1]);
