n_res = 4;
rc = [ 24, 22, 22, 22 ];
n_tasks = 62;
d = [0, 8, 9, 3, 5, 5, 10, 8, 5, 2, 10, 10, 3, 6, 9, 1, 9, 10, 8, 8, 3, 7, 8, 1, 2, 1, 2, 5, 8, 9, 1, 2, 1, 3, 6, 2, 4, 4, 10, 4, 2, 9, 2, 8, 4, 5, 5, 2, 5, 3, 2, 7, 6, 5, 9, 1, 8, 6, 8, 4, 9, 0];
rr = array2d(1..4, 1..62, [0, 1, 2, 3, 1, 6, 7, 8, 7, 3, 5, 8, 2, 9, 2, 1, 5, 6, 9, 2, 8, 9, 8, 7, 7, 6, 3, 7, 4, 9, 5, 4, 6, 6, 6, 10, 2, 9, 4, 3, 4, 1, 5, 5, 6, 7, 3, 6, 5, 7, 7, 6, 4, 5, 2, 5, 9, 1, 1, 8, 8, 0, 0, 9, 7, 2, 10, 7, 8, 6, 3, 6, 7, 10, 2, 9, 4, 7, 9, 5, 3, 3, 7, 5, 1, 8, 3, 6, 10, 1, 10, 8, 10, 4, 4, 9, 2, 4, 3, 7, 6, 8, 5, 1, 4, 4, 10, 1, 5, 6, 1, 9, 3, 6, 4, 3, 5, 9, 9, 9, 3, 10, 6, 0, 0, 9, 5, 6, 6, 10, 5, 6, 4, 4, 4, 6, 8, 8, 4, 1, 5, 1, 7, 2, 7, 5, 9, 8, 5, 6, 7, 10, 7, 9, 4, 6, 8, 7, 8, 10, 8, 8, 3, 3, 2, 10, 3, 4, 8, 5, 6, 1, 8, 6, 1, 5, 2, 2, 1, 7, 5, 7, 8, 10, 6, 0, 0, 7, 5, 5, 7, 4, 1, 3, 1, 6, 8, 5, 3, 4, 6, 3, 2, 1, 10, 8, 7, 5, 7, 1, 10, 6, 4, 9, 3, 10, 8, 6, 9, 9, 9, 4, 7, 5, 2, 9, 5, 8, 2, 1, 6, 8, 8, 4, 6, 2, 9, 1, 5, 9, 7, 8, 6, 10, 7, 5, 1, 0]);

suc = [
   {2, 3, 4},
   {10, 5, 6},
   {8, 16, 13},
   {7},
   {17, 19, 12},
   {9, 11, 37},
   {42, 28, 22},
   {18, 35, 34},
   {40, 20, 31},
   {14, 15},
   {32, 33, 45},
   {33, 27, 57},
   {21, 14},
   {24, 23},
   {41, 50, 29},
   {50, 45, 47},
   {24, 45, 30},
   {48, 43},
   {25},
   {54, 23},
   {26},
   {55},
   {27, 39},
   {46},
   {42},
   {31},
   {44},
   {36, 53},
   {38, 33, 30},
   {44, 47, 39},
   {42, 44, 55},
   {40},
   {58, 43},
   {36, 38},
   {36, 37},
   {40},
   {57, 39},
   {47},
   {58, 52},
   {46},
   {51},
   {54},
   {59},
   {60},
   {59, 60, 46},
   {52},
   {54},
   {49, 50},
   {52, 53},
   {56, 61},
   {53},
   {61},
   {61, 55},
   {56},
   {56},
   {57},
   {58},
   {59, 60},
   {62},
   {62},
   {62},
   {  } ];

deadline = array2d(1..62, 1..3, [4, 3, 0, 5, 1, 1, 7, 0, 1, 10, 0, 4, 15, 2, 1, 15, 5, 5, 16, 2, 5, 20, 1, 0, 21, 5, 4, 26, 4, 4, 26, 1, 3, 29, 1, 2, 34, 2, 1, 37, 3, 1, 38, 2, 2, 39, 0, 3, 40, 1, 1, 41, 4, 3, 45, 3, 5, 46, 0, 5, 47, 0, 4, 47, 0, 4, 51, 5, 3, 54, 3, 4, 54, 5, 4, 54, 3, 4, 61, 0, 4, 61, 4, 3, 64, 1, 0, 66, 1, 1, 67, 1, 1, 84, 4, 1, 85, 2, 4, 98, 1, 2, 99, 2, 2, 101, 0, 3, 104, 0, 4, 105, 2, 5, 105, 3, 0, 106, 5, 3, 110, 0, 0, 114, 1, 1, 120, 2, 2, 124, 2, 5, 125, 5, 3, 128, 5, 0, 130, 3, 5, 132, 5, 3, 142, 4, 5, 146, 0, 1, 147, 1, 4, 148, 5, 1, 149, 4, 5, 149, 0, 2, 153, 0, 3, 158, 1, 3, 159, 0, 3, 164, 1, 0, 166, 1, 1, 173, 3, 0, 176, 3, 4, 178, 5, 2]);
