n_res = 4;
rc = [ 28, 26, 38, 21 ];
n_tasks = 62;
d = [0, 5, 6, 6, 5, 8, 7, 1, 6, 3, 1, 7, 2, 9, 10, 8, 5, 7, 3, 1, 10, 9, 5, 10, 9, 7, 2, 10, 1, 10, 4, 9, 10, 6, 5, 8, 1, 4, 7, 1, 1, 4, 1, 4, 1, 4, 5, 2, 8, 8, 4, 9, 10, 1, 2, 10, 2, 1, 1, 2, 5, 0];
rr = array2d(1..4, 1..62, [0, 0, 10, 9, 7, 9, 0, 0, 6, 10, 9, 0, 0, 0, 7, 0, 9, 0, 3, 0, 0, 9, 1, 10, 0, 3, 0, 0, 3, 0, 0, 8, 0, 0, 0, 6, 0, 0, 6, 8, 0, 6, 3, 1, 8, 3, 0, 1, 0, 1, 0, 0, 0, 0, 5, 0, 0, 9, 0, 0, 5, 0, 0, 5, 0, 0, 0, 3, 8, 0, 0, 0, 0, 0, 0, 9, 8, 0, 0, 7, 0, 4, 0, 5, 3, 0, 0, 6, 8, 5, 6, 10, 0, 0, 1, 6, 7, 0, 7, 7, 0, 1, 5, 0, 0, 0, 0, 0, 10, 0, 5, 5, 0, 0, 4, 0, 0, 1, 9, 0, 2, 3, 0, 0, 0, 0, 7, 0, 5, 0, 6, 8, 0, 0, 3, 0, 0, 3, 9, 3, 4, 9, 1, 7, 9, 0, 0, 3, 10, 5, 1, 7, 5, 0, 8, 10, 0, 6, 7, 9, 0, 0, 0, 0, 0, 10, 3, 9, 3, 0, 0, 10, 8, 0, 5, 9, 8, 0, 0, 0, 2, 0, 0, 0, 0, 0, 0, 10, 0, 8, 0, 2, 4, 0, 0, 3, 0, 3, 1, 0, 0, 0, 0, 0, 0, 8, 0, 0, 0, 0, 8, 0, 7, 0, 0, 0, 2, 0, 2, 4, 0, 0, 8, 0, 3, 5, 5, 0, 1, 9, 0, 0, 0, 9, 0, 0, 3, 9, 0, 6, 0, 4, 6, 3, 4, 9, 2, 0]);

suc = [
   {2, 3, 4},
   {38, 5, 22},
   {10, 6, 7},
   {17, 34, 60},
   {24, 40, 37},
   {27, 18, 11},
   {8, 9, 24},
   {26, 13, 14},
   {18, 12},
   {26, 14, 31},
   {43, 19, 59},
   {26, 21, 31},
   {16, 33, 38},
   {48, 25, 15},
   {18, 27, 47},
   {40, 44, 23},
   {29, 20, 28},
   {34, 52, 37},
   {45, 20, 28},
   {50, 37},
   {22, 30},
   {48, 41, 23},
   {32, 43, 39},
   {35, 30, 39},
   {32, 27, 53},
   {47},
   {56, 42, 28},
   {61},
   {36, 30},
   {32, 41, 42},
   {33, 57, 49},
   {50},
   {34, 46},
   {58},
   {41, 58, 44},
   {40, 42, 43},
   {51, 39},
   {49, 52, 46},
   {57, 54},
   {58},
   {47},
   {45},
   {50},
   {49, 45, 46},
   {57, 52},
   {53, 55},
   {56},
   {51, 55},
   {53, 55},
   {51},
   {54},
   {54},
   {56, 60},
   {61},
   {60},
   {59},
   {61},
   {59},
   {62},
   {62},
   {62},
   {  } ];

deadline = array2d(1..62, 1..3, [2, 0, 3, 7, 4, 2, 8, 5, 0, 9, 3, 4, 10, 3, 2, 11, 0, 4, 12, 5, 1, 16, 3, 2, 16, 5, 2, 17, 0, 3, 19, 4, 5, 21, 2, 5, 21, 4, 2, 22, 4, 5, 25, 1, 4, 26, 4, 3, 27, 1, 3, 29, 2, 0, 31, 1, 1, 41, 3, 5, 46, 5, 0, 52, 4, 4, 54, 0, 2, 54, 5, 3, 56, 1, 4, 59, 1, 1, 67, 3, 3, 68, 4, 5, 69, 0, 0, 71, 0, 4, 75, 2, 3, 79, 5, 2, 81, 4, 5, 87, 5, 3, 87, 3, 0, 95, 3, 5, 103, 1, 5, 108, 0, 5, 108, 4, 2, 109, 2, 5, 112, 5, 3, 120, 3, 3, 124, 4, 2, 127, 3, 5, 134, 3, 1, 136, 5, 1, 140, 4, 4, 142, 3, 2, 144, 5, 4, 148, 3, 3, 152, 0, 2, 159, 3, 1, 165, 0, 0, 169, 1, 0, 170, 0, 0, 171, 3, 4, 176, 1, 2, 178, 0, 5, 179, 3, 2, 180, 5, 4, 187, 1, 3, 190, 1, 0]);
