n_res = 4;
rc = [ 30, 22, 30, 25 ];
n_tasks = 62;
d = [0, 2, 4, 4, 3, 4, 4, 4, 1, 1, 1, 7, 6, 5, 10, 7, 8, 9, 3, 10, 5, 8, 4, 5, 8, 1, 2, 9, 4, 10, 8, 1, 3, 9, 3, 1, 3, 2, 10, 1, 4, 3, 4, 9, 5, 3, 5, 3, 4, 3, 6, 6, 4, 1, 4, 6, 4, 5, 5, 10, 8, 0];
rr = array2d(1..4, 1..62, [0, 0, 5, 8, 0, 0, 4, 1, 9, 0, 0, 10, 2, 0, 10, 3, 0, 6, 0, 0, 10, 0, 10, 7, 0, 5, 3, 0, 2, 4, 10, 3, 0, 0, 0, 0, 1, 0, 0, 1, 0, 8, 0, 0, 2, 8, 2, 2, 3, 1, 10, 8, 6, 0, 0, 6, 0, 7, 1, 1, 0, 0, 0, 3, 0, 0, 0, 3, 2, 1, 0, 3, 0, 0, 0, 8, 0, 0, 0, 0, 0, 6, 3, 10, 8, 0, 0, 0, 7, 0, 0, 1, 4, 0, 0, 0, 3, 9, 0, 0, 0, 5, 10, 0, 0, 0, 6, 0, 8, 6, 0, 1, 1, 8, 0, 5, 7, 10, 0, 4, 0, 9, 0, 0, 0, 9, 0, 3, 10, 0, 0, 0, 0, 3, 0, 5, 0, 0, 6, 9, 5, 5, 0, 0, 8, 4, 0, 0, 0, 0, 7, 5, 0, 0, 3, 0, 4, 8, 5, 6, 4, 4, 7, 0, 9, 9, 6, 0, 0, 7, 0, 0, 0, 0, 0, 0, 9, 0, 7, 9, 10, 3, 4, 5, 7, 0, 0, 0, 1, 0, 0, 0, 0, 0, 0, 0, 1, 5, 7, 7, 0, 0, 6, 0, 3, 0, 0, 9, 0, 0, 6, 5, 7, 7, 6, 0, 1, 0, 0, 3, 9, 0, 0, 0, 10, 5, 1, 7, 0, 2, 0, 0, 0, 0, 0, 0, 0, 0, 8, 10, 0, 4, 8, 0, 0, 0, 0, 0]);

suc = [
   {2, 3, 4},
   {10, 5, 6},
   {32, 29, 14},
   {9, 12},
   {57, 22},
   {8, 18, 7},
   {13, 55},
   {29},
   {17},
   {19, 11, 20},
   {15},
   {16, 54, 46},
   {31, 23},
   {31},
   {52},
   {24},
   {21},
   {48, 59, 36},
   {43, 53},
   {25},
   {29},
   {33, 58},
   {24},
   {27},
   {26},
   {38},
   {28, 30},
   {36, 39},
   {34, 30},
   {41, 38},
   {58},
   {53, 37},
   {40, 35},
   {43},
   {49},
   {50},
   {41},
   {45},
   {61},
   {43, 45},
   {42},
   {56, 44, 47},
   {48},
   {58},
   {48, 59},
   {50, 52},
   {51},
   {50},
   {53},
   {61},
   {57, 52},
   {60},
   {55},
   {55},
   {60},
   {61},
   {60},
   {59},
   {62},
   {62},
   {62},
   {  } ];

deadline = array2d(1..62, 1..3, [2, 4, 5, 3, 0, 0, 4, 0, 1, 6, 5, 0, 8, 3, 5, 13, 4, 5, 19, 0, 0, 20, 0, 1, 23, 3, 1, 24, 5, 2, 28, 3, 5, 32, 0, 4, 38, 0, 5, 39, 1, 0, 53, 5, 5, 56, 4, 3, 61, 4, 3, 62, 2, 5, 64, 4, 4, 67, 1, 0, 67, 0, 3, 69, 4, 1, 70, 4, 3, 78, 1, 5, 80, 4, 3, 86, 0, 5, 87, 1, 4, 88, 3, 2, 88, 2, 5, 89, 4, 5, 90, 0, 3, 92, 2, 1, 97, 1, 4, 100, 4, 2, 101, 0, 1, 101, 0, 5, 102, 4, 0, 109, 0, 0, 109, 0, 2, 111, 1, 0, 111, 3, 3, 119, 1, 2, 121, 5, 3, 121, 4, 2, 128, 1, 1, 128, 1, 3, 128, 3, 0, 128, 4, 4, 129, 0, 3, 133, 3, 3, 135, 3, 2, 136, 5, 0, 136, 2, 0, 136, 3, 4, 138, 0, 2, 138, 0, 2, 139, 2, 4, 144, 4, 4, 145, 1, 2, 169, 4, 1, 172, 0, 0, 172, 5, 5]);
