n_res = 4;
rc = [ 13, 12, 12, 11 ];
n_tasks = 62;
d = [0, 1, 3, 6, 1, 2, 3, 9, 2, 6, 3, 5, 2, 6, 7, 3, 10, 2, 8, 8, 4, 4, 9, 10, 10, 4, 3, 5, 6, 6, 10, 8, 3, 6, 6, 3, 9, 1, 9, 1, 3, 3, 1, 6, 9, 1, 4, 2, 2, 1, 9, 9, 6, 3, 5, 1, 6, 10, 5, 9, 6, 0];
rr = array2d(1..4, 1..62, [0, 10, 0, 0, 10, 0, 0, 0, 0, 0, 0, 9, 3, 4, 2, 0, 2, 0, 0, 0, 0, 0, 0, 9, 0, 0, 0, 0, 0, 0, 0, 0, 0, 0, 0, 0, 0, 0, 6, 10, 5, 0, 0, 0, 1, 10, 0, 2, 5, 0, 10, 0, 0, 6, 0, 1, 0, 0, 0, 0, 0, 0, 0, 0, 0, 0, 0, 0, 9, 0, 10, 0, 3, 0, 0, 0, 0, 0, 0, 0, 0, 0, 0, 0, 0, 0, 0, 6, 3, 0, 0, 0, 0, 0, 0, 1, 0, 0, 7, 0, 0, 0, 0, 10, 0, 0, 0, 0, 0, 0, 0, 6, 0, 0, 0, 0, 0, 0, 0, 0, 0, 3, 0, 0, 0, 0, 0, 1, 0, 9, 0, 4, 0, 0, 0, 0, 0, 0, 0, 3, 0, 3, 3, 7, 0, 8, 3, 0, 1, 0, 0, 0, 0, 0, 2, 0, 7, 0, 0, 2, 0, 6, 0, 0, 0, 0, 4, 6, 0, 0, 3, 0, 0, 0, 0, 0, 0, 0, 0, 0, 0, 0, 8, 0, 10, 0, 0, 0, 10, 0, 0, 0, 0, 0, 0, 1, 0, 0, 0, 0, 0, 0, 0, 0, 0, 0, 2, 0, 0, 0, 0, 0, 0, 10, 6, 5, 0, 7, 0, 0, 1, 0, 0, 0, 0, 0, 0, 0, 0, 0, 0, 0, 0, 0, 0, 0, 0, 6, 1, 0, 1, 0, 8, 4, 0, 0, 0, 0]);

suc = [
   {2, 3, 4},
   {19, 5, 30},
   {34, 13, 55},
   {17, 11, 14},
   {8, 6, 7},
   {9, 10, 12},
   {21, 22},
   {40, 54},
   {18},
   {50, 11},
   {47},
   {16, 33, 36},
   {19},
   {52, 15},
   {24},
   {51, 60, 46},
   {29},
   {41, 27, 31},
   {32, 20, 23},
   {27, 39},
   {48},
   {28, 44},
   {25, 35, 45},
   {32, 26},
   {28, 37, 31},
   {27},
   {56},
   {49},
   {30},
   {33, 34},
   {43},
   {33, 38},
   {42},
   {43, 37},
   {49, 42, 43},
   {46, 38, 47},
   {51, 38, 47},
   {49},
   {60},
   {53, 55},
   {42, 61},
   {58},
   {54, 44, 46},
   {52},
   {51, 54},
   {57, 50},
   {53},
   {52, 55},
   {57, 50, 53},
   {59},
   {58, 61},
   {60},
   {56, 61},
   {57},
   {56},
   {58},
   {59},
   {59},
   {62},
   {62},
   {62},
   {  } ];

deadline = array2d(1..62, 1..3, [6, 4, 4, 6, 1, 3, 13, 4, 4, 14, 2, 4, 16, 0, 0, 21, 5, 2, 22, 2, 0, 23, 3, 0, 24, 4, 2, 26, 5, 0, 28, 0, 1, 31, 3, 4, 32, 2, 4, 37, 5, 4, 40, 1, 3, 43, 4, 5, 47, 1, 0, 47, 1, 1, 50, 0, 1, 54, 4, 2, 55, 2, 5, 60, 1, 1, 65, 2, 1, 65, 1, 1, 66, 4, 5, 68, 2, 3, 72, 1, 1, 79, 3, 5, 79, 5, 0, 82, 3, 1, 86, 0, 2, 86, 5, 1, 87, 3, 0, 88, 5, 0, 89, 2, 2, 91, 2, 5, 96, 5, 4, 97, 0, 3, 101, 3, 2, 104, 5, 0, 105, 0, 0, 109, 5, 3, 110, 2, 2, 112, 2, 3, 113, 4, 4, 124, 0, 4, 127, 2, 1, 129, 2, 5, 130, 5, 1, 132, 0, 0, 141, 0, 5, 143, 1, 5, 151, 1, 3, 153, 2, 3, 154, 0, 4, 156, 1, 5, 156, 1, 2, 158, 0, 3, 165, 4, 4, 167, 5, 3, 167, 5, 3, 169, 1, 2]);
