n_res = 4;
rc = [ 40, 39, 48, 48 ];
n_tasks = 62;
d = [0, 4, 5, 3, 6, 6, 9, 9, 8, 9, 7, 3, 9, 8, 2, 5, 6, 5, 3, 10, 3, 9, 2, 7, 4, 2, 2, 8, 2, 8, 7, 10, 6, 3, 5, 8, 2, 4, 5, 8, 2, 10, 6, 5, 7, 2, 4, 8, 7, 3, 1, 6, 5, 4, 8, 5, 10, 5, 9, 3, 5, 0];
rr = array2d(1..4, 1..62, [0, 6, 7, 4, 6, 5, 4, 1, 2, 5, 1, 7, 7, 1, 3, 7, 5, 3, 7, 5, 10, 8, 1, 8, 5, 9, 2, 3, 2, 8, 3, 6, 4, 10, 10, 10, 5, 4, 10, 3, 6, 7, 3, 9, 6, 3, 5, 9, 3, 1, 10, 6, 9, 4, 4, 9, 4, 2, 8, 2, 8, 0, 0, 1, 4, 5, 2, 3, 3, 4, 6, 6, 5, 7, 2, 6, 1, 10, 6, 6, 10, 4, 6, 9, 1, 9, 2, 10, 1, 1, 8, 5, 6, 10, 1, 2, 4, 2, 3, 1, 7, 6, 1, 10, 5, 5, 6, 1, 7, 3, 2, 8, 2, 2, 5, 3, 10, 9, 4, 8, 1, 4, 3, 0, 0, 9, 1, 7, 9, 9, 9, 10, 7, 10, 9, 4, 9, 8, 10, 10, 1, 5, 7, 1, 5, 1, 6, 5, 4, 7, 1, 2, 10, 2, 4, 9, 2, 4, 8, 1, 3, 1, 2, 2, 10, 9, 4, 6, 2, 10, 3, 1, 4, 10, 9, 6, 5, 3, 10, 6, 7, 9, 4, 6, 6, 0, 0, 4, 6, 9, 2, 4, 6, 2, 8, 7, 3, 10, 4, 9, 6, 8, 6, 3, 3, 6, 2, 10, 9, 7, 3, 2, 4, 9, 7, 1, 8, 2, 10, 4, 6, 10, 6, 1, 6, 3, 8, 3, 10, 1, 10, 8, 5, 8, 1, 4, 7, 1, 4, 2, 1, 5, 9, 9, 6, 1, 10, 0]);

suc = [
   {2, 3, 4},
   {12, 5, 22},
   {10, 28, 31},
   {8, 9, 7},
   {56, 6, 30},
   {44, 13, 23},
   {48, 44, 39},
   {16, 11, 12},
   {27, 21, 15},
   {32, 19, 23},
   {29, 15},
   {18, 34, 58},
   {17, 53, 14},
   {25, 19, 20},
   {47, 30, 39},
   {54, 23},
   {24, 28, 36},
   {50, 35, 37},
   {24, 33, 35},
   {26, 43},
   {32, 49, 22},
   {38, 34, 30},
   {57, 45, 55},
   {54},
   {28, 29},
   {41, 35, 36},
   {53, 38, 31},
   {57, 39},
   {32, 33, 34},
   {41, 37, 31},
   {40, 33},
   {48, 41},
   {42, 61, 46},
   {43, 46},
   {40, 45},
   {40, 37},
   {55},
   {42, 47},
   {43},
   {42, 51, 46},
   {58, 45},
   {48},
   {52},
   {50},
   {59, 51, 52},
   {54},
   {56, 51},
   {52},
   {56, 57, 50},
   {59, 53},
   {60},
   {60},
   {55},
   {59},
   {60},
   {58},
   {61},
   {61},
   {62},
   {62},
   {62},
   {  } ];

deadline = array2d(1..62, 1..3, [1, 1, 3, 1, 1, 0, 3, 2, 0, 5, 0, 1, 6, 5, 2, 13, 4, 2, 14, 3, 4, 14, 5, 3, 18, 1, 3, 24, 2, 4, 26, 3, 1, 27, 3, 4, 33, 0, 4, 34, 5, 0, 41, 2, 2, 43, 1, 0, 44, 3, 0, 47, 0, 2, 49, 3, 0, 54, 3, 5, 55, 4, 5, 62, 2, 2, 63, 5, 1, 70, 4, 2, 72, 4, 0, 73, 3, 2, 78, 0, 5, 78, 3, 5, 82, 2, 5, 85, 0, 2, 92, 5, 3, 98, 0, 3, 101, 3, 3, 101, 4, 0, 103, 2, 3, 105, 5, 5, 105, 0, 1, 109, 0, 1, 112, 3, 4, 116, 2, 5, 120, 4, 3, 124, 0, 3, 127, 5, 3, 127, 1, 0, 127, 5, 1, 131, 0, 5, 141, 2, 4, 145, 1, 5, 161, 2, 3, 165, 2, 0, 169, 5, 3, 171, 2, 1, 177, 3, 4, 180, 1, 0, 183, 1, 5, 191, 0, 2, 192, 3, 0, 195, 3, 3, 200, 5, 0, 206, 0, 4, 217, 4, 0, 217, 0, 1]);
