n_res = 4;
rc = [ 39, 25, 31, 27 ];
n_tasks = 62;
d = [0, 1, 7, 6, 2, 9, 7, 7, 5, 3, 3, 6, 3, 2, 10, 7, 4, 9, 6, 5, 10, 7, 1, 5, 4, 10, 8, 5, 4, 7, 9, 9, 6, 7, 4, 10, 10, 2, 3, 9, 5, 10, 6, 3, 2, 10, 2, 1, 5, 3, 8, 10, 2, 8, 9, 7, 10, 4, 4, 5, 4, 0];
rr = array2d(1..4, 1..62, [0, 0, 10, 2, 8, 1, 8, 0, 1, 6, 0, 9, 0, 1, 7, 5, 0, 7, 8, 1, 4, 8, 8, 10, 5, 9, 4, 9, 9, 9, 5, 10, 8, 4, 0, 5, 8, 0, 1, 0, 8, 0, 8, 6, 6, 2, 10, 6, 0, 7, 0, 6, 10, 0, 1, 7, 2, 10, 6, 8, 2, 0, 0, 0, 0, 10, 1, 0, 2, 10, 0, 4, 5, 0, 1, 0, 2, 0, 8, 6, 6, 4, 1, 8, 7, 10, 6, 0, 0, 7, 5, 2, 4, 7, 9, 0, 7, 7, 10, 2, 0, 0, 8, 4, 0, 0, 0, 0, 6, 7, 4, 4, 8, 9, 5, 0, 4, 3, 6, 8, 10, 2, 9, 0, 0, 1, 6, 10, 9, 5, 4, 0, 6, 7, 0, 0, 2, 5, 10, 0, 5, 5, 2, 9, 6, 2, 4, 4, 8, 0, 6, 0, 5, 1, 4, 3, 2, 10, 10, 0, 10, 0, 0, 4, 2, 4, 2, 1, 0, 0, 0, 1, 3, 8, 1, 10, 10, 9, 0, 10, 0, 5, 0, 7, 8, 0, 0, 0, 4, 3, 7, 3, 5, 0, 3, 2, 8, 0, 7, 0, 2, 2, 0, 2, 9, 8, 7, 3, 6, 0, 3, 0, 8, 4, 7, 5, 7, 0, 2, 5, 7, 8, 8, 0, 0, 6, 4, 10, 5, 8, 7, 5, 0, 5, 1, 6, 5, 10, 3, 0, 3, 2, 0, 2, 0, 6, 0, 0]);

suc = [
   {2, 3, 4},
   {18, 28, 37},
   {35, 20, 29},
   {5, 6, 7},
   {16, 10, 11},
   {8, 21, 15},
   {9, 12, 14},
   {26, 12, 31},
   {17, 45, 30},
   {25, 14, 39},
   {17, 20, 13},
   {32, 47, 39},
   {51},
   {27, 29, 23},
   {25, 26, 31},
   {48},
   {46, 21, 22},
   {57, 19, 53},
   {24, 35, 23},
   {40, 36, 38},
   {55},
   {28, 29},
   {33, 34, 43},
   {34, 42, 52},
   {41, 38, 47},
   {32, 51, 27},
   {40, 33, 43},
   {42, 35},
   {60, 47},
   {33, 37, 38},
   {49, 44, 60},
   {36},
   {56},
   {54},
   {50},
   {41, 43, 53},
   {41, 46, 39},
   {49, 54},
   {49, 42, 50},
   {57, 44, 45},
   {48, 50},
   {44},
   {58, 45},
   {56},
   {60, 46},
   {48, 59},
   {52, 54},
   {61},
   {56, 51},
   {52, 61},
   {57, 53},
   {55},
   {55},
   {61},
   {59},
   {58},
   {58},
   {59},
   {62},
   {62},
   {62},
   {  } ];

deadline = array2d(1..62, 1..3, [14, 3, 4, 20, 1, 4, 21, 2, 2, 23, 0, 1, 29, 3, 4, 29, 0, 0, 31, 4, 5, 33, 3, 0, 36, 0, 4, 39, 2, 3, 43, 2, 3, 47, 0, 0, 48, 5, 2, 50, 1, 2, 56, 5, 4, 57, 1, 0, 59, 5, 1, 59, 5, 3, 59, 0, 2, 61, 1, 1, 66, 3, 4, 73, 1, 1, 75, 3, 1, 77, 1, 4, 80, 4, 1, 82, 1, 5, 89, 3, 3, 92, 2, 5, 95, 4, 0, 99, 1, 0, 101, 1, 3, 106, 2, 2, 107, 1, 2, 109, 0, 1, 117, 3, 1, 119, 3, 5, 127, 3, 0, 131, 2, 5, 133, 0, 3, 137, 1, 3, 138, 2, 4, 140, 0, 0, 144, 0, 1, 147, 3, 0, 147, 1, 1, 149, 0, 2, 150, 4, 3, 153, 1, 5, 154, 5, 1, 157, 3, 4, 168, 3, 5, 170, 3, 0, 173, 4, 0, 176, 2, 0, 177, 4, 5, 186, 5, 0, 187, 5, 3, 194, 5, 2, 201, 1, 4, 202, 1, 0, 204, 0, 0, 207, 2, 4]);
