n_res = 4;
rc = [ 56, 49, 39, 35 ];
n_tasks = 62;
d = [0, 1, 1, 5, 7, 9, 3, 9, 10, 6, 4, 4, 7, 10, 2, 7, 6, 4, 4, 1, 3, 2, 4, 2, 2, 1, 4, 1, 1, 2, 8, 7, 9, 8, 6, 4, 9, 10, 5, 6, 1, 8, 1, 5, 8, 10, 5, 3, 5, 6, 10, 3, 2, 9, 3, 6, 7, 3, 5, 9, 4, 0];
rr = array2d(1..4, 1..62, [0, 0, 7, 7, 9, 8, 7, 9, 6, 10, 6, 7, 9, 4, 9, 3, 10, 0, 0, 0, 1, 3, 6, 1, 9, 10, 7, 2, 0, 3, 7, 5, 6, 8, 6, 4, 0, 0, 2, 4, 9, 9, 4, 1, 0, 2, 9, 1, 10, 0, 0, 8, 7, 0, 10, 10, 9, 3, 3, 6, 8, 0, 0, 5, 0, 6, 5, 0, 0, 9, 0, 10, 8, 0, 0, 9, 0, 7, 7, 7, 8, 1, 0, 7, 3, 2, 2, 1, 0, 1, 10, 4, 4, 0, 0, 3, 9, 0, 0, 2, 6, 2, 8, 6, 9, 2, 2, 10, 6, 2, 8, 8, 9, 9, 8, 9, 0, 0, 7, 7, 6, 8, 4, 0, 0, 8, 4, 6, 1, 0, 4, 7, 0, 0, 3, 4, 7, 1, 0, 8, 5, 0, 2, 6, 0, 8, 0, 7, 0, 5, 10, 8, 5, 2, 10, 7, 0, 0, 9, 0, 10, 9, 8, 4, 0, 1, 9, 0, 8, 0, 2, 10, 0, 7, 6, 0, 2, 4, 3, 1, 10, 2, 1, 0, 9, 0, 0, 10, 7, 4, 4, 3, 0, 6, 6, 0, 1, 3, 10, 10, 0, 4, 0, 7, 1, 2, 8, 0, 5, 8, 0, 0, 1, 0, 0, 1, 6, 6, 1, 1, 2, 6, 10, 4, 0, 0, 6, 6, 1, 0, 9, 1, 3, 0, 1, 1, 9, 6, 3, 0, 0, 9, 0, 2, 4, 6, 1, 0]);

suc = [
   {2, 3, 4},
   {16, 9},
   {8, 5, 6},
   {11, 53, 7},
   {24, 10, 18},
   {42, 58},
   {17, 13, 22},
   {19},
   {40, 12, 23},
   {15},
   {58},
   {35, 14},
   {37, 31},
   {54, 45, 30},
   {20},
   {55, 29, 39},
   {51},
   {25, 33},
   {26, 21},
   {47},
   {49, 27, 28},
   {30},
   {47},
   {40, 34, 36},
   {50},
   {41},
   {32, 51},
   {46},
   {32, 56, 44},
   {43},
   {41, 55},
   {42, 53},
   {38},
   {42},
   {48, 49},
   {52},
   {49},
   {51},
   {41},
   {56},
   {54},
   {59},
   {55},
   {45},
   {46},
   {50},
   {57},
   {57},
   {60},
   {60},
   {56},
   {58},
   {61},
   {57},
   {59},
   {59},
   {61},
   {61},
   {62},
   {62},
   {62},
   {  } ];

deadline = array2d(1..62, 1..3, [3, 2, 0, 11, 5, 3, 12, 3, 0, 12, 2, 5, 13, 1, 3, 14, 3, 0, 18, 5, 3, 19, 4, 4, 20, 4, 1, 20, 2, 5, 24, 3, 3, 26, 0, 4, 30, 4, 5, 31, 2, 5, 37, 3, 0, 39, 2, 5, 40, 4, 3, 41, 1, 0, 42, 3, 4, 43, 4, 2, 44, 4, 2, 49, 5, 2, 51, 5, 0, 51, 3, 0, 60, 4, 2, 66, 2, 4, 69, 4, 5, 73, 0, 3, 76, 0, 4, 76, 4, 4, 76, 4, 2, 77, 4, 2, 79, 3, 2, 79, 3, 2, 82, 3, 2, 84, 0, 3, 85, 4, 1, 91, 1, 4, 95, 2, 3, 96, 5, 2, 97, 0, 4, 97, 1, 1, 104, 1, 1, 104, 3, 3, 110, 5, 5, 111, 4, 0, 112, 5, 3, 112, 3, 5, 115, 4, 0, 123, 1, 1, 125, 0, 1, 127, 4, 4, 130, 3, 5, 132, 4, 1, 133, 0, 5, 134, 4, 4, 134, 1, 3, 135, 1, 0, 136, 5, 5, 140, 1, 4, 140, 4, 3, 142, 3, 3]);
