n_res = 4;
rc = [ 29, 33, 31, 32 ];
n_tasks = 62;
d = [0, 6, 3, 9, 6, 7, 8, 2, 1, 8, 6, 10, 3, 6, 1, 4, 5, 5, 9, 7, 9, 9, 1, 9, 3, 7, 8, 10, 5, 9, 1, 1, 3, 10, 6, 1, 4, 8, 6, 10, 4, 1, 6, 10, 8, 10, 8, 9, 10, 8, 3, 8, 6, 5, 9, 1, 1, 5, 9, 9, 7, 0];
rr = array2d(1..4, 1..62, [0, 7, 7, 8, 6, 8, 4, 1, 5, 3, 8, 3, 10, 3, 2, 8, 7, 6, 4, 3, 8, 5, 3, 8, 3, 10, 9, 9, 2, 6, 7, 3, 5, 6, 2, 10, 4, 4, 2, 7, 6, 3, 4, 4, 10, 3, 4, 6, 9, 3, 3, 3, 7, 7, 5, 8, 8, 8, 8, 2, 5, 0, 0, 10, 2, 6, 4, 3, 5, 1, 9, 5, 3, 5, 7, 10, 6, 3, 7, 10, 3, 1, 1, 7, 5, 7, 10, 10, 8, 10, 6, 5, 10, 5, 8, 5, 9, 7, 3, 9, 10, 4, 3, 10, 10, 9, 4, 1, 2, 9, 2, 6, 4, 5, 8, 7, 1, 10, 1, 10, 9, 7, 6, 0, 0, 3, 8, 9, 1, 2, 10, 5, 2, 6, 10, 8, 2, 10, 2, 10, 2, 3, 4, 5, 10, 7, 4, 10, 3, 8, 9, 3, 2, 5, 8, 2, 7, 6, 9, 1, 10, 5, 2, 2, 9, 6, 7, 3, 3, 2, 4, 3, 9, 1, 8, 3, 6, 1, 5, 9, 2, 4, 6, 2, 2, 0, 0, 9, 10, 9, 5, 1, 8, 4, 10, 7, 3, 2, 5, 8, 6, 2, 7, 9, 8, 6, 8, 10, 2, 9, 10, 2, 4, 3, 10, 2, 3, 2, 1, 10, 8, 1, 4, 9, 6, 1, 10, 8, 2, 3, 3, 3, 10, 6, 8, 6, 6, 3, 9, 5, 10, 9, 8, 10, 7, 1, 8, 0]);

suc = [
   {2, 3, 4},
   {8, 10, 15},
   {25},
   {13, 5, 7},
   {19, 6, 14},
   {11, 12, 20},
   {41, 42, 45},
   {32, 9, 39},
   {48, 34, 60},
   {18, 34, 44},
   {32, 56, 21},
   {34, 55},
   {16, 51},
   {20, 53, 23},
   {49, 27, 29},
   {17},
   {48, 56},
   {31, 36, 23},
   {26},
   {24, 22},
   {42, 31},
   {57, 52, 47},
   {40, 38},
   {28},
   {33, 30},
   {27, 37, 38},
   {51, 43, 61},
   {41},
   {48, 42, 30},
   {35},
   {37},
   {37},
   {58, 36, 39},
   {49},
   {46},
   {40},
   {50, 45},
   {47},
   {44},
   {43},
   {55, 47},
   {44},
   {52, 46},
   {57, 50, 54},
   {58},
   {54, 55},
   {49, 59},
   {58},
   {61},
   {51},
   {52},
   {60},
   {54},
   {59},
   {56, 57},
   {60},
   {59},
   {61},
   {62},
   {62},
   {62},
   {  } ];

deadline = array2d(1..62, 1..3, [1, 0, 1, 5, 3, 4, 5, 5, 3, 6, 3, 5, 11, 2, 0, 12, 4, 1, 13, 1, 0, 18, 1, 4, 18, 0, 0, 22, 2, 2, 24, 0, 4, 25, 1, 2, 42, 3, 3, 46, 4, 3, 46, 1, 4, 51, 3, 4, 52, 0, 2, 59, 4, 5, 60, 2, 0, 61, 4, 5, 61, 1, 5, 67, 3, 2, 71, 0, 2, 73, 1, 1, 74, 4, 3, 105, 3, 4, 107, 5, 5, 108, 2, 3, 108, 4, 1, 109, 3, 1, 110, 2, 4, 111, 4, 2, 111, 4, 4, 112, 5, 4, 114, 2, 2, 124, 3, 1, 125, 5, 5, 129, 5, 4, 132, 2, 4, 136, 2, 3, 138, 0, 5, 138, 3, 0, 139, 1, 2, 141, 4, 4, 147, 5, 2, 150, 3, 3, 150, 4, 4, 150, 4, 1, 151, 3, 5, 152, 0, 3, 158, 2, 4, 163, 3, 3, 166, 4, 5, 169, 0, 2, 173, 4, 3, 174, 4, 5, 177, 1, 4, 177, 5, 5, 184, 4, 2, 185, 2, 3, 190, 0, 2, 192, 5, 2]);
