n_res = 4;
rc = [ 61, 57, 55, 47 ];
n_tasks = 62;
d = [0, 6, 4, 10, 6, 6, 9, 4, 3, 10, 9, 6, 9, 4, 3, 9, 3, 3, 7, 1, 10, 7, 1, 1, 7, 5, 5, 1, 8, 10, 1, 10, 1, 10, 4, 7, 3, 1, 8, 8, 4, 4, 1, 3, 5, 5, 7, 6, 6, 4, 9, 8, 10, 6, 8, 5, 9, 2, 4, 2, 3, 0];
rr = array2d(1..4, 1..62, [0, 4, 0, 2, 5, 4, 3, 3, 6, 4, 8, 4, 5, 8, 5, 9, 5, 3, 5, 0, 10, 4, 5, 3, 10, 2, 10, 2, 10, 0, 5, 2, 0, 0, 7, 5, 4, 4, 0, 0, 3, 10, 9, 0, 0, 9, 1, 5, 6, 1, 6, 2, 0, 1, 4, 0, 0, 0, 0, 1, 10, 0, 0, 8, 2, 4, 5, 8, 0, 0, 4, 0, 0, 6, 0, 0, 9, 6, 9, 3, 5, 9, 0, 8, 3, 10, 10, 3, 8, 3, 2, 9, 9, 3, 9, 8, 0, 10, 3, 4, 6, 0, 10, 1, 0, 10, 0, 2, 9, 7, 2, 6, 10, 9, 0, 1, 1, 10, 8, 10, 3, 0, 9, 0, 0, 0, 2, 8, 6, 8, 0, 0, 5, 6, 10, 0, 4, 0, 0, 8, 3, 3, 0, 2, 10, 0, 0, 3, 3, 1, 3, 0, 9, 4, 9, 0, 10, 3, 0, 10, 4, 4, 1, 8, 7, 2, 0, 7, 5, 6, 4, 6, 0, 8, 5, 0, 0, 7, 8, 2, 5, 2, 5, 4, 2, 0, 0, 6, 0, 0, 3, 3, 8, 5, 0, 6, 5, 6, 3, 10, 0, 0, 6, 10, 3, 2, 2, 9, 7, 0, 2, 6, 8, 10, 7, 4, 4, 6, 2, 0, 4, 0, 10, 8, 0, 6, 0, 0, 3, 5, 9, 1, 3, 1, 2, 0, 0, 9, 3, 9, 0, 5, 6, 1, 0, 0, 8, 0]);

suc = [
   {2, 3, 4},
   {8, 5, 6},
   {17, 15, 7},
   {13},
   {9, 10, 13},
   {27, 11, 20},
   {54},
   {46, 21, 14},
   {18, 34, 31},
   {24, 35, 39},
   {12, 23},
   {45},
   {16, 48, 38},
   {60},
   {32},
   {26, 27, 29},
   {26, 19, 30},
   {40, 22, 39},
   {32, 23},
   {25, 51, 36},
   {26, 23},
   {46},
   {41, 34, 49},
   {42, 47},
   {33, 28, 29},
   {52, 37},
   {40, 41, 53},
   {53, 55},
   {50, 43, 30},
   {52},
   {45},
   {48, 49},
   {44},
   {50},
   {40, 52},
   {48, 42},
   {42, 50},
   {41},
   {56, 49, 51},
   {58},
   {51},
   {55},
   {57},
   {47},
   {58, 61, 46},
   {54, 47},
   {56},
   {56},
   {54},
   {53},
   {59},
   {57},
   {57},
   {55},
   {59, 60},
   {60},
   {58, 61},
   {59},
   {62},
   {62},
   {62},
   {  } ];

deadline = array2d(1..62, 1..3, [1, 3, 5, 1, 0, 4, 5, 2, 1, 17, 3, 3, 18, 3, 1, 20, 3, 0, 21, 1, 3, 21, 4, 3, 22, 5, 2, 24, 4, 4, 26, 4, 2, 26, 4, 2, 27, 2, 5, 29, 2, 2, 31, 4, 1, 32, 1, 4, 32, 5, 4, 35, 2, 5, 39, 2, 4, 46, 3, 2, 50, 4, 0, 53, 2, 4, 53, 2, 3, 54, 0, 3, 55, 4, 5, 57, 4, 2, 59, 1, 4, 62, 3, 4, 62, 0, 5, 66, 5, 4, 76, 4, 5, 77, 4, 0, 79, 1, 5, 84, 3, 5, 84, 3, 3, 86, 5, 5, 95, 1, 4, 106, 2, 1, 106, 4, 0, 107, 1, 2, 110, 3, 2, 110, 1, 4, 112, 0, 2, 115, 1, 2, 116, 1, 0, 120, 3, 2, 123, 1, 1, 123, 2, 2, 140, 5, 2, 145, 0, 4, 147, 5, 4, 152, 2, 2, 152, 4, 4, 154, 0, 5, 157, 2, 3, 159, 1, 3, 159, 5, 3, 168, 4, 2, 169, 4, 0, 172, 1, 1, 175, 3, 5, 176, 5, 0]);
