n_res = 4;
rc = [ 13, 16, 21, 16 ];
n_tasks = 62;
d = [0, 3, 1, 10, 9, 6, 5, 6, 6, 4, 8, 3, 5, 7, 10, 3, 9, 2, 6, 7, 9, 5, 1, 4, 5, 7, 2, 3, 4, 1, 9, 3, 10, 8, 6, 7, 8, 8, 8, 3, 4, 8, 5, 1, 9, 6, 9, 9, 7, 8, 7, 10, 2, 1, 5, 1, 2, 4, 5, 1, 9, 0];
rr = array2d(1..4, 1..62, [0, 0, 0, 0, 4, 0, 0, 7, 0, 0, 0, 0, 0, 2, 0, 2, 0, 2, 0, 5, 0, 0, 3, 0, 4, 0, 0, 5, 0, 0, 0, 0, 0, 0, 0, 0, 0, 0, 0, 1, 0, 0, 0, 0, 0, 0, 4, 0, 6, 0, 0, 9, 0, 0, 0, 0, 0, 1, 0, 0, 0, 0, 0, 0, 0, 0, 0, 0, 0, 0, 2, 0, 8, 0, 9, 0, 0, 0, 0, 0, 0, 0, 8, 0, 0, 2, 0, 0, 0, 0, 3, 7, 0, 0, 0, 0, 0, 10, 2, 0, 0, 0, 0, 0, 0, 9, 0, 4, 0, 0, 0, 6, 0, 0, 7, 5, 0, 0, 3, 0, 0, 0, 0, 0, 0, 0, 0, 9, 0, 10, 0, 0, 0, 0, 0, 5, 0, 0, 0, 0, 0, 0, 0, 0, 0, 1, 0, 0, 0, 5, 4, 0, 0, 0, 0, 0, 0, 6, 1, 0, 0, 0, 4, 0, 10, 0, 10, 0, 7, 0, 0, 0, 0, 0, 0, 0, 0, 0, 1, 0, 0, 0, 8, 3, 1, 0, 0, 8, 5, 0, 0, 0, 3, 0, 0, 7, 0, 0, 0, 0, 9, 0, 6, 0, 6, 0, 0, 0, 0, 0, 0, 0, 0, 0, 0, 0, 3, 10, 8, 0, 0, 0, 0, 4, 0, 0, 0, 2, 0, 0, 0, 0, 0, 5, 0, 0, 6, 0, 0, 0, 0, 4, 0, 0, 0, 0, 0, 0]);

suc = [
   {2, 3, 4},
   {32, 25},
   {6},
   {10, 11, 5},
   {20, 14, 7},
   {8, 24, 19},
   {9, 22, 15},
   {59},
   {27, 45},
   {12},
   {13},
   {16, 30, 23},
   {17, 18, 28},
   {42, 31},
   {33, 26},
   {29},
   {47},
   {29},
   {37, 22},
   {43, 27, 21},
   {23},
   {28, 47},
   {26},
   {31},
   {35},
   {58},
   {59, 51, 36},
   {33, 35, 49},
   {39},
   {34},
   {40, 50, 37},
   {44, 54},
   {48, 57},
   {45},
   {58},
   {38},
   {41},
   {46},
   {42},
   {61},
   {56},
   {59, 53},
   {60},
   {55},
   {58},
   {55},
   {56},
   {55},
   {54},
   {53},
   {52, 53},
   {54},
   {57},
   {56},
   {61},
   {57},
   {60},
   {61},
   {62},
   {62},
   {62},
   {  } ];

deadline = array2d(1..62, 1..3, [2, 2, 4, 7, 3, 1, 11, 1, 1, 16, 2, 5, 17, 1, 5, 18, 3, 5, 19, 1, 1, 19, 1, 2, 21, 3, 5, 27, 1, 3, 29, 5, 0, 30, 0, 1, 30, 5, 0, 32, 3, 1, 33, 4, 5, 34, 4, 1, 35, 2, 3, 38, 1, 2, 39, 3, 3, 40, 0, 2, 41, 0, 3, 44, 1, 5, 46, 2, 0, 50, 0, 1, 50, 0, 3, 51, 5, 0, 52, 0, 5, 61, 4, 1, 66, 0, 0, 67, 4, 0, 76, 2, 4, 78, 3, 1, 79, 0, 1, 79, 3, 5, 86, 3, 2, 87, 3, 5, 90, 5, 2, 95, 5, 0, 97, 1, 4, 105, 0, 4, 105, 3, 3, 108, 2, 1, 110, 3, 0, 111, 4, 0, 112, 2, 3, 112, 5, 0, 112, 0, 3, 113, 4, 4, 116, 3, 5, 117, 3, 5, 123, 1, 3, 124, 3, 3, 127, 1, 1, 130, 0, 4, 132, 0, 4, 137, 2, 5, 142, 0, 0, 157, 1, 2, 159, 5, 4, 160, 0, 3, 164, 2, 2, 165, 4, 2]);
