n_res = 4;
rc = [ 25, 26, 23, 22 ];
n_tasks = 62;
d = [0, 2, 4, 3, 4, 1, 6, 7, 2, 7, 6, 5, 2, 5, 7, 5, 10, 7, 3, 2, 6, 4, 8, 4, 7, 2, 10, 5, 7, 9, 5, 6, 7, 6, 8, 6, 5, 8, 3, 10, 10, 3, 4, 8, 7, 2, 6, 1, 1, 4, 10, 2, 8, 2, 7, 2, 3, 4, 3, 8, 1, 0];
rr = array2d(1..4, 1..62, [0, 7, 0, 0, 0, 9, 7, 1, 0, 9, 0, 0, 0, 0, 5, 0, 0, 0, 5, 0, 9, 9, 1, 4, 0, 0, 8, 0, 0, 0, 0, 0, 6, 0, 0, 7, 9, 4, 0, 0, 9, 0, 0, 2, 0, 8, 6, 7, 7, 0, 0, 0, 3, 0, 9, 9, 0, 0, 0, 3, 2, 0, 0, 0, 5, 9, 0, 8, 0, 0, 3, 0, 1, 1, 5, 10, 5, 7, 6, 0, 0, 5, 7, 0, 0, 0, 8, 0, 0, 0, 5, 3, 10, 3, 0, 0, 0, 3, 0, 0, 9, 10, 0, 9, 9, 7, 3, 5, 0, 0, 0, 0, 8, 1, 1, 0, 0, 0, 0, 2, 10, 0, 0, 0, 0, 9, 9, 0, 0, 0, 0, 0, 9, 5, 2, 3, 6, 3, 6, 0, 0, 1, 0, 0, 10, 0, 3, 6, 0, 0, 6, 1, 0, 0, 8, 0, 7, 0, 1, 7, 0, 5, 0, 2, 1, 0, 0, 0, 9, 0, 7, 0, 8, 8, 10, 5, 10, 9, 1, 8, 0, 3, 2, 0, 0, 0, 0, 0, 0, 0, 3, 0, 0, 0, 2, 0, 0, 0, 9, 0, 0, 1, 2, 6, 0, 1, 0, 1, 2, 5, 0, 1, 0, 10, 3, 0, 0, 9, 0, 9, 0, 2, 0, 6, 0, 4, 9, 6, 1, 0, 6, 6, 0, 0, 0, 6, 0, 10, 0, 1, 2, 0, 5, 0, 8, 0, 0, 0]);

suc = [
   {2, 3, 4},
   {9, 13, 5},
   {8, 10, 11},
   {23, 31, 15},
   {18, 6, 7},
   {25, 42, 20},
   {32, 58, 54},
   {17, 12, 14},
   {51, 29, 22},
   {36, 22, 55},
   {59, 12, 45},
   {52, 39, 31},
   {27, 21},
   {53, 36, 21},
   {16, 37, 29},
   {17, 26, 22},
   {48, 34},
   {51, 19, 28},
   {44, 37, 47},
   {24, 54},
   {48, 33, 38},
   {24, 56, 45},
   {24, 37, 29},
   {49, 30},
   {50, 43, 39},
   {40, 33, 38},
   {46, 41, 30},
   {43, 45, 30},
   {33, 42, 35},
   {60},
   {42, 44, 47},
   {34, 44},
   {41, 43, 59},
   {35, 36},
   {40, 46},
   {40, 51, 38},
   {59, 53, 39},
   {60},
   {41, 54},
   {52},
   {55},
   {50, 46},
   {55},
   {48, 50},
   {53, 47},
   {49},
   {57},
   {49},
   {61},
   {57},
   {52},
   {61},
   {58},
   {56},
   {56, 58},
   {57},
   {61},
   {60},
   {62},
   {62},
   {62},
   {  } ];

deadline = array2d(1..62, 1..3, [1, 0, 5, 5, 0, 0, 8, 3, 4, 11, 3, 5, 11, 4, 4, 17, 3, 3, 23, 0, 5, 24, 5, 3, 29, 4, 5, 30, 3, 4, 30, 4, 5, 33, 0, 4, 35, 1, 2, 37, 1, 3, 38, 4, 4, 38, 0, 0, 38, 1, 5, 41, 4, 2, 44, 2, 1, 47, 4, 0, 47, 0, 1, 53, 5, 0, 57, 3, 2, 58, 4, 0, 61, 5, 0, 67, 3, 1, 67, 1, 0, 67, 4, 0, 68, 4, 0, 69, 0, 2, 70, 5, 3, 71, 4, 5, 72, 0, 3, 73, 4, 2, 77, 5, 1, 80, 3, 4, 83, 0, 0, 84, 2, 2, 87, 1, 3, 91, 2, 4, 92, 3, 2, 99, 3, 3, 100, 4, 2, 108, 5, 2, 109, 1, 2, 112, 4, 3, 114, 4, 1, 114, 4, 0, 117, 0, 0, 121, 0, 5, 122, 3, 4, 126, 0, 0, 127, 3, 1, 128, 1, 5, 128, 0, 3, 130, 5, 3, 131, 4, 5, 136, 2, 3, 137, 5, 0, 138, 2, 1, 138, 4, 1, 139, 4, 2]);
