n_res = 4;
rc = [ 36, 53, 44, 33 ];
n_tasks = 62;
d = [0, 1, 9, 3, 4, 3, 10, 5, 5, 4, 5, 3, 7, 8, 7, 5, 9, 5, 5, 7, 9, 9, 4, 8, 9, 1, 3, 2, 6, 5, 10, 1, 4, 2, 6, 9, 8, 1, 1, 7, 10, 4, 10, 1, 5, 3, 8, 10, 8, 3, 3, 2, 10, 1, 7, 9, 4, 1, 8, 9, 5, 0];
rr = array2d(1..4, 1..62, [0, 4, 9, 8, 7, 3, 1, 5, 9, 9, 1, 0, 7, 6, 0, 3, 9, 8, 8, 5, 0, 6, 0, 9, 1, 0, 3, 9, 0, 6, 0, 1, 7, 10, 0, 3, 0, 9, 5, 5, 10, 0, 2, 9, 10, 0, 2, 8, 2, 0, 0, 4, 0, 5, 10, 7, 5, 1, 10, 8, 7, 0, 0, 0, 9, 2, 2, 8, 0, 10, 1, 9, 2, 7, 10, 6, 2, 3, 2, 0, 5, 7, 4, 2, 9, 10, 1, 1, 10, 10, 7, 7, 7, 10, 0, 0, 0, 0, 0, 7, 9, 0, 4, 8, 0, 4, 4, 6, 3, 1, 2, 0, 9, 7, 0, 0, 1, 1, 2, 0, 1, 8, 5, 0, 0, 0, 8, 5, 7, 0, 8, 0, 0, 7, 0, 4, 10, 3, 9, 0, 2, 8, 0, 7, 1, 0, 0, 9, 2, 9, 10, 8, 8, 4, 8, 3, 4, 0, 2, 0, 4, 6, 7, 7, 3, 9, 6, 10, 0, 10, 9, 4, 0, 9, 0, 10, 2, 4, 0, 7, 2, 0, 6, 0, 0, 0, 0, 7, 8, 5, 4, 3, 10, 9, 1, 1, 0, 0, 0, 0, 4, 7, 5, 0, 9, 3, 6, 2, 6, 8, 1, 7, 7, 5, 7, 1, 0, 0, 1, 6, 8, 1, 10, 4, 1, 0, 0, 7, 4, 2, 0, 5, 3, 5, 2, 9, 9, 4, 8, 10, 0, 7, 0, 10, 5, 0, 5, 0]);

suc = [
   {2, 3, 4},
   {12, 6, 7},
   {19, 52, 5},
   {58, 60, 29},
   {8, 34, 22},
   {9, 13, 38},
   {10, 11, 29},
   {16, 26, 14},
   {33, 44, 45},
   {42, 61},
   {17, 18, 21},
   {32, 30, 15},
   {56, 25, 27},
   {54, 57, 46},
   {17, 51},
   {60},
   {20},
   {24, 39},
   {50},
   {27, 28, 23},
   {36, 22},
   {32, 41, 45},
   {55},
   {31},
   {47},
   {28, 30, 36},
   {53},
   {61},
   {42},
   {40, 33},
   {49},
   {35, 44},
   {47},
   {45, 37, 46},
   {37, 38, 55},
   {43, 44, 39},
   {40},
   {54, 43, 46},
   {47},
   {48, 42, 43},
   {51},
   {57},
   {61},
   {50},
   {48, 51},
   {49, 60},
   {50},
   {56},
   {58},
   {54},
   {53},
   {53, 55},
   {57},
   {59},
   {56},
   {58},
   {59},
   {59},
   {62},
   {62},
   {62},
   {  } ];

deadline = array2d(1..62, 1..3, [5, 5, 3, 7, 4, 4, 8, 3, 2, 8, 3, 5, 10, 5, 1, 11, 3, 2, 19, 2, 3, 20, 4, 3, 21, 4, 3, 22, 2, 4, 23, 1, 1, 24, 5, 1, 25, 1, 2, 25, 0, 1, 25, 0, 1, 26, 2, 4, 32, 2, 2, 35, 1, 5, 42, 4, 2, 48, 0, 0, 62, 3, 3, 65, 4, 4, 65, 1, 3, 80, 1, 3, 83, 2, 5, 94, 0, 2, 100, 5, 0, 101, 5, 0, 102, 3, 5, 103, 3, 5, 105, 3, 3, 108, 2, 2, 112, 4, 4, 115, 1, 0, 130, 4, 5, 131, 3, 4, 132, 4, 5, 133, 5, 2, 144, 5, 2, 145, 3, 3, 146, 4, 1, 148, 3, 2, 151, 1, 5, 153, 0, 1, 153, 1, 3, 160, 3, 5, 163, 1, 0, 171, 0, 4, 171, 3, 2, 178, 1, 0, 181, 2, 5, 183, 0, 5, 191, 0, 5, 194, 2, 3, 198, 0, 3, 200, 4, 1, 201, 4, 1, 204, 0, 0, 204, 5, 4, 204, 4, 2, 206, 3, 2, 210, 4, 4]);
