n_res = 4;
rc = [ 17, 15, 21, 19 ];
n_tasks = 62;
d = [0, 8, 9, 7, 5, 1, 9, 9, 6, 7, 8, 8, 8, 5, 1, 2, 2, 2, 9, 7, 6, 9, 8, 4, 5, 7, 1, 5, 5, 3, 1, 10, 7, 8, 2, 9, 9, 9, 3, 5, 5, 4, 7, 7, 5, 5, 3, 9, 8, 4, 3, 10, 1, 2, 1, 6, 1, 7, 9, 9, 9, 0];
rr = array2d(1..4, 1..62, [0, 3, 1, 4, 5, 2, 5, 4, 7, 3, 5, 10, 9, 2, 1, 2, 4, 10, 5, 6, 8, 5, 4, 1, 6, 2, 4, 7, 6, 2, 1, 9, 3, 2, 1, 4, 5, 1, 6, 6, 9, 4, 7, 5, 9, 3, 4, 6, 9, 7, 3, 8, 7, 4, 2, 8, 2, 5, 6, 1, 5, 0, 0, 6, 5, 4, 4, 3, 2, 4, 6, 3, 6, 7, 1, 4, 9, 9, 6, 5, 1, 10, 4, 6, 7, 10, 3, 4, 3, 7, 4, 8, 3, 2, 2, 2, 2, 1, 1, 10, 1, 6, 9, 5, 1, 1, 8, 5, 8, 7, 10, 5, 1, 1, 2, 4, 2, 4, 3, 1, 2, 10, 2, 0, 0, 1, 5, 3, 1, 6, 5, 7, 5, 10, 1, 1, 10, 6, 4, 5, 2, 1, 2, 4, 8, 9, 7, 7, 6, 7, 3, 2, 8, 4, 7, 10, 3, 10, 6, 7, 3, 3, 5, 6, 7, 2, 6, 5, 7, 1, 2, 6, 1, 5, 6, 6, 8, 6, 2, 9, 8, 1, 1, 7, 5, 0, 0, 4, 3, 9, 2, 5, 8, 10, 5, 9, 5, 5, 8, 4, 10, 2, 8, 2, 2, 10, 9, 10, 7, 9, 1, 1, 8, 1, 9, 7, 1, 3, 9, 6, 6, 2, 7, 4, 3, 6, 6, 6, 2, 9, 9, 4, 10, 3, 5, 7, 9, 2, 5, 4, 7, 4, 10, 10, 1, 6, 8, 0]);

suc = [
   {2, 3, 4},
   {17, 5, 7},
   {6, 14},
   {40, 12},
   {8, 27, 21},
   {16, 42},
   {18, 23},
   {9, 10},
   {19, 11, 15},
   {50},
   {24, 29, 13},
   {22},
   {31},
   {60, 61},
   {25, 46, 41},
   {36, 45, 52},
   {26},
   {35, 20, 46},
   {26},
   {52},
   {39},
   {33, 28, 37},
   {50},
   {41},
   {39},
   {56},
   {42},
   {32, 43, 30},
   {44},
   {59, 36},
   {38, 55},
   {53, 55},
   {34},
   {36, 44},
   {56},
   {53},
   {48},
   {56},
   {40},
   {43},
   {49},
   {51},
   {51, 53},
   {54, 47},
   {46},
   {58},
   {59},
   {50},
   {57},
   {59},
   {58},
   {57},
   {57},
   {58},
   {61},
   {60},
   {61},
   {60},
   {62},
   {62},
   {62},
   {  } ];

deadline = array2d(1..62, 1..3, [1, 5, 1, 5, 2, 3, 8, 0, 4, 13, 0, 4, 14, 0, 2, 16, 4, 0, 22, 3, 0, 23, 0, 0, 23, 0, 1, 24, 2, 0, 25, 0, 5, 28, 5, 4, 28, 0, 3, 38, 0, 4, 39, 2, 0, 41, 4, 5, 42, 1, 2, 44, 3, 0, 45, 0, 4, 47, 5, 3, 48, 4, 0, 52, 4, 0, 54, 4, 2, 59, 0, 1, 60, 4, 0, 61, 4, 1, 72, 2, 4, 73, 5, 2, 76, 4, 1, 76, 3, 1, 84, 5, 3, 88, 1, 5, 90, 0, 3, 91, 2, 5, 95, 1, 0, 96, 4, 5, 98, 3, 0, 101, 0, 1, 105, 5, 2, 109, 0, 5, 116, 1, 3, 119, 1, 2, 121, 1, 5, 123, 3, 2, 126, 3, 4, 126, 4, 5, 128, 3, 4, 131, 0, 0, 133, 4, 5, 133, 2, 3, 135, 0, 1, 140, 0, 1, 143, 4, 0, 146, 0, 1, 149, 3, 4, 150, 1, 4, 159, 3, 2, 160, 5, 3, 163, 5, 1, 163, 5, 2, 168, 1, 1, 172, 1, 5]);
