n_res = 4;
rc = [ 41, 44, 56, 52 ];
n_tasks = 62;
d = [0, 1, 9, 3, 6, 7, 4, 1, 3, 4, 2, 10, 2, 1, 5, 4, 4, 10, 9, 8, 2, 10, 7, 4, 1, 3, 8, 4, 2, 3, 6, 3, 4, 10, 3, 4, 10, 3, 5, 6, 7, 9, 3, 2, 2, 4, 8, 4, 4, 2, 2, 9, 8, 2, 10, 4, 10, 10, 8, 4, 8, 0];
rr = array2d(1..4, 1..62, [0, 3, 5, 2, 1, 4, 4, 5, 4, 8, 6, 8, 4, 7, 6, 3, 10, 2, 1, 1, 10, 1, 8, 9, 1, 7, 9, 5, 1, 1, 8, 10, 2, 4, 9, 4, 6, 3, 6, 7, 7, 4, 4, 10, 7, 4, 9, 10, 10, 9, 10, 1, 10, 1, 3, 10, 10, 10, 6, 5, 7, 0, 0, 5, 1, 2, 1, 10, 2, 4, 8, 3, 3, 2, 4, 8, 2, 8, 9, 3, 3, 8, 8, 6, 3, 7, 8, 3, 5, 6, 4, 1, 1, 2, 10, 3, 6, 9, 2, 10, 10, 4, 10, 1, 6, 3, 4, 10, 1, 5, 6, 4, 5, 7, 5, 9, 7, 10, 3, 2, 5, 5, 8, 0, 0, 3, 9, 1, 2, 10, 5, 1, 5, 9, 10, 2, 2, 3, 7, 3, 10, 10, 10, 5, 8, 3, 2, 1, 6, 1, 3, 2, 3, 1, 10, 5, 8, 6, 9, 6, 7, 10, 5, 7, 9, 5, 1, 6, 4, 8, 4, 7, 7, 5, 8, 8, 1, 8, 2, 1, 4, 3, 7, 1, 9, 0, 0, 1, 1, 9, 6, 10, 9, 9, 6, 5, 1, 1, 8, 2, 10, 2, 9, 8, 10, 5, 9, 5, 9, 5, 4, 7, 9, 6, 4, 9, 3, 1, 4, 10, 9, 6, 5, 1, 2, 3, 6, 6, 3, 5, 10, 9, 6, 6, 2, 4, 1, 4, 2, 8, 10, 6, 4, 7, 6, 5, 1, 0]);

suc = [
   {2, 3, 4},
   {5, 6, 7},
   {48, 49, 54},
   {33, 22, 31},
   {8, 10, 11},
   {9, 18, 50},
   {41, 19, 60},
   {47, 30, 15},
   {12, 28, 31},
   {17, 36, 41},
   {44, 13, 15},
   {16, 17, 14},
   {26, 27, 20},
   {24, 30, 23},
   {28},
   {37, 35, 29},
   {25, 34, 29},
   {43, 27},
   {61, 21, 31},
   {51, 30},
   {32, 50, 53},
   {41, 34, 27},
   {35, 29, 38},
   {32, 35, 36},
   {51, 44, 52},
   {32, 54, 39},
   {37, 38},
   {37, 39},
   {56, 33, 39},
   {40, 33, 60},
   {40, 38, 47},
   {49, 34},
   {46},
   {51, 55},
   {40},
   {42, 44},
   {57, 42},
   {46},
   {43, 45},
   {49, 43, 46},
   {56, 52, 45},
   {48, 56, 54},
   {58},
   {55, 45, 47},
   {48, 53},
   {52},
   {58},
   {61},
   {55},
   {57},
   {58},
   {53},
   {59},
   {60},
   {57},
   {61},
   {59},
   {59},
   {62},
   {62},
   {62},
   {  } ];

deadline = array2d(1..62, 1..3, [2, 0, 0, 2, 2, 1, 5, 1, 5, 5, 2, 4, 6, 3, 4, 10, 5, 2, 20, 1, 4, 23, 2, 2, 23, 0, 0, 27, 1, 1, 30, 4, 5, 34, 0, 0, 36, 3, 3, 37, 3, 4, 40, 0, 5, 41, 2, 3, 49, 0, 3, 53, 3, 3, 54, 5, 3, 56, 1, 4, 60, 5, 2, 60, 4, 3, 62, 2, 3, 63, 2, 3, 68, 1, 4, 74, 2, 5, 77, 4, 0, 78, 1, 1, 79, 2, 4, 81, 2, 2, 85, 3, 0, 90, 5, 2, 90, 2, 0, 96, 1, 5, 96, 4, 1, 97, 0, 1, 98, 3, 5, 100, 3, 5, 101, 1, 2, 103, 5, 3, 128, 0, 0, 129, 2, 5, 130, 2, 1, 131, 3, 1, 134, 1, 0, 135, 4, 4, 135, 3, 4, 137, 5, 2, 139, 5, 4, 139, 4, 3, 145, 2, 5, 145, 2, 5, 146, 3, 4, 150, 0, 2, 150, 3, 1, 155, 2, 5, 156, 1, 0, 168, 4, 1, 169, 3, 3, 169, 4, 2, 172, 1, 0, 172, 5, 5]);
