n_res = 4;
rc = [ 10, 23, 31, 11 ];
n_tasks = 62;
d = [0, 8, 7, 6, 3, 8, 5, 3, 4, 5, 8, 7, 5, 9, 3, 5, 4, 7, 6, 9, 6, 6, 3, 5, 5, 10, 10, 5, 7, 9, 4, 2, 10, 5, 10, 8, 6, 4, 5, 7, 6, 7, 2, 5, 1, 10, 2, 10, 1, 8, 10, 10, 2, 5, 3, 7, 5, 10, 3, 9, 10, 0];
rr = array2d(1..4, 1..62, [0, 0, 4, 0, 9, 0, 6, 2, 0, 0, 0, 0, 0, 0, 0, 2, 4, 0, 0, 0, 5, 0, 0, 0, 0, 0, 0, 0, 0, 0, 0, 0, 0, 0, 1, 0, 0, 0, 0, 0, 0, 0, 4, 5, 0, 0, 0, 0, 0, 1, 4, 0, 0, 0, 9, 0, 0, 0, 1, 0, 0, 0, 0, 3, 0, 9, 0, 3, 0, 0, 0, 0, 5, 1, 3, 10, 5, 0, 0, 2, 0, 0, 0, 0, 7, 3, 1, 0, 0, 0, 0, 0, 0, 0, 2, 9, 0, 0, 10, 0, 0, 0, 0, 6, 0, 0, 0, 4, 0, 0, 0, 0, 0, 0, 10, 0, 0, 1, 2, 0, 0, 4, 10, 0, 0, 0, 0, 0, 0, 0, 0, 0, 7, 0, 0, 0, 0, 0, 0, 0, 0, 0, 0, 8, 0, 0, 0, 0, 0, 10, 2, 0, 10, 1, 0, 5, 0, 0, 0, 9, 0, 8, 5, 9, 0, 0, 0, 0, 0, 0, 0, 1, 9, 0, 0, 6, 0, 6, 0, 0, 0, 1, 0, 0, 0, 0, 0, 0, 0, 0, 0, 0, 0, 0, 0, 10, 0, 0, 0, 0, 0, 0, 0, 0, 3, 0, 0, 2, 0, 0, 0, 0, 0, 3, 0, 0, 9, 0, 0, 0, 0, 0, 0, 0, 0, 0, 2, 0, 0, 0, 1, 0, 5, 0, 0, 0, 0, 0, 0, 0, 0, 0, 0, 0, 0, 0, 0, 0]);

suc = [
   {2, 3, 4},
   {12, 5, 14},
   {18, 20, 58},
   {9, 18, 6},
   {8, 21, 23},
   {37, 22, 7},
   {16, 54},
   {16, 10, 36},
   {33, 11, 37},
   {26, 20, 29},
   {24, 27, 13},
   {17, 18},
   {17, 19, 25},
   {43, 52, 15},
   {17, 60, 29},
   {32},
   {46, 38, 31},
   {25, 34, 31},
   {28, 45, 44},
   {53, 31},
   {40, 52, 29},
   {32, 51, 30},
   {26, 28, 30},
   {32, 42, 45},
   {51, 50, 35},
   {41, 61},
   {34, 35, 28},
   {42, 47, 39},
   {48},
   {58, 46},
   {44},
   {61},
   {56, 35},
   {40, 44, 45},
   {57, 38},
   {40, 42, 37},
   {49, 38},
   {59},
   {41, 43, 49},
   {48, 41, 43},
   {56, 55},
   {58},
   {50, 53},
   {47},
   {49, 46},
   {47},
   {48},
   {50},
   {51},
   {61, 54, 55},
   {52},
   {56, 53},
   {54, 55},
   {57},
   {57},
   {59, 60},
   {59},
   {60},
   {62},
   {62},
   {62},
   {  } ];

deadline = array2d(1..62, 1..3, [19, 5, 4, 21, 2, 1, 21, 0, 5, 23, 4, 4, 25, 2, 2, 26, 3, 0, 29, 1, 3, 30, 0, 2, 34, 4, 3, 37, 3, 5, 47, 1, 2, 48, 5, 2, 50, 3, 4, 55, 3, 0, 56, 4, 0, 58, 2, 1, 62, 2, 1, 64, 3, 4, 65, 5, 3, 71, 3, 0, 73, 3, 3, 73, 0, 5, 77, 3, 3, 77, 5, 0, 79, 1, 4, 86, 5, 5, 90, 3, 5, 90, 2, 2, 96, 3, 5, 98, 2, 5, 106, 2, 5, 109, 3, 2, 112, 1, 0, 119, 3, 2, 129, 3, 3, 130, 1, 0, 134, 4, 0, 134, 5, 3, 135, 1, 0, 142, 5, 4, 147, 4, 1, 149, 0, 5, 154, 1, 3, 154, 0, 5, 155, 3, 0, 156, 0, 0, 158, 5, 3, 158, 2, 3, 159, 0, 0, 160, 5, 0, 161, 5, 4, 161, 4, 2, 162, 4, 4, 168, 2, 4, 172, 3, 5, 175, 2, 5, 176, 0, 2, 178, 0, 3, 185, 3, 3, 186, 3, 3, 186, 2, 4, 191, 1, 3]);
