n_res = 4;
rc = [ 40, 30, 28, 41 ];
n_tasks = 62;
d = [0, 8, 2, 6, 5, 5, 10, 3, 3, 8, 4, 5, 8, 6, 9, 7, 10, 9, 1, 4, 6, 10, 7, 4, 8, 8, 6, 6, 5, 10, 8, 9, 6, 7, 9, 9, 10, 1, 2, 6, 3, 6, 8, 9, 10, 10, 7, 3, 4, 5, 8, 5, 5, 5, 6, 6, 9, 9, 5, 4, 1, 0];
rr = array2d(1..4, 1..62, [0, 4, 9, 0, 4, 0, 6, 8, 1, 1, 0, 9, 0, 7, 0, 0, 0, 9, 10, 2, 0, 10, 7, 10, 5, 7, 8, 3, 3, 2, 10, 0, 5, 3, 4, 0, 3, 0, 0, 0, 0, 8, 1, 0, 0, 1, 1, 9, 0, 0, 9, 4, 7, 2, 0, 0, 0, 0, 7, 0, 9, 0, 0, 0, 4, 9, 2, 0, 0, 0, 4, 0, 0, 10, 0, 0, 10, 1, 0, 4, 6, 5, 0, 0, 3, 0, 0, 0, 0, 0, 9, 0, 0, 0, 0, 0, 9, 9, 0, 0, 8, 8, 0, 9, 8, 8, 0, 2, 0, 4, 0, 9, 6, 0, 0, 0, 0, 0, 0, 0, 0, 3, 0, 0, 0, 0, 0, 0, 3, 1, 8, 0, 1, 0, 3, 0, 10, 0, 0, 0, 7, 3, 3, 0, 3, 0, 0, 0, 0, 1, 0, 3, 1, 0, 9, 1, 0, 10, 0, 10, 3, 0, 0, 0, 0, 0, 8, 0, 0, 0, 0, 0, 0, 0, 0, 2, 0, 1, 8, 9, 0, 4, 6, 3, 3, 0, 0, 0, 0, 7, 10, 4, 7, 0, 0, 0, 7, 6, 0, 0, 0, 2, 0, 0, 0, 1, 0, 10, 0, 0, 0, 6, 8, 4, 0, 6, 0, 7, 0, 10, 1, 0, 0, 1, 8, 9, 7, 7, 0, 0, 4, 3, 9, 1, 9, 2, 5, 0, 7, 8, 6, 0, 10, 0, 0, 10, 0, 0]);

suc = [
   {2, 3, 4},
   {9, 5, 17},
   {11, 6, 7},
   {8},
   {24, 20, 30},
   {18, 15},
   {16, 22, 39},
   {33, 26, 19},
   {10, 45, 13},
   {32},
   {12, 21, 14},
   {29, 54},
   {32, 46},
   {34, 27},
   {16, 24, 52},
   {56, 58},
   {20},
   {33, 45, 39},
   {58},
   {37},
   {23},
   {48, 25},
   {47},
   {47},
   {31},
   {51},
   {35, 28},
   {43},
   {41},
   {57},
   {60},
   {33},
   {48},
   {40, 36},
   {47},
   {37},
   {42, 59, 38},
   {55},
   {57},
   {41},
   {50},
   {43},
   {44, 46},
   {55},
   {54},
   {61},
   {49},
   {55},
   {61},
   {52},
   {59},
   {53},
   {60},
   {56, 61},
   {57},
   {59},
   {58},
   {60},
   {62},
   {62},
   {62},
   {  } ];

deadline = array2d(1..62, 1..3, [1, 5, 0, 2, 1, 0, 6, 0, 3, 8, 3, 4, 10, 2, 2, 21, 0, 4, 27, 0, 4, 28, 3, 4, 29, 5, 0, 30, 2, 1, 35, 2, 1, 36, 2, 4, 36, 5, 3, 37, 2, 1, 37, 2, 4, 38, 3, 3, 44, 5, 3, 45, 2, 3, 45, 2, 5, 52, 1, 4, 56, 2, 0, 61, 1, 5, 71, 4, 1, 74, 3, 2, 75, 0, 5, 77, 1, 5, 82, 0, 3, 84, 1, 1, 85, 2, 1, 89, 1, 3, 97, 5, 0, 99, 4, 3, 100, 1, 4, 100, 3, 4, 101, 5, 2, 105, 2, 2, 109, 5, 4, 113, 4, 0, 114, 1, 3, 116, 1, 1, 120, 2, 5, 130, 4, 0, 133, 2, 0, 136, 1, 1, 140, 0, 3, 143, 3, 4, 145, 2, 5, 154, 3, 2, 158, 4, 5, 160, 0, 3, 172, 0, 3, 172, 3, 2, 180, 4, 0, 185, 1, 3, 188, 2, 2, 189, 2, 5, 194, 1, 2, 203, 0, 0, 205, 2, 4, 206, 0, 2, 218, 2, 5, 218, 5, 1]);
