n_res = 4;
rc = [ 19, 37, 16, 29 ];
n_tasks = 62;
d = [0, 5, 10, 10, 9, 4, 7, 10, 5, 3, 5, 2, 6, 2, 7, 7, 8, 1, 9, 5, 6, 2, 10, 2, 5, 8, 8, 2, 1, 2, 9, 1, 1, 6, 3, 5, 8, 6, 3, 3, 4, 4, 6, 5, 6, 7, 9, 9, 8, 2, 7, 4, 10, 3, 9, 4, 4, 3, 5, 8, 5, 0];
rr = array2d(1..4, 1..62, [0, 0, 0, 0, 7, 3, 0, 0, 0, 0, 0, 0, 0, 5, 0, 2, 7, 5, 0, 2, 0, 0, 0, 0, 0, 0, 0, 0, 0, 0, 0, 0, 2, 0, 0, 0, 2, 0, 0, 0, 0, 0, 0, 0, 6, 0, 0, 0, 4, 0, 0, 0, 0, 0, 0, 0, 0, 0, 10, 0, 0, 0, 0, 0, 0, 0, 0, 0, 0, 7, 0, 0, 0, 0, 5, 0, 0, 0, 0, 0, 0, 0, 0, 0, 10, 0, 3, 8, 10, 9, 0, 0, 0, 5, 0, 6, 8, 0, 0, 0, 0, 0, 5, 8, 0, 0, 0, 7, 0, 5, 0, 0, 6, 0, 3, 0, 5, 0, 9, 0, 0, 9, 8, 0, 0, 3, 0, 0, 0, 0, 0, 0, 0, 0, 0, 0, 0, 0, 0, 0, 0, 0, 6, 0, 0, 1, 0, 0, 0, 0, 0, 0, 0, 1, 5, 0, 0, 0, 0, 0, 0, 0, 3, 0, 0, 0, 0, 6, 0, 0, 0, 0, 0, 0, 0, 10, 0, 0, 0, 0, 0, 6, 0, 0, 0, 0, 0, 0, 9, 10, 0, 0, 5, 0, 1, 6, 3, 1, 0, 0, 5, 0, 0, 0, 0, 0, 4, 0, 0, 1, 0, 0, 0, 0, 6, 0, 0, 0, 0, 0, 0, 9, 0, 4, 0, 6, 0, 0, 1, 0, 0, 0, 7, 0, 0, 2, 0, 0, 0, 6, 0, 7, 0, 0, 0, 0, 0, 0]);

suc = [
   {2, 3, 4},
   {9, 21, 7},
   {22},
   {8, 5, 6},
   {42, 51, 45},
   {17, 10, 59},
   {41, 38},
   {27, 12, 23},
   {16, 11, 13},
   {39, 14, 15},
   {20, 47},
   {28, 13},
   {25, 18},
   {24, 26, 19},
   {43, 20, 36},
   {32},
   {29},
   {59, 54},
   {27, 31},
   {49, 35, 37},
   {40, 48},
   {42, 44, 23},
   {40},
   {34, 43, 47},
   {46},
   {44},
   {33, 36},
   {32},
   {30},
   {40, 36, 60},
   {44, 37},
   {58},
   {34, 53},
   {38},
   {50, 58},
   {56, 42},
   {48},
   {51, 55},
   {41, 54},
   {57, 50, 43},
   {47},
   {61},
   {49},
   {51, 46},
   {52, 46},
   {49, 55},
   {48, 50},
   {57, 53, 55},
   {56},
   {56},
   {54},
   {59, 53},
   {60},
   {57},
   {58},
   {61},
   {61},
   {60},
   {62},
   {62},
   {62},
   {  } ];

deadline = array2d(1..62, 1..3, [4, 0, 4, 5, 5, 1, 6, 5, 1, 8, 0, 0, 11, 2, 1, 12, 3, 3, 20, 0, 4, 22, 1, 0, 23, 2, 5, 33, 5, 4, 42, 1, 3, 45, 1, 2, 46, 0, 3, 49, 0, 2, 52, 2, 2, 57, 0, 1, 58, 5, 0, 58, 2, 5, 59, 0, 4, 60, 5, 3, 62, 3, 2, 68, 3, 4, 68, 4, 3, 69, 4, 1, 79, 2, 5, 79, 3, 0, 79, 2, 1, 81, 4, 0, 87, 1, 4, 90, 0, 2, 93, 0, 4, 96, 3, 1, 98, 4, 5, 98, 5, 2, 99, 2, 0, 102, 1, 1, 104, 2, 2, 105, 2, 5, 108, 0, 4, 117, 1, 0, 119, 3, 1, 119, 2, 1, 121, 1, 4, 135, 0, 3, 135, 0, 5, 136, 3, 3, 140, 3, 5, 141, 4, 3, 142, 4, 0, 147, 4, 3, 149, 0, 5, 150, 4, 2, 152, 2, 1, 152, 2, 3, 154, 1, 3, 155, 2, 5, 157, 1, 4, 163, 3, 0, 168, 3, 3, 174, 2, 5, 175, 0, 2, 179, 0, 1]);
