n_res = 4;
rc = [ 34, 28, 31, 37 ];
n_tasks = 62;
d = [0, 9, 1, 2, 9, 7, 9, 7, 1, 2, 8, 7, 8, 9, 2, 2, 5, 5, 5, 5, 3, 10, 6, 8, 9, 6, 4, 10, 4, 9, 5, 10, 8, 7, 8, 8, 1, 6, 1, 1, 4, 3, 4, 10, 7, 3, 6, 4, 6, 2, 1, 7, 7, 8, 8, 6, 6, 8, 8, 8, 4, 0];
rr = array2d(1..4, 1..62, [0, 8, 3, 0, 8, 7, 0, 0, 3, 1, 0, 0, 0, 0, 0, 9, 9, 0, 0, 0, 0, 0, 4, 0, 8, 10, 4, 0, 0, 0, 0, 0, 6, 9, 10, 5, 0, 1, 10, 5, 3, 2, 0, 10, 0, 0, 6, 0, 7, 0, 0, 9, 6, 3, 6, 0, 4, 2, 4, 7, 8, 0, 0, 0, 0, 3, 0, 1, 8, 0, 9, 0, 5, 0, 0, 4, 0, 1, 6, 0, 0, 7, 4, 0, 1, 10, 7, 8, 9, 0, 8, 0, 4, 4, 0, 0, 10, 0, 0, 1, 10, 0, 4, 0, 1, 0, 0, 2, 0, 0, 0, 0, 0, 0, 0, 9, 8, 0, 0, 0, 9, 0, 0, 0, 0, 10, 0, 0, 1, 3, 0, 2, 0, 0, 5, 7, 7, 4, 0, 10, 8, 4, 9, 0, 4, 0, 3, 1, 0, 0, 5, 0, 0, 7, 0, 0, 10, 6, 0, 0, 8, 0, 0, 2, 0, 4, 5, 7, 7, 7, 7, 5, 0, 0, 0, 0, 4, 0, 8, 8, 2, 0, 0, 0, 0, 0, 0, 1, 0, 1, 0, 9, 0, 0, 0, 3, 3, 10, 7, 10, 7, 10, 0, 0, 0, 0, 8, 9, 0, 0, 0, 0, 0, 8, 5, 9, 5, 0, 6, 5, 0, 3, 4, 0, 2, 5, 0, 0, 7, 0, 0, 0, 8, 0, 0, 4, 4, 0, 6, 0, 9, 9, 0, 0, 0, 0, 0, 0]);

suc = [
   {2, 3, 4},
   {15, 13, 7},
   {8, 5},
   {26, 53},
   {18, 43, 6},
   {16, 9, 37},
   {25, 60, 55},
   {10, 11, 30},
   {33, 58, 14},
   {19, 23},
   {17, 12, 31},
   {48, 47},
   {28},
   {42, 36, 23},
   {49, 20, 37},
   {26, 20, 36},
   {32, 27, 21},
   {41},
   {44, 52},
   {34, 35, 22},
   {29, 38},
   {27, 47},
   {24, 45},
   {47, 46, 39},
   {61},
   {56},
   {29},
   {49, 45, 29},
   {40, 50, 51},
   {40, 35},
   {46, 38},
   {48, 49},
   {41, 42},
   {56, 39},
   {48, 50, 44},
   {40, 45},
   {39},
   {44},
   {59},
   {41},
   {59, 52},
   {51},
   {58},
   {54},
   {61, 46},
   {50},
   {51, 52},
   {57},
   {56},
   {55},
   {55},
   {60},
   {57},
   {57},
   {59},
   {61},
   {58},
   {60},
   {62},
   {62},
   {62},
   {  } ];

deadline = array2d(1..62, 1..3, [1, 5, 3, 6, 2, 0, 7, 3, 3, 9, 3, 5, 10, 3, 0, 15, 5, 4, 23, 4, 5, 23, 2, 0, 24, 2, 2, 37, 2, 0, 41, 4, 1, 44, 5, 2, 49, 4, 2, 50, 0, 5, 51, 2, 1, 60, 5, 5, 65, 4, 3, 66, 5, 4, 68, 2, 0, 69, 5, 0, 71, 5, 1, 74, 5, 5, 77, 0, 0, 78, 4, 5, 79, 0, 1, 81, 5, 2, 81, 1, 2, 82, 2, 0, 84, 4, 5, 85, 5, 0, 86, 5, 3, 89, 2, 1, 90, 5, 4, 91, 5, 0, 91, 3, 3, 93, 1, 1, 94, 1, 5, 101, 5, 3, 103, 5, 3, 106, 0, 5, 107, 0, 3, 108, 1, 1, 109, 1, 5, 115, 4, 4, 116, 1, 4, 124, 4, 4, 126, 4, 5, 134, 2, 2, 138, 4, 5, 144, 0, 1, 146, 5, 4, 154, 5, 0, 156, 1, 5, 157, 2, 1, 168, 3, 5, 169, 4, 0, 170, 3, 5, 171, 2, 3, 173, 1, 1, 173, 5, 3, 180, 4, 3, 180, 3, 4]);
