n_res = 4;
rc = [ 38, 39, 41, 41 ];
n_tasks = 62;
d = [0, 5, 6, 6, 8, 6, 8, 9, 1, 1, 2, 9, 7, 4, 1, 9, 10, 8, 4, 4, 6, 8, 5, 3, 9, 9, 2, 5, 4, 4, 2, 9, 1, 9, 2, 8, 3, 2, 8, 6, 5, 5, 1, 4, 8, 9, 2, 4, 8, 2, 4, 8, 6, 8, 1, 3, 4, 2, 3, 6, 10, 0];
rr = array2d(1..4, 1..62, [0, 9, 8, 9, 8, 2, 4, 6, 6, 9, 6, 7, 1, 5, 7, 9, 8, 5, 2, 5, 1, 10, 4, 3, 2, 8, 3, 1, 5, 8, 6, 5, 8, 10, 10, 3, 3, 3, 3, 9, 6, 5, 3, 9, 5, 6, 9, 1, 5, 9, 6, 2, 8, 4, 9, 5, 10, 1, 5, 8, 1, 0, 0, 3, 6, 8, 2, 1, 1, 2, 8, 5, 7, 2, 9, 6, 8, 9, 4, 2, 3, 3, 9, 10, 5, 10, 6, 10, 6, 3, 10, 9, 8, 4, 10, 4, 3, 7, 3, 6, 2, 3, 4, 8, 6, 10, 10, 7, 10, 2, 5, 10, 3, 6, 3, 10, 6, 8, 2, 3, 2, 3, 3, 0, 0, 3, 8, 2, 1, 5, 5, 8, 10, 1, 4, 3, 10, 2, 8, 4, 10, 4, 7, 8, 3, 2, 9, 8, 8, 6, 2, 4, 10, 6, 7, 6, 6, 10, 8, 1, 10, 6, 9, 3, 1, 5, 1, 10, 10, 2, 6, 9, 7, 8, 7, 3, 2, 9, 5, 3, 9, 7, 8, 1, 4, 0, 0, 8, 10, 2, 8, 9, 1, 6, 7, 1, 5, 5, 4, 9, 8, 2, 6, 10, 6, 7, 1, 7, 9, 5, 6, 5, 5, 7, 1, 5, 9, 7, 2, 5, 6, 6, 5, 8, 2, 7, 10, 6, 8, 1, 10, 8, 9, 1, 1, 4, 8, 5, 8, 10, 2, 1, 10, 1, 8, 9, 3, 0]);

suc = [
   {2, 3, 4},
   {53, 13},
   {10, 11, 7},
   {8, 21, 5},
   {9, 42, 6},
   {17, 37},
   {17},
   {47, 15},
   {18, 19, 20},
   {39, 31},
   {27, 12, 22},
   {26, 14, 30},
   {16, 31, 23},
   {24, 40, 47},
   {54},
   {18, 34, 29},
   {28, 54, 23},
   {58},
   {27, 29},
   {34, 29},
   {45},
   {25},
   {58},
   {41, 61},
   {32, 46, 31},
   {57, 47},
   {51, 44},
   {50, 52},
   {57},
   {42, 36, 50},
   {35, 61},
   {33},
   {52},
   {35, 44},
   {49, 51},
   {48},
   {38},
   {40, 43},
   {40, 42, 55},
   {48},
   {43, 44, 46},
   {53},
   {51, 52, 45},
   {48, 45},
   {56},
   {49, 53, 55},
   {58},
   {49},
   {54},
   {61},
   {55},
   {56},
   {57},
   {56},
   {59},
   {59, 60},
   {59, 60},
   {60},
   {62},
   {62},
   {62},
   {  } ];

deadline = array2d(1..62, 1..3, [1, 5, 2, 1, 1, 1, 1, 3, 2, 5, 3, 3, 5, 3, 3, 10, 4, 3, 11, 3, 4, 15, 1, 0, 16, 1, 2, 17, 2, 0, 21, 5, 1, 24, 2, 3, 25, 3, 1, 29, 4, 2, 31, 2, 1, 32, 4, 4, 33, 3, 3, 37, 0, 5, 41, 0, 5, 42, 4, 4, 44, 0, 2, 45, 0, 3, 46, 2, 5, 50, 4, 3, 61, 3, 5, 70, 5, 4, 71, 3, 0, 74, 4, 1, 74, 4, 5, 77, 5, 3, 78, 1, 2, 83, 1, 3, 84, 2, 1, 86, 1, 0, 86, 1, 0, 87, 5, 0, 93, 2, 3, 95, 2, 4, 100, 5, 4, 102, 4, 3, 103, 4, 4, 115, 4, 0, 115, 2, 1, 116, 3, 3, 117, 3, 3, 128, 0, 1, 134, 1, 2, 135, 0, 4, 136, 2, 0, 138, 1, 1, 140, 0, 5, 141, 3, 2, 143, 2, 1, 144, 2, 1, 145, 2, 2, 148, 2, 1, 148, 4, 4, 150, 2, 2, 150, 4, 4, 151, 5, 4, 154, 3, 4, 157, 2, 0]);
