n_res = 4;
rc = [ 40, 38, 33, 49 ];
n_tasks = 62;
d = [0, 2, 4, 8, 1, 6, 5, 2, 10, 10, 7, 9, 2, 10, 10, 1, 10, 1, 10, 2, 10, 2, 9, 2, 10, 3, 1, 7, 8, 6, 6, 6, 9, 4, 1, 1, 8, 2, 4, 8, 9, 8, 9, 3, 6, 8, 7, 7, 1, 4, 1, 2, 2, 3, 9, 6, 8, 3, 4, 1, 1, 0];
rr = array2d(1..4, 1..62, [0, 9, 3, 0, 9, 0, 4, 0, 1, 8, 7, 0, 0, 0, 2, 1, 2, 0, 0, 3, 8, 5, 10, 2, 9, 0, 6, 2, 0, 7, 7, 0, 7, 3, 0, 3, 4, 6, 3, 7, 4, 9, 6, 1, 7, 1, 10, 0, 0, 5, 4, 7, 5, 5, 7, 1, 5, 7, 0, 9, 10, 0, 0, 0, 7, 8, 7, 6, 6, 6, 2, 2, 0, 8, 5, 3, 4, 9, 6, 0, 2, 0, 0, 0, 0, 6, 10, 0, 0, 5, 5, 1, 5, 0, 3, 7, 0, 9, 10, 2, 6, 1, 8, 2, 9, 4, 0, 2, 9, 10, 7, 4, 2, 3, 7, 2, 5, 5, 0, 6, 6, 2, 7, 0, 0, 5, 1, 1, 3, 0, 10, 2, 0, 0, 0, 4, 6, 4, 8, 0, 0, 4, 0, 6, 10, 9, 10, 3, 0, 3, 8, 6, 1, 3, 0, 5, 0, 9, 8, 4, 2, 3, 0, 0, 9, 1, 3, 6, 6, 0, 7, 0, 4, 0, 3, 9, 9, 2, 2, 10, 6, 2, 0, 6, 0, 0, 0, 1, 0, 6, 0, 4, 4, 7, 5, 7, 7, 0, 2, 2, 10, 1, 0, 4, 10, 0, 0, 3, 8, 3, 0, 4, 10, 8, 0, 9, 0, 9, 1, 6, 1, 2, 1, 5, 0, 0, 0, 6, 7, 5, 9, 4, 10, 10, 10, 8, 0, 10, 8, 10, 1, 1, 0, 9, 7, 1, 2, 0]);

suc = [
   {2, 3, 4},
   {9, 10, 15},
   {5, 54},
   {10, 6, 7},
   {17, 41, 31},
   {8, 12, 29},
   {38, 25, 14},
   {52},
   {16, 11, 21},
   {24, 37, 13},
   {17, 46},
   {40, 18, 30},
   {26, 34, 29},
   {16},
   {56},
   {57, 20, 23},
   {51, 19, 28},
   {34, 22, 39},
   {49, 20},
   {32, 50, 53},
   {48, 42, 54},
   {36},
   {33, 27},
   {48, 54, 55},
   {44, 53, 30},
   {35, 47},
   {47},
   {34, 47},
   {41, 43},
   {32, 35},
   {43, 46},
   {43, 37},
   {42},
   {36},
   {36},
   {59},
   {56},
   {58, 45, 55},
   {46},
   {58, 45},
   {58, 55},
   {49, 50, 51},
   {60},
   {48},
   {57, 51},
   {60},
   {52},
   {50},
   {52},
   {61},
   {60},
   {53},
   {61},
   {56},
   {57},
   {61},
   {59},
   {59},
   {62},
   {62},
   {62},
   {  } ];

deadline = array2d(1..62, 1..3, [2, 0, 4, 16, 0, 5, 25, 2, 1, 26, 3, 3, 30, 1, 3, 34, 1, 3, 35, 1, 0, 38, 2, 2, 39, 4, 3, 43, 2, 1, 44, 5, 1, 45, 2, 3, 46, 3, 1, 55, 5, 2, 57, 4, 5, 60, 0, 3, 63, 0, 3, 67, 5, 0, 70, 2, 3, 71, 4, 3, 72, 2, 5, 72, 3, 2, 74, 4, 4, 75, 2, 3, 77, 1, 5, 78, 1, 0, 81, 4, 4, 83, 0, 5, 84, 4, 0, 84, 2, 0, 86, 3, 2, 86, 1, 2, 87, 3, 1, 90, 4, 4, 99, 4, 1, 100, 1, 3, 101, 3, 0, 102, 5, 0, 103, 5, 2, 104, 3, 3, 106, 0, 2, 107, 0, 5, 115, 0, 0, 117, 4, 4, 117, 4, 5, 118, 4, 2, 118, 2, 3, 125, 5, 4, 126, 3, 5, 129, 0, 5, 130, 5, 1, 131, 3, 3, 133, 5, 5, 134, 0, 3, 136, 5, 1, 140, 2, 0, 145, 1, 3, 148, 4, 5, 151, 4, 0, 153, 5, 4, 153, 5, 2, 155, 2, 4]);
