n_res = 4;
rc = [ 42, 49, 48, 44 ];
n_tasks = 62;
d = [0, 7, 10, 6, 8, 6, 7, 9, 7, 2, 10, 10, 6, 3, 7, 5, 5, 8, 10, 10, 3, 2, 8, 5, 4, 4, 1, 3, 3, 1, 7, 1, 8, 6, 4, 4, 7, 9, 5, 9, 3, 6, 8, 8, 3, 3, 5, 10, 9, 1, 6, 8, 1, 6, 10, 2, 8, 5, 1, 10, 2, 0];
rr = array2d(1..4, 1..62, [0, 0, 4, 3, 9, 5, 10, 4, 0, 2, 1, 3, 2, 1, 6, 2, 7, 0, 1, 6, 2, 5, 1, 5, 5, 4, 9, 6, 0, 4, 0, 9, 0, 4, 3, 0, 4, 8, 2, 0, 2, 0, 7, 5, 3, 4, 0, 0, 7, 9, 10, 6, 0, 0, 6, 0, 10, 0, 1, 4, 9, 0, 0, 5, 9, 0, 9, 5, 0, 6, 0, 3, 8, 0, 0, 7, 5, 0, 2, 6, 5, 0, 10, 0, 0, 9, 7, 8, 10, 7, 7, 4, 0, 4, 7, 2, 0, 8, 10, 10, 0, 3, 6, 0, 0, 10, 0, 0, 4, 6, 9, 3, 2, 10, 1, 6, 0, 0, 3, 4, 1, 0, 7, 0, 0, 9, 0, 3, 0, 6, 8, 10, 6, 2, 0, 3, 0, 2, 0, 0, 4, 0, 3, 9, 0, 1, 9, 2, 10, 9, 4, 7, 2, 0, 1, 6, 5, 2, 9, 5, 0, 0, 4, 4, 10, 3, 7, 0, 2, 5, 2, 0, 6, 5, 0, 6, 0, 5, 10, 0, 5, 7, 2, 2, 6, 0, 0, 10, 4, 6, 7, 0, 1, 0, 2, 3, 1, 5, 4, 0, 8, 7, 4, 0, 8, 1, 2, 3, 9, 6, 9, 5, 9, 8, 3, 9, 6, 7, 0, 1, 0, 7, 0, 9, 0, 4, 6, 0, 8, 5, 2, 10, 3, 2, 2, 9, 6, 7, 10, 8, 10, 5, 10, 9, 5, 8, 9, 0]);

suc = [
   {2, 3, 4},
   {9, 10, 5},
   {17, 20},
   {23, 14, 7},
   {18, 6, 15},
   {8, 11, 13},
   {16, 12},
   {57, 31},
   {40, 19},
   {28, 21},
   {25, 29, 30},
   {34, 42},
   {26, 43},
   {27},
   {33},
   {18},
   {35, 22},
   {59, 54, 47},
   {37},
   {24},
   {55},
   {24, 39},
   {32, 44},
   {34},
   {46},
   {50},
   {36, 61},
   {41},
   {52},
   {41, 38},
   {40, 35},
   {60},
   {42, 43},
   {37},
   {56},
   {57},
   {50},
   {49},
   {45},
   {43},
   {45},
   {55},
   {54},
   {50},
   {48, 53},
   {57},
   {48, 53},
   {51},
   {55},
   {53},
   {58, 52},
   {56},
   {56},
   {61},
   {58, 61},
   {60},
   {58},
   {60},
   {62},
   {62},
   {62},
   {  } ];

deadline = array2d(1..62, 1..3, [8, 3, 1, 10, 0, 2, 12, 3, 3, 13, 4, 4, 22, 0, 1, 26, 3, 0, 26, 4, 2, 29, 0, 0, 31, 5, 4, 34, 0, 3, 35, 0, 1, 36, 0, 5, 37, 4, 3, 37, 4, 2, 38, 2, 0, 41, 3, 2, 41, 5, 3, 45, 2, 3, 46, 2, 5, 49, 2, 5, 51, 2, 2, 51, 2, 5, 60, 0, 0, 61, 2, 1, 64, 4, 3, 66, 0, 1, 77, 2, 3, 78, 4, 4, 88, 2, 4, 90, 2, 0, 94, 1, 3, 94, 5, 5, 96, 3, 5, 98, 3, 2, 101, 1, 2, 105, 5, 4, 110, 2, 1, 111, 2, 0, 114, 5, 5, 120, 5, 4, 121, 0, 5, 123, 4, 5, 124, 2, 3, 128, 4, 5, 145, 2, 0, 146, 5, 3, 147, 5, 4, 150, 1, 4, 150, 1, 1, 150, 0, 2, 155, 4, 3, 156, 3, 4, 163, 1, 5, 167, 5, 3, 170, 4, 4, 170, 0, 1, 171, 3, 3, 175, 2, 3, 181, 4, 3, 181, 4, 1, 182, 3, 3, 185, 3, 3]);
