n_res = 4;
rc = [ 20, 20, 20, 17 ];
n_tasks = 62;
d = [0, 5, 4, 4, 9, 2, 2, 6, 8, 3, 9, 8, 3, 10, 8, 6, 3, 10, 8, 8, 9, 1, 1, 10, 10, 7, 9, 10, 6, 4, 9, 2, 5, 7, 3, 9, 5, 7, 9, 7, 2, 6, 10, 4, 7, 8, 5, 4, 10, 1, 1, 8, 3, 8, 5, 4, 4, 7, 2, 10, 9, 0];
rr = array2d(1..4, 1..62, [0, 4, 5, 3, 1, 3, 8, 1, 0, 0, 9, 6, 7, 0, 7, 4, 8, 7, 0, 1, 9, 5, 9, 1, 0, 7, 8, 8, 5, 5, 2, 9, 8, 0, 9, 4, 10, 0, 3, 1, 4, 3, 9, 1, 2, 0, 5, 0, 9, 2, 1, 0, 0, 0, 1, 1, 8, 7, 4, 6, 8, 0, 0, 7, 3, 10, 10, 1, 9, 6, 4, 0, 6, 10, 0, 0, 5, 8, 5, 0, 5, 8, 6, 1, 0, 3, 5, 8, 0, 6, 2, 1, 0, 0, 1, 9, 6, 1, 8, 9, 10, 0, 0, 7, 3, 9, 2, 9, 4, 8, 2, 0, 2, 7, 0, 0, 10, 0, 1, 7, 0, 9, 1, 0, 0, 9, 0, 7, 3, 0, 9, 0, 4, 5, 8, 5, 10, 7, 6, 5, 0, 7, 0, 0, 8, 8, 0, 10, 0, 9, 10, 0, 0, 7, 7, 10, 0, 10, 0, 0, 2, 4, 0, 10, 1, 4, 7, 0, 3, 7, 10, 0, 2, 1, 0, 8, 8, 0, 7, 1, 0, 10, 7, 2, 0, 0, 0, 0, 8, 3, 5, 1, 8, 2, 1, 6, 7, 0, 6, 10, 7, 0, 0, 6, 4, 8, 7, 2, 0, 2, 4, 10, 0, 0, 2, 6, 4, 2, 6, 9, 2, 6, 0, 8, 1, 4, 5, 8, 1, 0, 6, 6, 9, 0, 9, 0, 10, 7, 4, 8, 2, 5, 6, 0, 5, 8, 2, 0]);

suc = [
   {2, 3, 4},
   {8, 9, 26},
   {18, 5, 6},
   {17, 52, 22},
   {12, 15, 7},
   {8, 11, 13},
   {33, 10, 31},
   {25, 35, 44},
   {25, 42, 36},
   {16, 38},
   {29, 20, 28},
   {29, 30},
   {25, 45, 14},
   {26, 21, 31},
   {27, 21},
   {17, 23},
   {34, 39},
   {24, 27, 19},
   {49, 50, 37},
   {32, 46, 31},
   {51, 37, 47},
   {29, 30},
   {40, 43},
   {57, 61, 39},
   {41, 46, 39},
   {34, 35},
   {45, 54},
   {43, 30},
   {32, 34, 38},
   {32, 54},
   {48, 49, 53},
   {48, 59, 44},
   {42, 35, 36},
   {42, 44, 55},
   {40, 50, 37},
   {45, 38},
   {55},
   {58},
   {43},
   {56, 41, 47},
   {48, 52, 53},
   {46},
   {59},
   {50},
   {49, 53},
   {59, 51, 47},
   {54},
   {57, 58},
   {56, 52},
   {51},
   {56},
   {58},
   {61, 55},
   {60},
   {57},
   {60},
   {60},
   {61},
   {62},
   {62},
   {62},
   {  } ];

deadline = array2d(1..62, 1..3, [1, 3, 4, 18, 5, 1, 20, 2, 2, 20, 2, 5, 22, 1, 4, 25, 3, 5, 26, 1, 3, 29, 4, 2, 32, 5, 2, 32, 1, 4, 33, 5, 2, 33, 1, 5, 34, 4, 4, 35, 5, 2, 38, 2, 2, 44, 0, 3, 45, 4, 5, 47, 3, 4, 47, 3, 1, 47, 4, 1, 48, 4, 2, 49, 4, 0, 51, 5, 2, 53, 2, 3, 55, 4, 5, 59, 4, 5, 68, 0, 0, 68, 4, 5, 75, 1, 1, 77, 5, 1, 83, 0, 2, 88, 2, 2, 93, 3, 4, 96, 5, 5, 105, 1, 0, 108, 2, 1, 111, 5, 3, 113, 0, 1, 114, 5, 4, 115, 0, 0, 117, 0, 1, 119, 4, 0, 121, 4, 5, 123, 2, 0, 126, 3, 3, 127, 1, 3, 134, 1, 3, 135, 5, 1, 136, 2, 1, 137, 4, 3, 138, 4, 2, 143, 2, 2, 147, 1, 4, 148, 3, 3, 153, 3, 0, 156, 5, 3, 161, 2, 1, 165, 3, 0, 167, 3, 4, 169, 2, 5, 172, 5, 2, 173, 1, 1]);
