n_res = 4;
rc = [ 15, 15, 14, 13 ];
n_tasks = 62;
d = [0, 8, 2, 2, 6, 6, 1, 6, 7, 8, 2, 9, 3, 2, 8, 8, 10, 4, 9, 10, 7, 4, 4, 7, 7, 3, 10, 7, 9, 9, 2, 1, 4, 8, 1, 2, 1, 4, 9, 8, 2, 9, 3, 2, 6, 2, 9, 1, 8, 1, 2, 7, 5, 1, 10, 6, 2, 9, 6, 1, 10, 0];
rr = array2d(1..4, 1..62, [0, 4, 7, 0, 6, 0, 0, 0, 0, 1, 0, 0, 7, 0, 0, 1, 0, 0, 5, 4, 7, 0, 0, 8, 0, 6, 6, 0, 3, 6, 0, 0, 8, 0, 7, 9, 8, 4, 10, 0, 0, 0, 0, 4, 0, 8, 0, 3, 6, 2, 4, 9, 0, 0, 0, 6, 7, 7, 0, 10, 1, 0, 0, 0, 5, 10, 0, 0, 0, 0, 0, 9, 10, 0, 0, 4, 2, 0, 0, 5, 8, 0, 10, 0, 1, 0, 3, 4, 2, 6, 0, 0, 2, 0, 8, 3, 4, 0, 2, 8, 5, 10, 10, 8, 0, 0, 9, 1, 0, 3, 5, 0, 10, 9, 1, 7, 0, 10, 0, 0, 5, 8, 0, 0, 0, 0, 0, 8, 0, 1, 1, 0, 0, 7, 0, 6, 5, 6, 0, 5, 6, 0, 0, 0, 6, 6, 0, 0, 1, 0, 6, 7, 2, 5, 0, 7, 0, 0, 0, 8, 7, 10, 0, 0, 3, 0, 6, 0, 0, 0, 0, 10, 0, 0, 0, 0, 8, 2, 2, 3, 10, 5, 0, 1, 3, 0, 0, 7, 0, 0, 4, 0, 0, 5, 6, 0, 0, 0, 10, 5, 1, 0, 0, 0, 0, 4, 0, 8, 0, 0, 0, 0, 0, 0, 0, 0, 8, 5, 4, 0, 9, 5, 0, 6, 2, 8, 0, 0, 4, 0, 4, 0, 9, 0, 0, 0, 0, 0, 0, 0, 0, 1, 0, 4, 9, 0, 0, 0]);

suc = [
   {2, 3, 4},
   {38, 22, 7},
   {8, 5, 6},
   {20, 36, 31},
   {53, 51, 29},
   {17, 19, 13},
   {24, 9, 23},
   {33, 11, 35},
   {25, 10, 15},
   {11, 20, 21},
   {41, 12, 30},
   {26, 27, 34},
   {48, 18, 14},
   {33, 26, 29},
   {16, 32, 42},
   {49, 27, 28},
   {40, 20, 29},
   {24, 53, 38},
   {26, 51, 42},
   {35, 30, 39},
   {33, 28, 36},
   {56, 28, 30},
   {48, 27, 39},
   {34, 36},
   {50, 53, 31},
   {58, 31},
   {40, 44, 37},
   {46},
   {49},
   {55},
   {60},
   {49, 34, 43},
   {55, 54, 39},
   {44, 37},
   {56, 45},
   {42, 43, 50},
   {52, 45, 54},
   {57, 44},
   {43, 61},
   {50, 46, 47},
   {48, 45, 47},
   {61},
   {56},
   {47},
   {59, 46},
   {55},
   {52},
   {57},
   {59},
   {51},
   {52},
   {58},
   {57, 54},
   {60},
   {58},
   {59},
   {61},
   {60},
   {62},
   {62},
   {62},
   {  } ];

deadline = array2d(1..62, 1..3, [3, 5, 3, 7, 0, 4, 8, 0, 0, 8, 2, 1, 10, 5, 5, 18, 5, 5, 20, 2, 1, 24, 4, 0, 29, 1, 2, 30, 3, 5, 37, 3, 0, 39, 5, 3, 40, 5, 2, 42, 4, 5, 44, 3, 3, 44, 4, 0, 46, 1, 0, 48, 3, 3, 49, 0, 5, 50, 0, 4, 50, 4, 0, 53, 4, 3, 55, 3, 4, 62, 1, 5, 72, 3, 5, 73, 3, 0, 75, 5, 3, 76, 0, 3, 78, 4, 0, 80, 2, 2, 80, 0, 3, 87, 4, 0, 87, 2, 5, 89, 3, 2, 92, 3, 3, 101, 3, 1, 105, 3, 3, 113, 2, 4, 114, 4, 5, 116, 5, 4, 120, 3, 1, 126, 3, 4, 127, 1, 2, 128, 1, 3, 130, 5, 5, 131, 2, 2, 133, 2, 2, 134, 0, 2, 134, 1, 5, 141, 5, 2, 145, 1, 0, 146, 3, 2, 155, 0, 2, 156, 4, 5, 162, 1, 0, 164, 0, 3, 167, 2, 4, 175, 3, 0, 183, 0, 1, 183, 1, 0, 191, 1, 4, 196, 2, 4]);
