n_res = 4;
rc = [ 27, 22, 24, 27 ];
n_tasks = 62;
d = [0, 6, 2, 6, 9, 7, 3, 3, 3, 7, 1, 3, 6, 4, 6, 1, 6, 1, 4, 6, 8, 4, 4, 2, 10, 10, 6, 4, 1, 10, 10, 8, 5, 8, 3, 9, 2, 5, 5, 5, 5, 2, 6, 9, 3, 5, 8, 6, 3, 7, 10, 8, 10, 7, 5, 5, 4, 2, 5, 8, 9, 0];
rr = array2d(1..4, 1..62, [0, 2, 6, 6, 5, 8, 4, 2, 5, 8, 0, 6, 8, 1, 0, 8, 5, 0, 1, 5, 2, 2, 2, 8, 8, 2, 7, 1, 2, 0, 2, 1, 2, 6, 6, 2, 0, 2, 2, 2, 0, 9, 3, 0, 4, 7, 1, 4, 0, 7, 3, 5, 5, 1, 3, 10, 0, 1, 0, 3, 6, 0, 0, 4, 10, 1, 8, 2, 10, 3, 0, 0, 0, 0, 9, 0, 4, 3, 9, 8, 1, 2, 4, 0, 4, 7, 0, 0, 7, 8, 4, 1, 0, 0, 0, 5, 0, 6, 6, 0, 5, 0, 2, 2, 6, 7, 0, 0, 4, 9, 7, 5, 0, 0, 2, 6, 3, 2, 4, 0, 1, 10, 1, 0, 0, 8, 0, 0, 4, 7, 3, 2, 1, 10, 0, 0, 5, 8, 9, 1, 1, 7, 0, 4, 0, 0, 0, 1, 0, 6, 6, 1, 6, 8, 2, 4, 7, 3, 2, 10, 6, 0, 5, 4, 9, 0, 8, 4, 0, 0, 0, 9, 10, 0, 0, 0, 1, 3, 6, 0, 5, 6, 7, 10, 1, 0, 0, 1, 0, 0, 8, 1, 10, 0, 3, 10, 3, 3, 1, 4, 1, 7, 9, 1, 8, 3, 0, 0, 8, 3, 8, 2, 10, 0, 8, 1, 8, 5, 2, 0, 9, 10, 0, 3, 0, 8, 3, 0, 0, 5, 4, 5, 4, 2, 8, 0, 1, 5, 7, 6, 2, 4, 10, 5, 6, 6, 5, 0]);

suc = [
   {2, 3, 4},
   {25, 34, 5},
   {18, 20, 42},
   {13, 22, 7},
   {40, 33, 6},
   {8, 9, 19},
   {30},
   {37, 14},
   {32, 10},
   {11},
   {24, 17, 12},
   {27},
   {16, 26, 50},
   {15},
   {48, 43, 39},
   {21},
   {44},
   {37, 29},
   {39},
   {36, 45},
   {55, 23},
   {53, 38},
   {46, 28, 30},
   {61},
   {35},
   {58},
   {31},
   {31},
   {61, 47},
   {35},
   {36},
   {44},
   {47},
   {57},
   {59, 54},
   {37},
   {56},
   {51},
   {57},
   {41, 52, 45},
   {51},
   {48, 43},
   {49},
   {48},
   {54},
   {59},
   {58, 54},
   {49},
   {61},
   {56},
   {58},
   {55},
   {60},
   {60},
   {56},
   {57},
   {60},
   {59},
   {62},
   {62},
   {62},
   {  } ];

deadline = array2d(1..62, 1..3, [1, 1, 5, 2, 0, 1, 4, 2, 2, 6, 4, 2, 13, 4, 4, 15, 1, 2, 19, 4, 4, 20, 3, 2, 21, 4, 2, 27, 1, 1, 30, 0, 3, 30, 2, 5, 36, 1, 1, 39, 2, 3, 43, 0, 2, 44, 1, 1, 50, 2, 3, 51, 0, 1, 56, 0, 3, 57, 2, 0, 58, 2, 5, 60, 3, 2, 60, 0, 3, 61, 1, 1, 62, 4, 4, 68, 0, 5, 69, 1, 5, 70, 5, 5, 79, 3, 0, 82, 3, 3, 87, 2, 2, 87, 2, 0, 88, 3, 0, 95, 3, 2, 103, 2, 1, 113, 1, 1, 126, 3, 0, 127, 0, 4, 129, 1, 5, 139, 2, 5, 142, 1, 4, 147, 5, 0, 150, 0, 4, 150, 2, 1, 159, 0, 3, 159, 2, 0, 160, 4, 1, 160, 2, 3, 160, 4, 4, 162, 4, 2, 163, 0, 0, 177, 1, 0, 180, 5, 4, 181, 3, 3, 184, 5, 1, 189, 3, 4, 189, 4, 3, 190, 3, 3, 191, 2, 4, 194, 4, 2, 195, 2, 3, 197, 3, 5]);
