n_res = 4;
rc = [ 28, 30, 26, 31 ];
n_tasks = 62;
d = [0, 7, 9, 3, 2, 2, 7, 5, 6, 7, 4, 10, 5, 2, 2, 10, 8, 10, 6, 4, 7, 10, 9, 2, 9, 7, 4, 10, 8, 6, 4, 4, 1, 8, 2, 1, 6, 7, 9, 2, 1, 10, 8, 3, 8, 7, 4, 8, 8, 4, 8, 9, 4, 4, 9, 9, 9, 8, 4, 7, 8, 0];
rr = array2d(1..4, 1..62, [0, 4, 0, 0, 0, 0, 0, 0, 8, 8, 1, 8, 3, 8, 3, 6, 8, 0, 0, 0, 9, 0, 0, 6, 0, 0, 9, 0, 1, 5, 1, 0, 3, 0, 0, 3, 4, 5, 0, 0, 0, 0, 5, 3, 2, 1, 6, 0, 0, 1, 0, 3, 0, 1, 10, 8, 0, 0, 0, 0, 6, 0, 0, 4, 8, 6, 0, 0, 9, 0, 0, 0, 2, 0, 6, 2, 0, 3, 0, 5, 2, 0, 9, 0, 0, 2, 9, 0, 7, 0, 0, 10, 8, 7, 0, 10, 0, 0, 0, 0, 9, 0, 8, 2, 1, 1, 0, 0, 0, 9, 8, 0, 6, 0, 7, 0, 1, 5, 0, 4, 3, 0, 0, 0, 0, 2, 0, 0, 0, 0, 0, 6, 10, 0, 9, 0, 10, 4, 7, 8, 0, 7, 9, 0, 0, 1, 1, 6, 0, 8, 0, 0, 0, 9, 0, 9, 0, 0, 6, 0, 0, 6, 0, 10, 0, 5, 0, 9, 3, 3, 0, 0, 0, 4, 0, 0, 0, 0, 8, 0, 3, 4, 1, 2, 2, 0, 0, 0, 9, 9, 2, 3, 5, 0, 0, 0, 7, 5, 0, 0, 0, 0, 7, 0, 0, 10, 0, 0, 0, 3, 0, 0, 0, 8, 6, 0, 1, 3, 8, 0, 8, 0, 0, 0, 0, 0, 8, 10, 4, 7, 7, 7, 1, 0, 0, 0, 4, 0, 0, 5, 0, 0, 1, 0, 1, 10, 8, 0]);

suc = [
   {2, 3, 4},
   {35, 13, 38},
   {8, 6, 7},
   {18, 45, 5},
   {9, 14},
   {25, 10, 12},
   {45},
   {58, 11, 22},
   {32, 17, 36},
   {33, 20, 15},
   {53},
   {24, 35, 30},
   {24, 19},
   {16, 21, 38},
   {26, 35},
   {48, 52},
   {23},
   {57, 31},
   {41, 45, 29},
   {58},
   {40, 27, 28},
   {24, 37},
   {30},
   {48, 46},
   {40, 44, 46},
   {41, 38, 31},
   {33, 39},
   {42, 54},
   {49, 42, 30},
   {52, 47},
   {34, 53},
   {44},
   {47},
   {40, 55},
   {51, 43},
   {41, 53},
   {54},
   {55},
   {42, 50},
   {54},
   {57, 44},
   {51, 55},
   {49},
   {58, 51},
   {49, 50},
   {50},
   {60},
   {61},
   {52},
   {57},
   {56, 59},
   {60},
   {60},
   {56},
   {56, 59},
   {61},
   {61},
   {59},
   {62},
   {62},
   {62},
   {  } ];

deadline = array2d(1..62, 1..3, [5, 1, 5, 9, 3, 2, 12, 1, 3, 13, 1, 1, 13, 0, 4, 14, 1, 2, 15, 3, 4, 29, 2, 4, 30, 1, 1, 30, 1, 3, 33, 3, 2, 35, 4, 1, 35, 0, 0, 37, 4, 0, 41, 3, 3, 45, 5, 4, 47, 1, 3, 48, 3, 3, 53, 5, 4, 63, 1, 4, 68, 2, 3, 71, 0, 1, 73, 2, 2, 76, 4, 5, 79, 0, 1, 80, 5, 3, 83, 4, 2, 84, 4, 3, 86, 1, 5, 88, 2, 1, 94, 4, 0, 97, 5, 1, 98, 0, 3, 100, 3, 0, 101, 1, 1, 101, 2, 0, 103, 3, 0, 103, 1, 0, 105, 4, 4, 106, 5, 1, 107, 5, 5, 111, 1, 0, 119, 5, 5, 120, 5, 4, 121, 0, 2, 125, 1, 1, 132, 4, 1, 133, 4, 4, 134, 4, 3, 141, 4, 4, 142, 3, 0, 143, 0, 1, 143, 1, 3, 149, 3, 2, 149, 3, 1, 150, 2, 0, 151, 5, 4, 152, 3, 0, 155, 1, 5, 156, 3, 3, 158, 0, 2, 159, 5, 0]);
