n_res = 4;
rc = [ 60, 79, 76, 65 ];
n_tasks = 62;
d = [0, 4, 4, 10, 1, 4, 1, 4, 2, 6, 7, 3, 8, 1, 10, 1, 6, 7, 4, 2, 7, 10, 5, 4, 7, 3, 7, 6, 3, 6, 5, 10, 3, 7, 7, 4, 7, 1, 8, 8, 5, 6, 8, 10, 9, 5, 10, 10, 1, 5, 4, 5, 5, 1, 6, 8, 6, 9, 5, 8, 8, 0];
rr = array2d(1..4, 1..62, [0, 4, 1, 5, 8, 2, 6, 1, 8, 8, 7, 4, 6, 5, 6, 6, 8, 6, 1, 3, 3, 2, 5, 5, 1, 5, 4, 5, 9, 9, 4, 9, 10, 1, 7, 3, 2, 5, 10, 10, 7, 7, 7, 1, 5, 8, 3, 2, 3, 5, 5, 5, 8, 3, 9, 3, 8, 5, 2, 6, 10, 0, 0, 10, 2, 3, 7, 10, 9, 6, 2, 3, 8, 8, 10, 9, 2, 3, 1, 6, 9, 5, 10, 7, 1, 7, 5, 6, 4, 4, 8, 10, 2, 1, 1, 7, 2, 5, 7, 8, 6, 1, 2, 1, 4, 8, 3, 8, 6, 4, 5, 3, 1, 7, 3, 6, 8, 10, 5, 8, 2, 7, 4, 0, 0, 2, 7, 6, 1, 1, 4, 10, 4, 9, 10, 6, 5, 2, 1, 9, 5, 5, 9, 2, 7, 8, 7, 7, 2, 9, 7, 3, 10, 3, 10, 1, 1, 7, 5, 8, 7, 7, 5, 3, 9, 2, 1, 9, 3, 6, 9, 5, 2, 2, 4, 6, 6, 5, 8, 5, 3, 9, 9, 4, 4, 0, 0, 10, 9, 3, 5, 2, 2, 10, 1, 2, 5, 7, 6, 4, 9, 7, 8, 9, 4, 5, 4, 5, 2, 5, 6, 7, 2, 1, 3, 4, 9, 7, 10, 10, 3, 10, 4, 5, 3, 3, 2, 9, 1, 10, 10, 2, 3, 1, 6, 5, 3, 2, 6, 8, 10, 5, 2, 5, 1, 3, 1, 0]);

suc = [
   {2, 3, 4},
   {9, 18, 14},
   {5, 6, 7},
   {8, 11, 20},
   {10, 27, 58},
   {16, 21, 15},
   {33, 45},
   {48, 37},
   {26, 44, 13},
   {12, 28, 36},
   {57, 42},
   {24, 29, 30},
   {25, 27, 33},
   {19, 37, 23},
   {17, 54},
   {39, 22, 31},
   {40, 41, 43},
   {48},
   {35, 50, 27},
   {26, 42},
   {47},
   {37, 47},
   {61},
   {33, 31},
   {49, 35, 53},
   {50},
   {51, 38},
   {49},
   {39},
   {32, 46},
   {41, 52},
   {34},
   {39},
   {47},
   {36},
   {60},
   {52},
   {41, 43, 54},
   {40, 46},
   {48, 51, 52},
   {55},
   {50, 51, 58},
   {56, 46, 55},
   {58, 45},
   {54, 55},
   {59},
   {56},
   {59},
   {56},
   {53},
   {59},
   {53},
   {60},
   {61},
   {57},
   {57},
   {60},
   {61},
   {62},
   {62},
   {62},
   {  } ];

deadline = array2d(1..62, 1..3, [4, 0, 2, 12, 3, 0, 15, 2, 2, 19, 4, 1, 20, 3, 4, 21, 5, 4, 21, 3, 5, 22, 0, 5, 24, 2, 1, 24, 1, 0, 27, 3, 5, 28, 3, 3, 32, 1, 1, 33, 0, 3, 35, 2, 5, 36, 0, 4, 39, 1, 2, 41, 1, 4, 48, 1, 0, 51, 4, 3, 51, 0, 1, 53, 5, 4, 53, 2, 3, 55, 2, 0, 57, 5, 4, 60, 4, 5, 60, 3, 4, 77, 4, 2, 85, 1, 3, 87, 3, 0, 91, 2, 0, 103, 3, 3, 103, 5, 2, 103, 2, 4, 103, 0, 4, 104, 1, 1, 108, 4, 3, 109, 4, 2, 110, 2, 5, 112, 3, 4, 116, 2, 2, 118, 0, 3, 118, 5, 5, 121, 4, 1, 121, 0, 3, 124, 4, 1, 133, 5, 1, 137, 5, 1, 142, 3, 2, 146, 1, 2, 149, 0, 3, 150, 4, 1, 151, 1, 5, 155, 3, 2, 158, 4, 2, 159, 1, 0, 163, 3, 4, 166, 3, 5, 166, 1, 2, 167, 5, 4, 170, 3, 2, 172, 1, 5]);
