n_res = 4;
rc = [ 37, 31, 38, 29 ];
n_tasks = 62;
d = [0, 3, 2, 6, 1, 8, 6, 1, 2, 6, 9, 1, 8, 8, 1, 6, 8, 4, 2, 4, 5, 1, 6, 2, 1, 9, 3, 9, 8, 2, 5, 7, 5, 10, 7, 10, 7, 3, 10, 1, 9, 1, 9, 2, 7, 3, 8, 4, 4, 3, 5, 9, 5, 10, 9, 4, 10, 8, 3, 8, 4, 0];
rr = array2d(1..4, 1..62, [0, 0, 6, 6, 0, 0, 0, 2, 0, 0, 4, 2, 1, 7, 5, 0, 5, 8, 5, 7, 0, 4, 9, 0, 0, 0, 0, 0, 0, 0, 0, 3, 2, 5, 0, 7, 0, 0, 4, 0, 0, 0, 0, 10, 9, 0, 2, 0, 0, 0, 0, 5, 0, 0, 6, 0, 3, 8, 0, 7, 8, 0, 0, 6, 9, 0, 0, 5, 0, 0, 10, 0, 0, 0, 4, 0, 4, 7, 0, 10, 0, 5, 0, 0, 6, 0, 0, 2, 1, 0, 0, 0, 0, 10, 0, 0, 4, 8, 0, 5, 0, 10, 0, 0, 4, 0, 5, 0, 7, 2, 6, 0, 5, 4, 7, 10, 0, 8, 4, 0, 0, 6, 0, 0, 0, 0, 0, 0, 1, 1, 0, 0, 0, 0, 2, 0, 5, 4, 0, 0, 6, 3, 7, 0, 7, 0, 3, 6, 6, 8, 8, 4, 9, 4, 2, 0, 5, 0, 7, 3, 6, 3, 0, 2, 2, 10, 0, 0, 6, 10, 0, 9, 5, 7, 0, 0, 5, 0, 0, 4, 6, 0, 1, 0, 0, 0, 0, 7, 0, 10, 8, 0, 1, 0, 7, 3, 0, 0, 3, 0, 0, 0, 7, 6, 0, 0, 10, 0, 2, 1, 1, 7, 0, 0, 7, 1, 0, 0, 0, 0, 0, 6, 7, 3, 0, 0, 3, 0, 0, 3, 5, 6, 0, 3, 6, 0, 3, 0, 5, 0, 0, 10, 0, 0, 0, 7, 0, 0]);

suc = [
   {2, 3, 4},
   {16, 18, 13},
   {26, 20, 5},
   {14, 6, 7},
   {51, 60, 22},
   {9, 11, 49},
   {8, 10, 12},
   {24, 33, 11},
   {10, 26, 15},
   {31},
   {19, 39, 23},
   {25, 21, 15},
   {41, 27, 57},
   {56, 38, 39},
   {17, 58, 46},
   {26, 28},
   {35, 36, 44},
   {42, 45, 23},
   {32, 40, 47},
   {41, 27, 46},
   {29, 38, 31},
   {33, 43, 30},
   {41, 35, 44},
   {42},
   {32, 43, 30},
   {55, 30, 31},
   {40, 43, 37},
   {32, 33, 34},
   {35, 52, 45},
   {42},
   {34, 36, 37},
   {45, 38, 55},
   {49, 50, 39},
   {48, 56, 53},
   {55},
   {40},
   {51},
   {50, 44},
   {58},
   {52},
   {48, 47},
   {47},
   {49},
   {57, 52},
   {48, 46},
   {53},
   {61, 54},
   {50, 51},
   {59, 53},
   {54},
   {54},
   {60, 61},
   {61},
   {58},
   {56, 59},
   {57},
   {60},
   {59},
   {62},
   {62},
   {62},
   {  } ];

deadline = array2d(1..62, 1..3, [1, 0, 3, 1, 3, 3, 6, 1, 0, 6, 4, 4, 10, 0, 1, 13, 1, 0, 14, 1, 2, 14, 0, 3, 22, 0, 0, 22, 5, 0, 25, 1, 4, 27, 4, 0, 29, 0, 0, 31, 0, 0, 40, 3, 2, 41, 0, 2, 42, 0, 3, 43, 5, 4, 47, 4, 5, 58, 3, 1, 60, 0, 2, 63, 1, 4, 66, 0, 0, 66, 0, 1, 70, 0, 4, 70, 1, 5, 80, 1, 3, 86, 3, 0, 90, 5, 4, 92, 1, 4, 93, 3, 2, 95, 2, 4, 95, 4, 0, 101, 4, 4, 101, 3, 3, 101, 4, 3, 101, 4, 3, 108, 2, 0, 110, 3, 4, 117, 5, 1, 118, 3, 0, 120, 3, 3, 122, 0, 1, 123, 1, 2, 123, 1, 1, 124, 5, 3, 131, 1, 3, 138, 4, 1, 142, 3, 3, 145, 4, 0, 147, 4, 3, 153, 5, 3, 154, 3, 4, 156, 4, 0, 160, 0, 5, 162, 5, 3, 163, 5, 0, 165, 2, 0, 168, 3, 4, 172, 5, 5, 172, 2, 5, 173, 4, 1]);
