n_res = 4;
rc = [ 23, 14, 22, 15 ];
n_tasks = 62;
d = [0, 7, 6, 9, 9, 2, 3, 10, 8, 9, 4, 6, 2, 7, 1, 5, 1, 3, 6, 5, 7, 9, 10, 1, 7, 7, 10, 5, 5, 10, 9, 3, 8, 10, 2, 4, 10, 7, 7, 5, 8, 2, 5, 1, 7, 10, 8, 10, 6, 8, 6, 6, 10, 9, 6, 9, 7, 10, 6, 9, 9, 0];
rr = array2d(1..4, 1..62, [0, 0, 0, 0, 7, 0, 0, 2, 0, 0, 0, 4, 0, 0, 4, 8, 8, 0, 0, 0, 9, 7, 0, 0, 0, 0, 0, 9, 0, 0, 0, 0, 0, 0, 0, 0, 0, 0, 0, 0, 0, 0, 0, 0, 0, 0, 0, 0, 0, 0, 0, 10, 0, 0, 0, 0, 0, 0, 0, 0, 0, 0, 0, 0, 0, 0, 0, 8, 10, 0, 0, 0, 0, 0, 0, 0, 0, 0, 0, 0, 0, 0, 0, 0, 0, 8, 4, 0, 0, 0, 4, 0, 0, 5, 0, 9, 0, 0, 0, 0, 6, 0, 7, 0, 0, 0, 0, 3, 0, 5, 0, 0, 0, 0, 0, 0, 0, 0, 6, 0, 0, 0, 0, 0, 0, 7, 0, 0, 0, 0, 0, 0, 6, 2, 3, 0, 2, 3, 0, 0, 0, 0, 6, 0, 0, 0, 0, 0, 0, 6, 6, 0, 0, 9, 7, 0, 6, 0, 0, 0, 9, 0, 0, 0, 0, 1, 0, 0, 0, 0, 10, 0, 3, 4, 9, 0, 8, 0, 6, 0, 0, 5, 0, 0, 0, 0, 0, 0, 7, 2, 0, 0, 0, 0, 0, 0, 0, 0, 0, 0, 0, 0, 0, 9, 0, 3, 0, 0, 10, 0, 0, 0, 0, 0, 0, 0, 0, 0, 0, 0, 1, 8, 0, 5, 0, 4, 0, 0, 9, 1, 3, 0, 0, 0, 0, 0, 0, 0, 0, 2, 0, 4, 0, 0, 3, 9, 2, 0]);

suc = [
   {2, 3, 4},
   {58, 52, 6},
   {10, 11, 12},
   {19, 5},
   {14},
   {23, 21, 7},
   {8, 9, 26},
   {16},
   {20, 13},
   {61, 31},
   {18, 50},
   {17, 35},
   {36, 15},
   {32},
   {37, 54},
   {33, 22},
   {42, 30},
   {29},
   {34},
   {49, 27},
   {45},
   {24, 28},
   {25, 38, 39},
   {41, 34},
   {51, 29},
   {40, 42},
   {45},
   {51},
   {35},
   {57},
   {46},
   {56},
   {50, 45},
   {43},
   {48},
   {40, 41, 56},
   {41},
   {47},
   {53},
   {44},
   {49, 47},
   {48},
   {48},
   {59},
   {51, 53},
   {47},
   {55},
   {56},
   {60},
   {55},
   {57, 61},
   {55},
   {61},
   {57},
   {60},
   {59},
   {60},
   {59},
   {62},
   {62},
   {62},
   {  } ];

deadline = array2d(1..62, 1..3, [1, 2, 4, 5, 1, 5, 12, 2, 5, 13, 4, 2, 14, 3, 1, 19, 4, 5, 25, 5, 4, 27, 4, 4, 29, 1, 1, 32, 0, 2, 32, 5, 4, 34, 5, 1, 42, 2, 2, 50, 0, 5, 51, 0, 1, 51, 0, 0, 54, 4, 4, 55, 3, 5, 67, 3, 1, 69, 1, 0, 73, 4, 3, 74, 4, 3, 76, 3, 1, 77, 2, 1, 81, 3, 3, 83, 2, 3, 87, 5, 4, 98, 1, 2, 114, 2, 2, 117, 2, 0, 119, 5, 1, 119, 4, 3, 122, 4, 1, 122, 0, 1, 123, 1, 1, 123, 1, 3, 127, 5, 0, 128, 1, 1, 131, 1, 1, 135, 3, 5, 136, 5, 5, 138, 4, 4, 150, 2, 2, 151, 0, 2, 155, 3, 1, 155, 3, 2, 155, 3, 2, 157, 1, 2, 164, 5, 5, 168, 5, 4, 170, 2, 0, 172, 5, 5, 173, 5, 0, 173, 3, 0, 174, 5, 5, 175, 5, 5, 176, 5, 2, 179, 0, 2, 182, 5, 3, 183, 1, 3, 184, 1, 3, 184, 1, 5]);
