n_res = 4;
rc = [ 17, 11, 17, 17 ];
n_tasks = 62;
d = [0, 4, 7, 8, 2, 1, 9, 6, 6, 3, 6, 7, 5, 3, 10, 10, 8, 2, 10, 6, 4, 7, 9, 3, 10, 8, 9, 1, 10, 1, 1, 10, 7, 3, 2, 1, 7, 10, 5, 6, 4, 10, 7, 3, 2, 8, 1, 6, 8, 2, 3, 1, 10, 4, 6, 3, 5, 7, 1, 1, 10, 0];
rr = array2d(1..4, 1..62, [0, 0, 0, 0, 9, 3, 0, 0, 0, 0, 10, 0, 0, 0, 9, 0, 0, 0, 0, 0, 4, 0, 0, 0, 9, 1, 0, 0, 0, 0, 0, 0, 0, 0, 0, 0, 0, 0, 0, 2, 9, 0, 0, 0, 9, 5, 0, 0, 0, 9, 0, 0, 4, 0, 9, 3, 1, 0, 0, 0, 0, 0, 0, 0, 0, 4, 0, 0, 0, 0, 0, 1, 0, 5, 0, 0, 0, 0, 0, 0, 0, 0, 0, 4, 10, 0, 0, 0, 0, 0, 0, 0, 0, 0, 0, 0, 0, 0, 0, 0, 0, 0, 0, 0, 0, 5, 0, 0, 0, 0, 0, 0, 0, 0, 0, 5, 0, 0, 0, 7, 0, 0, 9, 0, 0, 5, 3, 0, 0, 0, 0, 8, 0, 0, 0, 0, 9, 0, 0, 0, 7, 8, 0, 1, 0, 0, 0, 5, 0, 0, 7, 0, 1, 0, 10, 0, 3, 0, 6, 7, 10, 0, 1, 0, 0, 0, 7, 0, 0, 0, 0, 2, 9, 0, 0, 9, 0, 0, 0, 0, 0, 0, 0, 0, 0, 0, 0, 0, 0, 0, 0, 0, 6, 0, 1, 0, 0, 0, 0, 8, 0, 9, 0, 0, 4, 0, 0, 0, 0, 0, 0, 0, 0, 6, 0, 3, 0, 6, 0, 1, 0, 0, 0, 10, 0, 0, 0, 3, 0, 0, 0, 0, 6, 0, 0, 0, 1, 0, 0, 0, 0, 0, 0, 0, 8, 7, 0, 0]);

suc = [
   {2, 3, 4},
   {12, 55},
   {5, 38, 31},
   {17, 6, 7},
   {8, 9, 12},
   {10, 13, 15},
   {32, 11, 22},
   {14, 23},
   {16, 11, 45},
   {43, 35, 28},
   {57, 26, 29},
   {28, 36},
   {24, 50, 21},
   {18, 52},
   {40, 34, 23},
   {25, 27},
   {33, 20, 31},
   {19},
   {45},
   {32, 26, 37},
   {33, 34, 35},
   {43, 30, 23},
   {50, 60},
   {25, 35, 28},
   {52, 46, 55},
   {42, 27, 54},
   {44},
   {33, 37},
   {37, 30},
   {36, 39},
   {41, 58, 49},
   {34, 38},
   {40, 39},
   {48, 36, 47},
   {40, 53, 38},
   {41},
   {39},
   {41, 44, 47},
   {48, 52, 46},
   {49, 42, 44},
   {56, 42, 46},
   {59},
   {57, 53, 45},
   {51},
   {48, 47},
   {61},
   {49, 54, 55},
   {51, 60},
   {51},
   {57},
   {56},
   {58, 53, 54},
   {60},
   {56},
   {58, 61},
   {61},
   {59},
   {59},
   {62},
   {62},
   {62},
   {  } ];

deadline = array2d(1..62, 1..3, [3, 2, 2, 7, 3, 2, 15, 2, 2, 21, 4, 2, 26, 4, 0, 27, 5, 0, 28, 1, 3, 28, 2, 5, 35, 4, 5, 36, 3, 5, 37, 0, 1, 38, 5, 5, 38, 4, 0, 39, 5, 5, 40, 3, 2, 44, 2, 2, 45, 0, 4, 49, 3, 2, 50, 0, 5, 51, 5, 5, 51, 3, 3, 56, 2, 2, 63, 4, 0, 67, 0, 4, 73, 0, 5, 77, 0, 5, 81, 5, 1, 83, 5, 3, 85, 5, 1, 88, 0, 3, 88, 0, 1, 88, 5, 0, 102, 5, 1, 106, 0, 1, 107, 4, 0, 111, 0, 2, 115, 2, 3, 115, 4, 5, 119, 5, 4, 119, 2, 5, 124, 2, 2, 124, 0, 2, 129, 1, 3, 129, 0, 2, 131, 5, 3, 131, 2, 2, 134, 1, 5, 139, 3, 1, 142, 4, 1, 144, 4, 1, 147, 2, 3, 149, 2, 3, 154, 0, 2, 159, 2, 5, 161, 5, 5, 163, 4, 1, 163, 0, 0, 163, 2, 2, 164, 1, 2, 164, 5, 2, 165, 1, 1, 165, 5, 1]);
