n_res = 4;
rc = [ 28, 32, 26, 22 ];
n_tasks = 62;
d = [0, 5, 5, 10, 1, 6, 3, 8, 10, 6, 4, 1, 2, 3, 2, 5, 2, 3, 8, 10, 5, 8, 7, 9, 5, 10, 5, 5, 8, 4, 5, 10, 7, 8, 1, 7, 8, 9, 7, 8, 8, 9, 6, 2, 2, 9, 7, 8, 3, 8, 6, 10, 10, 5, 5, 3, 3, 1, 2, 2, 3, 0];
rr = array2d(1..4, 1..62, [0, 3, 0, 0, 0, 0, 8, 0, 6, 0, 4, 0, 0, 0, 0, 9, 0, 0, 1, 0, 0, 0, 1, 0, 6, 8, 0, 0, 0, 0, 9, 8, 0, 3, 0, 0, 0, 0, 0, 0, 0, 0, 0, 0, 0, 10, 0, 8, 0, 0, 0, 0, 0, 0, 0, 0, 0, 0, 6, 0, 0, 0, 0, 0, 0, 0, 1, 0, 0, 4, 0, 0, 0, 6, 0, 3, 10, 0, 7, 0, 0, 8, 0, 0, 0, 4, 0, 0, 0, 1, 0, 0, 0, 0, 0, 0, 0, 0, 9, 0, 0, 10, 0, 0, 0, 0, 0, 0, 0, 0, 0, 0, 3, 1, 5, 0, 4, 0, 0, 0, 0, 0, 0, 0, 0, 0, 0, 0, 0, 0, 0, 0, 0, 1, 0, 0, 1, 0, 0, 0, 0, 5, 0, 0, 10, 0, 0, 0, 0, 0, 0, 0, 9, 7, 0, 0, 0, 0, 7, 7, 0, 0, 0, 0, 0, 0, 0, 4, 3, 0, 2, 0, 0, 5, 0, 0, 0, 3, 0, 4, 0, 0, 0, 0, 9, 0, 0, 0, 8, 6, 0, 6, 0, 0, 0, 0, 0, 0, 0, 0, 0, 0, 0, 0, 0, 0, 0, 5, 0, 0, 0, 0, 3, 0, 0, 0, 0, 0, 9, 0, 0, 0, 0, 3, 6, 0, 4, 9, 8, 0, 0, 0, 0, 0, 4, 0, 0, 0, 0, 0, 0, 0, 7, 10, 0, 9, 0, 0]);

suc = [
   {2, 3, 4},
   {8, 5, 6},
   {9, 10, 18},
   {11, 7},
   {34, 12, 42},
   {24, 35, 23},
   {57, 29},
   {16, 40, 20},
   {21},
   {17, 11, 14},
   {36, 22, 15},
   {13, 30, 31},
   {35, 53},
   {33},
   {28, 45, 60},
   {49, 36, 30},
   {48, 26, 19},
   {20},
   {39},
   {56, 36},
   {32, 54, 23},
   {25, 33},
   {41, 34},
   {58, 31},
   {35},
   {27},
   {31},
   {41, 38, 47},
   {44, 38},
   {47},
   {50},
   {37},
   {50},
   {45, 43, 37},
   {55, 46, 39},
   {57, 52},
   {44, 53},
   {59, 46},
   {51, 43, 44},
   {41, 57, 55},
   {42},
   {48},
   {56, 52},
   {52},
   {48},
   {54},
   {50, 51},
   {61},
   {53},
   {59},
   {59, 54},
   {58, 60},
   {55},
   {56},
   {60},
   {58},
   {61},
   {61},
   {62},
   {62},
   {62},
   {  } ];

deadline = array2d(1..62, 1..3, [6, 4, 3, 9, 1, 5, 14, 2, 4, 14, 1, 4, 15, 1, 2, 15, 1, 0, 19, 0, 5, 19, 5, 2, 19, 4, 0, 20, 2, 5, 21, 4, 0, 21, 4, 4, 25, 1, 5, 30, 4, 4, 34, 0, 1, 35, 5, 4, 35, 3, 4, 36, 4, 3, 38, 2, 3, 39, 2, 1, 43, 3, 5, 43, 4, 1, 45, 1, 3, 46, 1, 4, 51, 0, 0, 56, 1, 0, 59, 2, 3, 62, 4, 4, 66, 0, 0, 68, 1, 0, 75, 5, 3, 77, 5, 2, 78, 4, 5, 80, 0, 3, 83, 0, 3, 85, 0, 2, 86, 2, 1, 89, 0, 1, 92, 5, 0, 93, 4, 1, 94, 5, 4, 95, 5, 2, 97, 1, 1, 99, 2, 0, 100, 1, 4, 103, 2, 0, 103, 0, 4, 103, 1, 5, 106, 3, 2, 109, 3, 4, 110, 5, 2, 110, 4, 4, 115, 1, 3, 130, 1, 4, 130, 2, 1, 134, 2, 0, 136, 3, 4, 137, 3, 5, 143, 2, 0, 144, 4, 5, 144, 5, 4, 146, 4, 1]);
