n_res = 4;
rc = [ 31, 33, 25, 41 ];
n_tasks = 62;
d = [0, 4, 4, 5, 6, 10, 10, 9, 10, 7, 1, 10, 1, 3, 8, 5, 8, 8, 6, 4, 7, 5, 3, 4, 2, 10, 7, 6, 7, 8, 8, 3, 8, 9, 10, 10, 10, 1, 3, 1, 7, 9, 6, 10, 7, 8, 9, 4, 1, 5, 3, 2, 9, 9, 9, 4, 5, 5, 8, 1, 9, 0];
rr = array2d(1..4, 1..62, [0, 10, 5, 4, 0, 0, 0, 0, 0, 5, 0, 0, 4, 0, 0, 0, 10, 8, 0, 10, 1, 0, 9, 0, 0, 0, 4, 0, 0, 5, 0, 7, 0, 0, 2, 8, 6, 8, 0, 5, 0, 2, 1, 0, 0, 3, 10, 9, 5, 9, 8, 0, 9, 7, 0, 3, 0, 0, 0, 0, 0, 0, 0, 10, 8, 0, 0, 0, 0, 0, 0, 0, 7, 10, 7, 0, 3, 0, 2, 1, 2, 8, 0, 4, 0, 8, 2, 6, 0, 8, 8, 9, 0, 0, 0, 0, 10, 4, 0, 0, 4, 0, 9, 0, 1, 0, 9, 6, 4, 0, 0, 10, 0, 6, 7, 3, 9, 0, 0, 0, 0, 0, 1, 0, 0, 0, 0, 10, 4, 5, 3, 5, 0, 0, 7, 5, 3, 3, 4, 0, 4, 0, 8, 4, 0, 0, 4, 3, 8, 0, 1, 0, 0, 0, 4, 0, 0, 0, 0, 1, 9, 0, 0, 1, 4, 8, 8, 0, 8, 0, 0, 0, 10, 0, 0, 0, 0, 2, 0, 0, 10, 1, 5, 9, 0, 0, 0, 2, 9, 9, 0, 0, 2, 0, 8, 7, 9, 0, 0, 0, 0, 7, 0, 10, 0, 0, 6, 0, 0, 0, 0, 7, 0, 9, 10, 0, 9, 0, 6, 5, 0, 0, 0, 0, 7, 0, 7, 0, 0, 3, 0, 2, 0, 1, 0, 9, 8, 5, 9, 1, 7, 10, 0, 0, 6, 0, 10, 0]);

suc = [
   {2, 3, 4},
   {19, 23, 15},
   {9, 11, 13},
   {5, 22, 7},
   {20, 6},
   {40, 11, 38},
   {8, 10, 11},
   {51, 28, 15},
   {12, 22},
   {16, 27, 21},
   {17, 37, 33},
   {24, 20, 14},
   {18, 19},
   {33, 18, 31},
   {59, 20, 46},
   {26, 43, 61},
   {42, 19},
   {29, 45, 21},
   {36, 21, 39},
   {32},
   {41},
   {48, 25, 26},
   {56, 29, 30},
   {32, 34, 30},
   {36, 53, 47},
   {56, 36, 30},
   {55, 29, 47},
   {40, 34, 44},
   {59},
   {50},
   {48, 52, 39},
   {40, 41, 35},
   {45, 54, 39},
   {41, 35, 46},
   {42},
   {51, 44},
   {50, 51, 52},
   {42, 44},
   {57, 43, 61},
   {43},
   {53},
   {48, 52},
   {49, 47},
   {45, 54},
   {50, 46},
   {49, 58},
   {60},
   {56, 49},
   {55},
   {58},
   {59},
   {57, 53, 54},
   {61},
   {55},
   {60},
   {57},
   {58},
   {60},
   {62},
   {62},
   {62},
   {  } ];

deadline = array2d(1..62, 1..3, [1, 1, 2, 8, 1, 1, 9, 2, 1, 12, 1, 5, 14, 4, 0, 17, 4, 3, 22, 1, 3, 23, 5, 0, 31, 3, 3, 34, 1, 0, 35, 1, 1, 44, 2, 4, 46, 4, 3, 47, 4, 5, 51, 5, 2, 52, 3, 4, 53, 1, 1, 59, 5, 2, 60, 1, 1, 61, 5, 1, 63, 1, 0, 65, 3, 3, 66, 4, 5, 67, 2, 1, 71, 2, 0, 72, 5, 3, 75, 4, 3, 80, 4, 3, 80, 5, 0, 82, 2, 4, 89, 3, 2, 90, 4, 0, 90, 1, 4, 91, 5, 0, 92, 0, 2, 92, 3, 5, 96, 0, 4, 103, 2, 3, 116, 5, 4, 117, 3, 4, 126, 4, 4, 128, 5, 5, 133, 3, 4, 136, 3, 0, 136, 3, 0, 137, 3, 1, 149, 0, 2, 155, 2, 5, 156, 5, 3, 159, 4, 3, 160, 5, 4, 163, 1, 5, 165, 3, 2, 167, 1, 2, 170, 0, 2, 173, 2, 5, 181, 2, 1, 184, 5, 4, 187, 4, 5, 188, 1, 1, 189, 3, 2, 192, 1, 5]);
