n_res = 4;
rc = [ 35, 27, 32, 26 ];
n_tasks = 62;
d = [0, 10, 1, 1, 8, 7, 2, 8, 2, 7, 9, 4, 2, 9, 2, 6, 8, 6, 10, 7, 3, 4, 2, 8, 3, 5, 6, 1, 1, 10, 2, 1, 9, 6, 3, 1, 8, 10, 5, 7, 2, 5, 10, 4, 4, 1, 1, 4, 7, 9, 6, 8, 2, 5, 9, 3, 10, 1, 1, 4, 3, 0];
rr = array2d(1..4, 1..62, [0, 9, 8, 1, 10, 1, 6, 1, 1, 10, 8, 10, 0, 6, 4, 10, 0, 7, 0, 10, 6, 0, 0, 8, 7, 8, 0, 0, 0, 9, 1, 10, 9, 2, 9, 5, 7, 7, 7, 7, 3, 1, 0, 7, 9, 8, 0, 7, 0, 3, 3, 7, 10, 0, 5, 6, 4, 6, 3, 0, 7, 0, 0, 0, 9, 0, 0, 1, 10, 0, 4, 0, 0, 6, 6, 0, 3, 0, 0, 0, 0, 4, 7, 6, 5, 10, 7, 0, 0, 3, 5, 3, 9, 5, 10, 6, 0, 1, 4, 0, 7, 10, 0, 0, 0, 8, 1, 0, 2, 9, 4, 8, 7, 5, 4, 1, 10, 10, 10, 9, 7, 5, 9, 0, 0, 10, 6, 0, 0, 1, 7, 3, 2, 4, 10, 3, 0, 7, 0, 8, 4, 10, 5, 5, 7, 0, 4, 8, 6, 9, 6, 0, 7, 7, 8, 6, 5, 5, 8, 0, 4, 0, 7, 3, 5, 2, 3, 10, 10, 0, 1, 9, 8, 7, 9, 4, 9, 4, 0, 0, 2, 5, 0, 1, 0, 0, 0, 1, 9, 6, 6, 1, 6, 0, 0, 0, 2, 0, 4, 4, 10, 0, 0, 9, 6, 2, 0, 9, 7, 1, 2, 6, 8, 9, 3, 5, 2, 9, 1, 8, 7, 0, 0, 7, 7, 0, 6, 0, 3, 9, 6, 1, 9, 0, 1, 3, 5, 2, 0, 6, 10, 0, 5, 7, 2, 3, 5, 0]);

suc = [
   {2, 3, 4},
   {42, 37, 5},
   {56, 6, 7},
   {9, 11},
   {8, 13, 46},
   {41, 21, 15},
   {16, 25, 35},
   {32, 10, 40},
   {20, 30, 31},
   {12, 20},
   {18, 27, 29},
   {33, 38},
   {43, 14, 23},
   {19, 22},
   {24, 17, 52},
   {50},
   {58, 28},
   {61},
   {59, 45},
   {34, 27, 38},
   {48, 26, 47},
   {24, 32},
   {31},
   {26},
   {40, 34, 29},
   {51},
   {58, 52},
   {45},
   {44, 37, 46},
   {34, 36},
   {41},
   {61, 53, 39},
   {35},
   {53},
   {49, 39},
   {49, 42, 51},
   {49},
   {41, 45},
   {47},
   {50},
   {48},
   {54},
   {56, 44, 47},
   {50, 54},
   {60},
   {55},
   {52, 60},
   {55},
   {53},
   {51, 55},
   {57},
   {59},
   {54},
   {58},
   {57, 61},
   {57},
   {59},
   {60},
   {62},
   {62},
   {62},
   {  } ];

deadline = array2d(1..62, 1..3, [1, 2, 1, 2, 0, 2, 5, 5, 3, 8, 1, 0, 11, 1, 4, 17, 1, 3, 23, 5, 2, 24, 3, 3, 26, 5, 3, 32, 2, 2, 33, 0, 1, 33, 4, 2, 35, 5, 4, 38, 1, 0, 40, 2, 0, 41, 4, 1, 44, 5, 4, 44, 1, 1, 46, 2, 3, 48, 2, 4, 55, 5, 1, 55, 4, 4, 61, 0, 1, 62, 0, 3, 64, 1, 5, 67, 5, 1, 70, 1, 0, 70, 5, 5, 72, 2, 1, 81, 1, 0, 81, 3, 0, 81, 4, 2, 86, 1, 5, 87, 5, 1, 87, 4, 5, 95, 5, 1, 98, 2, 5, 106, 2, 3, 108, 3, 0, 111, 2, 0, 112, 0, 1, 118, 5, 3, 126, 2, 0, 134, 2, 4, 140, 1, 3, 142, 2, 3, 146, 0, 0, 165, 5, 3, 165, 2, 4, 168, 3, 4, 168, 5, 2, 169, 3, 5, 175, 5, 0, 175, 1, 3, 175, 3, 2, 176, 3, 0, 177, 3, 4, 178, 4, 2, 181, 1, 4, 185, 5, 3, 187, 0, 5, 188, 3, 2]);
