n_res = 4;
rc = [ 14, 19, 16, 19 ];
n_tasks = 62;
d = [0, 5, 3, 9, 6, 5, 2, 6, 3, 8, 7, 8, 9, 4, 1, 3, 2, 9, 10, 2, 8, 1, 1, 6, 8, 8, 2, 6, 9, 9, 4, 7, 7, 9, 10, 4, 1, 6, 2, 10, 8, 9, 10, 4, 10, 8, 3, 9, 10, 6, 8, 5, 8, 6, 7, 10, 2, 7, 7, 9, 10, 0];
rr = array2d(1..4, 1..62, [0, 1, 0, 0, 5, 0, 0, 0, 6, 0, 0, 0, 0, 0, 9, 0, 6, 0, 0, 0, 2, 0, 0, 0, 0, 0, 0, 0, 0, 0, 0, 0, 0, 0, 7, 5, 9, 1, 6, 0, 2, 8, 0, 0, 2, 0, 0, 0, 0, 0, 0, 0, 4, 1, 0, 0, 0, 0, 0, 7, 0, 0, 0, 0, 5, 0, 0, 3, 10, 0, 0, 0, 0, 6, 0, 0, 0, 5, 0, 7, 0, 9, 0, 0, 0, 0, 0, 3, 6, 10, 0, 0, 0, 8, 0, 5, 0, 0, 0, 0, 0, 0, 0, 0, 0, 0, 0, 0, 0, 0, 8, 0, 0, 0, 0, 0, 0, 1, 4, 0, 4, 0, 0, 0, 0, 0, 0, 9, 0, 0, 0, 2, 0, 2, 0, 0, 8, 0, 0, 0, 0, 0, 3, 0, 0, 1, 0, 0, 6, 0, 0, 0, 0, 0, 0, 0, 0, 0, 0, 0, 0, 0, 0, 0, 0, 0, 0, 0, 0, 0, 0, 7, 0, 0, 5, 0, 0, 0, 0, 0, 0, 8, 0, 0, 10, 0, 0, 0, 0, 0, 0, 0, 0, 0, 0, 0, 5, 0, 0, 2, 0, 0, 0, 0, 0, 0, 0, 0, 7, 9, 0, 0, 0, 0, 4, 1, 10, 0, 6, 0, 0, 0, 0, 0, 0, 5, 0, 0, 5, 7, 0, 4, 7, 0, 0, 2, 0, 5, 0, 0, 2, 0, 0, 0, 0, 0, 0, 0]);

suc = [
   {2, 3, 4},
   {9, 12, 31},
   {6, 15},
   {8, 13, 5},
   {48, 22},
   {18, 11, 7},
   {14, 23},
   {50, 59, 29},
   {10, 36},
   {38, 48, 14},
   {17, 34, 37},
   {49},
   {52, 22},
   {16, 37, 22},
   {30},
   {19, 29},
   {31},
   {24, 20, 28},
   {33, 20, 44},
   {26, 21},
   {40, 57, 53},
   {60},
   {25},
   {44, 39},
   {34, 27, 38},
   {43, 55},
   {41, 44, 46},
   {32, 40},
   {34},
   {42, 43, 55},
   {42, 35, 39},
   {41, 45},
   {41, 39},
   {58, 54},
   {40, 51},
   {50, 47},
   {61},
   {57, 43},
   {59},
   {45},
   {59},
   {52, 47},
   {56, 45},
   {49, 54},
   {49},
   {51},
   {48},
   {58},
   {61},
   {53},
   {52, 53},
   {56},
   {54, 55},
   {56},
   {61},
   {60},
   {58},
   {60},
   {62},
   {62},
   {62},
   {  } ];

deadline = array2d(1..62, 1..3, [2, 1, 2, 3, 5, 5, 4, 1, 3, 6, 0, 4, 6, 0, 1, 8, 5, 0, 12, 4, 5, 12, 5, 5, 13, 4, 0, 20, 2, 4, 20, 4, 0, 32, 0, 1, 34, 0, 1, 36, 3, 0, 38, 4, 4, 41, 0, 4, 43, 1, 2, 46, 1, 5, 47, 4, 2, 48, 1, 4, 50, 0, 4, 52, 3, 3, 54, 5, 5, 59, 4, 0, 65, 0, 5, 72, 0, 4, 74, 1, 3, 79, 3, 2, 80, 1, 3, 82, 2, 0, 96, 2, 1, 99, 4, 1, 105, 1, 5, 105, 5, 1, 106, 1, 1, 107, 4, 1, 108, 4, 4, 109, 3, 3, 111, 2, 1, 112, 3, 5, 113, 3, 1, 124, 4, 5, 124, 1, 1, 129, 5, 4, 132, 0, 4, 139, 0, 3, 142, 3, 4, 152, 0, 1, 152, 3, 0, 155, 3, 0, 156, 0, 5, 161, 4, 1, 162, 1, 4, 165, 3, 0, 166, 3, 2, 167, 3, 2, 171, 2, 2, 173, 4, 5, 185, 2, 5, 187, 3, 1, 189, 2, 2, 192, 3, 3]);
