n_res = 4;
rc = [ 18, 21, 19, 22 ];
n_tasks = 62;
d = [0, 4, 9, 7, 2, 1, 6, 8, 10, 8, 7, 1, 2, 4, 9, 7, 7, 6, 3, 8, 6, 4, 10, 4, 7, 10, 2, 7, 3, 1, 8, 8, 1, 5, 1, 10, 5, 9, 1, 5, 7, 6, 9, 8, 2, 1, 8, 5, 10, 1, 7, 9, 7, 1, 7, 10, 3, 8, 5, 3, 7, 0];
rr = array2d(1..4, 1..62, [0, 9, 5, 3, 10, 9, 1, 2, 7, 10, 8, 3, 10, 1, 1, 5, 6, 3, 8, 3, 1, 6, 10, 8, 1, 1, 8, 5, 1, 10, 5, 9, 2, 4, 1, 4, 9, 3, 5, 10, 5, 3, 2, 5, 8, 10, 5, 5, 10, 4, 6, 5, 9, 5, 5, 5, 6, 9, 7, 1, 10, 0, 0, 6, 5, 2, 5, 5, 10, 6, 8, 10, 4, 7, 10, 3, 1, 2, 5, 10, 7, 10, 8, 5, 2, 8, 6, 4, 5, 4, 6, 4, 10, 9, 2, 4, 6, 3, 1, 9, 10, 5, 8, 3, 9, 5, 4, 3, 9, 9, 9, 3, 5, 10, 1, 3, 1, 9, 2, 8, 5, 5, 3, 0, 0, 4, 4, 1, 8, 10, 10, 1, 2, 2, 6, 3, 8, 1, 8, 1, 7, 2, 2, 7, 4, 9, 4, 3, 3, 5, 6, 7, 5, 1, 3, 7, 5, 5, 9, 2, 3, 4, 7, 5, 7, 6, 3, 9, 7, 2, 3, 6, 3, 3, 10, 2, 7, 10, 10, 2, 2, 2, 4, 8, 2, 0, 0, 8, 6, 4, 7, 1, 9, 5, 3, 9, 8, 9, 7, 3, 10, 7, 3, 10, 8, 7, 2, 2, 5, 1, 8, 4, 9, 10, 2, 9, 5, 5, 4, 8, 3, 5, 3, 3, 4, 8, 6, 6, 6, 6, 3, 1, 6, 4, 4, 7, 6, 2, 8, 2, 6, 10, 2, 9, 4, 1, 6, 0]);

suc = [
   {2, 3, 4},
   {8, 13, 6},
   {25, 5, 7},
   {10},
   {16, 33, 35},
   {31},
   {12, 36, 15},
   {24, 9, 11},
   {19},
   {27, 54},
   {18, 28, 14},
   {26, 31},
   {17, 22},
   {39, 38, 23},
   {32, 20},
   {61},
   {36},
   {37, 21, 30},
   {51, 20},
   {45},
   {41},
   {34},
   {31},
   {44, 46},
   {27, 47},
   {41, 29},
   {48},
   {59},
   {57},
   {46},
   {59},
   {49, 42, 43},
   {40},
   {52, 45},
   {53},
   {55},
   {40},
   {56, 58},
   {60},
   {51},
   {50, 46},
   {55},
   {54},
   {51},
   {50},
   {53},
   {56},
   {59},
   {61},
   {56, 54},
   {52},
   {53},
   {58},
   {55},
   {60},
   {61},
   {58},
   {60},
   {62},
   {62},
   {62},
   {  } ];

deadline = array2d(1..62, 1..3, [3, 5, 5, 6, 3, 1, 12, 0, 5, 15, 2, 1, 17, 4, 3, 21, 3, 1, 22, 0, 2, 26, 1, 4, 26, 0, 3, 27, 3, 0, 31, 0, 2, 34, 0, 1, 39, 3, 2, 42, 4, 1, 43, 1, 0, 46, 1, 4, 48, 0, 3, 49, 2, 3, 52, 5, 0, 54, 0, 2, 54, 0, 2, 60, 2, 1, 63, 5, 5, 63, 1, 2, 66, 2, 1, 66, 1, 5, 69, 1, 3, 74, 4, 3, 75, 1, 1, 75, 2, 3, 78, 3, 3, 81, 1, 0, 83, 0, 4, 83, 0, 3, 84, 5, 3, 89, 0, 5, 90, 1, 3, 94, 4, 3, 94, 4, 3, 95, 3, 2, 97, 2, 0, 98, 2, 3, 100, 3, 0, 102, 0, 0, 104, 3, 3, 106, 3, 3, 110, 0, 3, 113, 0, 3, 113, 0, 2, 117, 0, 5, 119, 3, 2, 120, 1, 5, 123, 5, 4, 123, 2, 3, 126, 2, 5, 130, 0, 1, 132, 1, 4, 134, 3, 3, 148, 3, 2, 149, 4, 5, 152, 4, 1, 165, 2, 2]);
