n_res = 4;
rc = [ 24, 24, 20, 20 ];
n_tasks = 62;
d = [0, 6, 3, 7, 1, 8, 9, 1, 4, 4, 2, 7, 4, 3, 3, 6, 3, 8, 2, 5, 7, 3, 3, 6, 10, 2, 2, 6, 10, 4, 7, 8, 6, 5, 6, 8, 3, 5, 3, 2, 10, 7, 8, 5, 2, 1, 9, 9, 9, 3, 9, 7, 3, 8, 6, 7, 10, 7, 4, 9, 5, 0];
rr = array2d(1..4, 1..62, [0, 2, 9, 5, 2, 6, 7, 6, 10, 5, 10, 1, 2, 6, 5, 8, 6, 4, 4, 10, 8, 7, 1, 1, 3, 6, 6, 9, 9, 4, 3, 10, 7, 4, 3, 4, 9, 2, 1, 10, 10, 8, 7, 6, 8, 7, 8, 1, 1, 1, 3, 10, 3, 6, 3, 10, 9, 4, 5, 2, 1, 0, 0, 6, 3, 7, 4, 2, 7, 10, 7, 9, 10, 1, 3, 3, 9, 1, 10, 3, 8, 9, 6, 7, 7, 7, 3, 6, 9, 1, 2, 7, 4, 8, 5, 1, 9, 3, 5, 1, 7, 4, 2, 9, 10, 5, 1, 9, 7, 7, 9, 1, 4, 6, 6, 3, 7, 7, 9, 10, 5, 6, 7, 0, 0, 9, 8, 5, 7, 9, 6, 3, 4, 5, 5, 2, 8, 2, 7, 8, 7, 6, 7, 1, 6, 3, 1, 6, 2, 3, 9, 6, 10, 1, 1, 10, 8, 7, 4, 1, 1, 3, 2, 7, 2, 2, 8, 2, 10, 3, 1, 10, 4, 5, 8, 3, 10, 6, 6, 7, 4, 3, 5, 10, 8, 0, 0, 1, 4, 10, 3, 9, 7, 8, 7, 5, 8, 5, 10, 5, 8, 1, 8, 1, 10, 5, 9, 2, 8, 10, 1, 7, 5, 10, 3, 3, 5, 6, 3, 6, 2, 4, 2, 6, 4, 9, 7, 1, 3, 7, 2, 3, 1, 2, 3, 7, 7, 5, 1, 4, 9, 3, 10, 8, 10, 1, 7, 0]);

suc = [
   {2, 3, 4},
   {28},
   {10, 6, 7},
   {8, 19, 5},
   {33, 20, 14},
   {25},
   {9, 11, 17},
   {34, 54, 15},
   {18, 12},
   {16, 43, 21},
   {37, 44, 13},
   {26, 23},
   {41},
   {36},
   {38, 57, 22},
   {35},
   {34, 28, 31},
   {32, 37},
   {24, 27, 53},
   {49},
   {29},
   {32},
   {51, 35},
   {31},
   {59},
   {27, 30, 55},
   {38},
   {48},
   {53},
   {58},
   {40},
   {45},
   {47},
   {39},
   {40},
   {42},
   {42, 50},
   {61},
   {61},
   {50},
   {46},
   {58},
   {49, 45, 46},
   {56},
   {52},
   {50},
   {51},
   {57},
   {54},
   {52},
   {61},
   {60},
   {54},
   {58},
   {56, 59},
   {60},
   {59},
   {60},
   {62},
   {62},
   {62},
   {  } ];

deadline = array2d(1..62, 1..3, [2, 4, 0, 4, 5, 5, 8, 1, 2, 8, 1, 3, 13, 4, 5, 13, 2, 2, 16, 1, 0, 16, 3, 2, 25, 0, 2, 27, 2, 2, 27, 2, 5, 28, 3, 2, 35, 0, 3, 41, 1, 0, 42, 0, 3, 43, 4, 1, 44, 2, 1, 50, 2, 3, 50, 0, 0, 52, 2, 3, 52, 5, 1, 56, 4, 4, 56, 1, 3, 57, 5, 4, 58, 5, 0, 58, 3, 1, 61, 3, 1, 66, 3, 0, 68, 5, 4, 68, 2, 0, 69, 1, 3, 70, 0, 4, 72, 0, 0, 77, 1, 4, 78, 0, 0, 78, 4, 2, 87, 4, 4, 88, 4, 3, 90, 5, 4, 90, 3, 5, 91, 1, 1, 94, 3, 0, 94, 1, 2, 96, 1, 3, 98, 3, 5, 101, 4, 0, 101, 2, 5, 104, 0, 2, 104, 5, 5, 108, 1, 0, 109, 1, 2, 111, 1, 1, 117, 0, 4, 117, 0, 0, 118, 5, 0, 119, 0, 2, 122, 2, 5, 123, 5, 5, 125, 3, 2, 127, 1, 4, 130, 2, 3, 132, 2, 1]);
