n_res = 4;
rc = [ 32, 33, 30, 30 ];
n_tasks = 62;
d = [0, 7, 8, 2, 7, 2, 10, 2, 3, 1, 8, 8, 7, 9, 4, 4, 5, 5, 9, 7, 7, 5, 4, 6, 10, 1, 9, 4, 1, 3, 7, 1, 8, 3, 7, 6, 4, 8, 2, 6, 8, 4, 1, 10, 5, 2, 5, 6, 6, 6, 1, 4, 5, 10, 10, 7, 1, 7, 4, 6, 10, 0];
rr = array2d(1..4, 1..62, [0, 5, 5, 8, 5, 6, 6, 5, 7, 2, 6, 7, 8, 6, 3, 2, 6, 7, 3, 1, 4, 5, 3, 1, 5, 10, 3, 2, 9, 6, 7, 5, 7, 10, 8, 9, 7, 3, 5, 2, 1, 10, 1, 9, 7, 8, 6, 2, 8, 5, 2, 6, 6, 8, 8, 2, 6, 6, 3, 7, 6, 0, 0, 8, 1, 5, 9, 2, 1, 8, 1, 5, 5, 10, 7, 3, 1, 9, 2, 7, 7, 9, 5, 2, 8, 3, 1, 4, 6, 4, 9, 4, 5, 1, 7, 9, 5, 10, 10, 1, 3, 1, 6, 4, 1, 6, 2, 1, 5, 8, 9, 8, 2, 2, 10, 3, 9, 1, 5, 5, 1, 2, 6, 0, 0, 1, 5, 10, 9, 3, 1, 1, 2, 2, 8, 4, 1, 1, 2, 3, 10, 3, 4, 8, 4, 2, 9, 5, 6, 1, 8, 4, 8, 9, 7, 6, 3, 4, 10, 2, 3, 9, 3, 3, 8, 8, 2, 8, 8, 9, 2, 1, 9, 2, 2, 1, 9, 6, 4, 3, 3, 7, 3, 5, 2, 0, 0, 4, 2, 7, 8, 5, 4, 9, 6, 2, 6, 4, 1, 2, 7, 10, 5, 1, 3, 6, 4, 7, 3, 7, 4, 4, 10, 5, 7, 7, 7, 8, 10, 6, 1, 9, 4, 1, 3, 4, 10, 10, 8, 8, 9, 4, 4, 6, 8, 2, 3, 2, 6, 6, 2, 5, 3, 9, 9, 10, 10, 0]);

suc = [
   {2, 3, 4},
   {33, 11, 49},
   {9, 12, 6},
   {41, 5},
   {10, 34, 15},
   {24, 35, 7},
   {8},
   {37, 38},
   {17},
   {13, 14, 23},
   {48, 45},
   {26, 20},
   {33, 19},
   {32, 40, 54},
   {16, 43, 53},
   {25, 27, 21},
   {18, 53, 22},
   {42},
   {26, 58},
   {48, 58},
   {28, 46, 55},
   {56, 52, 23},
   {43},
   {32, 48, 45},
   {35, 37, 47},
   {29, 30, 31},
   {32, 44, 39},
   {33, 30},
   {49},
   {51, 35},
   {40, 61},
   {47},
   {45, 39},
   {46},
   {36},
   {57, 39},
   {51},
   {60},
   {56},
   {42},
   {46},
   {44},
   {49},
   {56, 60},
   {52},
   {47},
   {50, 52},
   {50, 55},
   {50, 51},
   {59},
   {57, 54},
   {58},
   {54, 55},
   {59},
   {57, 61},
   {59},
   {60},
   {61},
   {62},
   {62},
   {62},
   {  } ];

deadline = array2d(1..62, 1..3, [1, 2, 3, 1, 3, 3, 4, 0, 3, 9, 0, 3, 13, 5, 1, 16, 5, 3, 17, 0, 2, 20, 5, 5, 22, 5, 5, 22, 0, 4, 25, 2, 3, 30, 4, 3, 32, 1, 4, 32, 4, 0, 33, 0, 2, 33, 2, 0, 33, 1, 1, 34, 5, 3, 36, 3, 0, 40, 0, 1, 42, 1, 2, 46, 1, 0, 49, 5, 2, 50, 1, 5, 50, 0, 0, 56, 0, 2, 63, 4, 5, 64, 1, 5, 66, 5, 1, 68, 0, 3, 68, 3, 5, 78, 2, 2, 79, 4, 3, 80, 2, 3, 80, 2, 0, 81, 0, 4, 86, 4, 5, 87, 0, 5, 88, 3, 3, 89, 1, 0, 95, 3, 0, 100, 4, 1, 104, 5, 4, 105, 4, 4, 109, 1, 4, 112, 0, 2, 112, 2, 2, 118, 3, 2, 125, 4, 2, 131, 0, 3, 132, 2, 5, 135, 4, 4, 136, 1, 2, 137, 3, 3, 140, 5, 4, 141, 1, 0, 141, 3, 2, 142, 0, 5, 143, 0, 5, 146, 5, 2, 157, 3, 2, 158, 2, 5]);
