n_res = 4;
rc = [ 19, 13, 21, 12 ];
n_tasks = 62;
d = [0, 4, 10, 1, 4, 4, 3, 7, 4, 8, 3, 7, 4, 8, 7, 7, 10, 2, 9, 4, 10, 10, 4, 7, 4, 5, 3, 5, 4, 1, 9, 2, 8, 3, 7, 7, 3, 7, 9, 7, 10, 6, 6, 1, 5, 4, 3, 10, 7, 1, 8, 6, 2, 10, 3, 2, 2, 7, 3, 5, 9, 0];
rr = array2d(1..4, 1..62, [0, 0, 0, 0, 0, 0, 0, 6, 0, 0, 0, 0, 0, 0, 0, 0, 0, 0, 0, 1, 9, 0, 0, 0, 0, 0, 0, 0, 0, 7, 0, 4, 2, 0, 0, 1, 10, 0, 0, 0, 6, 0, 0, 7, 0, 0, 0, 0, 0, 0, 8, 1, 0, 0, 0, 2, 6, 0, 0, 0, 0, 0, 0, 0, 0, 0, 0, 0, 1, 0, 6, 0, 0, 2, 0, 0, 0, 0, 5, 0, 0, 0, 0, 0, 0, 0, 0, 0, 0, 5, 0, 0, 2, 0, 0, 0, 0, 0, 0, 0, 10, 8, 0, 1, 2, 0, 4, 4, 0, 6, 0, 4, 0, 0, 5, 0, 0, 0, 0, 0, 2, 4, 0, 0, 0, 0, 7, 7, 10, 3, 0, 0, 0, 7, 1, 0, 4, 0, 3, 0, 0, 0, 0, 0, 0, 7, 0, 0, 6, 10, 1, 0, 10, 0, 0, 0, 0, 3, 0, 0, 0, 6, 0, 0, 0, 0, 0, 0, 0, 0, 2, 0, 0, 0, 0, 0, 0, 0, 0, 0, 0, 3, 0, 0, 0, 0, 0, 1, 0, 0, 0, 0, 0, 0, 0, 0, 0, 0, 0, 4, 0, 3, 0, 7, 8, 0, 0, 0, 2, 6, 0, 0, 0, 0, 0, 0, 0, 0, 0, 0, 1, 0, 0, 0, 0, 0, 0, 0, 0, 0, 0, 0, 0, 0, 2, 0, 0, 0, 0, 7, 4, 0, 0, 0, 0, 0, 3, 0]);

suc = [
   {2, 3, 4},
   {21},
   {61, 46, 39},
   {17, 5, 6},
   {9, 11, 7},
   {13, 14},
   {8, 36, 23},
   {10, 12, 15},
   {15},
   {35, 27, 52},
   {20},
   {55, 39},
   {18, 50, 21},
   {18, 30},
   {16, 32, 20},
   {44},
   {26, 19, 42},
   {43, 19, 31},
   {34, 37, 39},
   {29, 22},
   {48, 37},
   {24, 42, 43},
   {42, 37, 38},
   {25, 45, 33},
   {47},
   {41, 28, 46},
   {59},
   {54},
   {52},
   {46},
   {32, 34},
   {48},
   {40, 35},
   {40, 35},
   {57},
   {44, 47},
   {49},
   {43, 55},
   {49, 57},
   {49},
   {61, 53},
   {56, 61},
   {45},
   {51},
   {56},
   {53, 54},
   {48},
   {52, 54, 55},
   {51},
   {59, 58, 51},
   {60},
   {53},
   {57},
   {56, 58},
   {58},
   {60},
   {59},
   {60},
   {62},
   {62},
   {62},
   {  } ];

deadline = array2d(1..62, 1..3, [10, 2, 3, 10, 3, 3, 15, 1, 5, 17, 0, 1, 24, 1, 2, 28, 3, 3, 29, 4, 4, 32, 0, 0, 34, 4, 4, 38, 1, 4, 39, 3, 0, 45, 5, 1, 49, 4, 3, 50, 4, 5, 59, 2, 3, 60, 0, 0, 61, 2, 4, 66, 3, 2, 69, 2, 4, 73, 5, 0, 75, 4, 2, 81, 3, 2, 83, 5, 5, 83, 3, 3, 84, 3, 0, 85, 2, 0, 86, 2, 2, 88, 2, 1, 91, 5, 2, 96, 3, 2, 103, 4, 2, 108, 5, 2, 114, 3, 5, 116, 1, 4, 124, 0, 4, 127, 2, 2, 130, 4, 0, 136, 5, 3, 140, 0, 1, 141, 4, 0, 143, 5, 3, 149, 0, 0, 159, 1, 3, 165, 5, 4, 168, 3, 3, 170, 3, 5, 171, 1, 4, 172, 0, 2, 173, 4, 5, 176, 5, 1, 177, 4, 2, 180, 1, 4, 182, 5, 5, 182, 3, 3, 185, 1, 5, 187, 3, 1, 189, 5, 1, 195, 0, 2, 198, 4, 4, 198, 1, 4, 201, 4, 1, 204, 1, 4]);
