n_res = 4;
rc = [ 44, 50, 37, 42 ];
n_tasks = 62;
d = [0, 3, 2, 8, 5, 2, 5, 8, 4, 3, 9, 9, 6, 7, 9, 9, 2, 10, 5, 5, 10, 4, 1, 9, 8, 2, 5, 5, 5, 7, 5, 5, 9, 2, 8, 8, 2, 3, 7, 6, 5, 1, 3, 8, 4, 1, 3, 1, 8, 8, 9, 1, 1, 8, 10, 4, 3, 8, 7, 7, 4, 0];
rr = array2d(1..4, 1..62, [0, 2, 0, 3, 0, 8, 2, 0, 5, 2, 10, 9, 4, 0, 6, 0, 8, 7, 8, 2, 5, 0, 6, 6, 0, 0, 4, 0, 1, 0, 8, 3, 3, 8, 9, 2, 2, 3, 2, 4, 0, 7, 1, 3, 2, 0, 0, 6, 6, 0, 0, 9, 9, 8, 6, 7, 3, 4, 1, 5, 0, 0, 0, 4, 3, 0, 2, 7, 1, 10, 6, 7, 3, 4, 0, 2, 9, 8, 6, 8, 9, 0, 4, 0, 2, 6, 0, 9, 0, 0, 2, 0, 6, 3, 4, 7, 9, 2, 0, 9, 1, 0, 0, 3, 4, 4, 5, 7, 6, 9, 5, 9, 7, 10, 2, 4, 0, 0, 10, 3, 2, 8, 5, 0, 0, 6, 2, 7, 8, 3, 3, 2, 0, 8, 0, 3, 8, 4, 0, 1, 5, 1, 0, 0, 4, 1, 0, 3, 5, 0, 2, 10, 3, 7, 2, 0, 0, 3, 10, 5, 5, 3, 5, 4, 5, 0, 10, 0, 0, 0, 10, 0, 0, 0, 7, 4, 10, 9, 10, 0, 0, 0, 4, 3, 2, 0, 0, 10, 8, 9, 1, 7, 9, 6, 0, 5, 3, 0, 2, 4, 6, 0, 9, 6, 2, 2, 6, 9, 8, 2, 10, 0, 6, 10, 7, 0, 2, 0, 1, 6, 2, 0, 8, 0, 10, 3, 0, 1, 6, 0, 7, 2, 6, 1, 0, 4, 9, 5, 5, 7, 8, 6, 5, 2, 4, 2, 3, 0]);

suc = [
   {2, 3, 4},
   {10, 11, 13},
   {5, 6, 7},
   {8, 19, 14},
   {9, 34, 30},
   {40, 41, 28},
   {43, 12, 31},
   {16, 18, 28},
   {12, 29, 39},
   {24, 15},
   {17, 35, 21},
   {38},
   {18, 26},
   {40, 17, 20},
   {48, 17, 47},
   {27},
   {52, 45, 23},
   {25, 29, 39},
   {46, 22, 47},
   {54, 31},
   {25, 36, 33},
   {24, 50, 23},
   {53, 28, 29},
   {49, 37, 55},
   {57, 46},
   {32, 31},
   {34, 52},
   {34, 51, 37},
   {57, 36},
   {42, 45, 38},
   {33, 42, 38},
   {36, 53, 39},
   {50, 44, 45},
   {42, 61, 54},
   {41, 43, 37},
   {51},
   {54},
   {51, 46},
   {40, 41, 58},
   {43, 60},
   {44, 60},
   {56},
   {44, 47},
   {48},
   {49},
   {48, 50, 58},
   {56, 49},
   {55},
   {61},
   {52, 53},
   {58, 55},
   {56},
   {61},
   {57},
   {59},
   {59},
   {60},
   {59},
   {62},
   {62},
   {62},
   {  } ];

deadline = array2d(1..62, 1..3, [4, 0, 2, 13, 4, 3, 18, 4, 3, 24, 0, 0, 27, 5, 2, 27, 0, 2, 33, 1, 4, 33, 3, 1, 41, 3, 0, 43, 5, 4, 47, 5, 4, 55, 1, 5, 56, 2, 0, 57, 0, 3, 58, 4, 4, 58, 2, 5, 59, 4, 3, 62, 1, 5, 64, 3, 1, 64, 5, 4, 65, 5, 0, 70, 1, 2, 70, 3, 4, 77, 1, 0, 78, 2, 0, 81, 3, 1, 81, 2, 3, 82, 4, 4, 86, 4, 4, 93, 5, 2, 96, 4, 3, 98, 0, 1, 100, 0, 5, 106, 4, 3, 108, 2, 3, 109, 4, 5, 110, 5, 0, 110, 3, 5, 113, 5, 1, 117, 5, 5, 122, 1, 3, 127, 0, 0, 128, 3, 1, 132, 3, 1, 133, 5, 0, 133, 5, 3, 134, 4, 0, 141, 2, 0, 143, 0, 5, 143, 5, 3, 144, 3, 2, 145, 5, 1, 146, 5, 1, 146, 2, 2, 146, 3, 0, 146, 5, 5, 147, 1, 3, 151, 1, 1, 153, 3, 3, 158, 3, 0, 166, 0, 5, 170, 0, 0]);
