n_res = 4;
rc = [ 37, 34, 44, 38 ];
n_tasks = 62;
d = [0, 1, 8, 4, 9, 3, 8, 10, 1, 1, 6, 2, 5, 8, 2, 1, 7, 1, 1, 2, 1, 10, 5, 7, 9, 10, 6, 10, 2, 8, 3, 5, 6, 8, 1, 6, 3, 8, 8, 10, 7, 8, 2, 2, 2, 8, 5, 9, 1, 6, 2, 1, 10, 8, 6, 6, 8, 9, 7, 7, 3, 0];
rr = array2d(1..4, 1..62, [0, 1, 4, 10, 5, 3, 4, 1, 10, 8, 10, 2, 6, 2, 5, 8, 3, 10, 3, 9, 10, 8, 1, 7, 3, 3, 2, 9, 1, 7, 10, 5, 2, 7, 4, 2, 2, 8, 6, 10, 9, 7, 5, 6, 6, 9, 10, 7, 6, 9, 6, 4, 7, 1, 3, 7, 7, 10, 9, 8, 7, 0, 0, 7, 6, 1, 4, 5, 5, 1, 9, 6, 7, 1, 2, 10, 5, 6, 8, 8, 9, 6, 7, 6, 6, 4, 1, 1, 5, 2, 3, 2, 2, 9, 7, 4, 5, 9, 8, 4, 1, 7, 8, 7, 8, 5, 2, 1, 5, 10, 8, 3, 2, 4, 8, 5, 9, 8, 10, 10, 6, 10, 4, 0, 0, 10, 2, 9, 7, 1, 9, 3, 7, 3, 7, 6, 5, 3, 4, 5, 10, 10, 6, 8, 8, 2, 6, 7, 7, 10, 10, 6, 10, 9, 8, 8, 5, 2, 6, 10, 1, 6, 2, 2, 7, 3, 6, 4, 7, 6, 6, 1, 10, 8, 4, 2, 6, 3, 8, 7, 4, 2, 5, 8, 3, 0, 0, 9, 1, 2, 8, 8, 10, 9, 7, 2, 2, 3, 7, 5, 6, 4, 3, 7, 2, 6, 4, 8, 2, 7, 10, 9, 8, 7, 7, 5, 3, 8, 6, 5, 1, 1, 3, 4, 1, 5, 7, 6, 4, 9, 1, 7, 7, 5, 6, 7, 8, 3, 8, 9, 1, 9, 3, 4, 4, 10, 3, 0]);

suc = [
   {2, 3, 4},
   {9, 5, 7},
   {34, 37, 6},
   {8, 17, 24},
   {12, 21, 52},
   {32, 45, 55},
   {56, 26, 28},
   {20, 28, 14},
   {33, 10, 41},
   {19, 11, 13},
   {26, 36, 29},
   {16, 18, 14},
   {39, 15},
   {33, 55},
   {51, 22},
   {24, 25, 37},
   {43, 27, 38},
   {41, 35, 47},
   {48, 25, 34},
   {21, 38},
   {50, 30},
   {27, 31, 23},
   {49, 36, 38},
   {35, 54, 31},
   {26, 46, 39},
   {53},
   {48, 45},
   {32, 36, 31},
   {46, 49, 30},
   {34, 37},
   {61, 46},
   {40, 33},
   {42, 35},
   {42, 51, 39},
   {51},
   {40, 58},
   {42, 43, 58},
   {40, 44, 47},
   {44, 47},
   {48, 50, 52},
   {50, 43, 54},
   {44},
   {61},
   {57},
   {49},
   {53, 55},
   {56},
   {59},
   {52, 54},
   {60},
   {57},
   {53},
   {57},
   {56},
   {59, 60},
   {58, 59},
   {60},
   {61},
   {62},
   {62},
   {62},
   {  } ];

deadline = array2d(1..62, 1..3, [1, 5, 0, 12, 3, 0, 12, 4, 2, 15, 2, 0, 18, 2, 0, 19, 5, 5, 21, 1, 1, 24, 1, 4, 26, 1, 0, 27, 2, 4, 28, 1, 3, 32, 0, 2, 33, 4, 4, 42, 5, 2, 42, 5, 4, 43, 0, 1, 43, 4, 2, 47, 3, 4, 54, 1, 5, 56, 1, 5, 60, 5, 4, 62, 2, 2, 63, 4, 4, 65, 2, 1, 68, 1, 5, 69, 2, 5, 77, 1, 5, 77, 5, 3, 83, 0, 3, 85, 4, 4, 89, 0, 3, 92, 4, 0, 96, 4, 2, 101, 3, 1, 101, 4, 4, 102, 0, 0, 102, 4, 5, 105, 5, 0, 108, 4, 2, 111, 5, 3, 115, 0, 2, 116, 0, 2, 119, 3, 1, 121, 5, 5, 121, 2, 3, 125, 3, 1, 125, 1, 1, 128, 5, 5, 137, 5, 5, 142, 3, 2, 147, 1, 4, 149, 0, 1, 151, 0, 1, 151, 4, 1, 153, 3, 3, 155, 3, 5, 158, 5, 2, 161, 2, 0, 169, 4, 4, 170, 2, 0, 172, 5, 4, 172, 3, 3]);
