n_res = 4;
rc = [ 40, 33, 43, 37 ];
n_tasks = 62;
d = [0, 5, 7, 1, 10, 1, 6, 5, 2, 2, 5, 7, 3, 3, 9, 7, 9, 9, 3, 6, 3, 3, 8, 9, 6, 7, 1, 8, 2, 7, 1, 4, 5, 9, 9, 9, 10, 2, 1, 1, 3, 5, 5, 6, 8, 9, 5, 10, 7, 2, 9, 4, 3, 1, 1, 6, 9, 2, 4, 5, 6, 0];
rr = array2d(1..4, 1..62, [0, 10, 6, 3, 5, 6, 8, 3, 3, 6, 9, 4, 9, 6, 9, 6, 3, 8, 7, 6, 5, 5, 3, 8, 1, 8, 5, 8, 3, 2, 5, 8, 9, 2, 9, 8, 7, 6, 6, 8, 6, 8, 2, 6, 7, 3, 6, 8, 10, 10, 6, 3, 6, 10, 10, 2, 7, 1, 2, 1, 1, 0, 0, 9, 7, 10, 4, 10, 4, 10, 2, 9, 3, 3, 7, 4, 4, 2, 5, 10, 4, 4, 10, 1, 1, 8, 10, 5, 4, 7, 1, 2, 6, 6, 3, 6, 4, 10, 7, 6, 2, 8, 3, 4, 10, 3, 3, 4, 9, 4, 10, 1, 10, 2, 2, 5, 8, 6, 3, 5, 4, 8, 8, 0, 0, 8, 9, 3, 9, 8, 9, 2, 4, 7, 6, 8, 3, 1, 7, 4, 1, 10, 2, 7, 9, 10, 10, 10, 10, 10, 6, 8, 2, 10, 8, 5, 2, 1, 8, 9, 1, 1, 10, 8, 8, 1, 8, 10, 2, 10, 5, 9, 1, 1, 9, 10, 9, 4, 4, 7, 10, 3, 3, 8, 7, 0, 0, 2, 8, 2, 8, 10, 2, 7, 5, 8, 3, 8, 8, 1, 8, 3, 2, 1, 9, 7, 7, 7, 1, 5, 9, 8, 9, 4, 1, 3, 5, 3, 2, 5, 1, 9, 10, 2, 9, 1, 1, 8, 2, 3, 10, 3, 3, 4, 9, 4, 9, 1, 5, 4, 7, 7, 5, 6, 2, 5, 4, 0]);

suc = [
   {2, 3, 4},
   {32, 5, 7},
   {12, 6, 23},
   {20, 45, 15},
   {59},
   {8, 9, 10},
   {14},
   {13, 22},
   {21, 14, 31},
   {11, 28},
   {42, 19},
   {50, 58},
   {40},
   {16, 56},
   {17, 30, 41},
   {33, 18, 39},
   {54, 38, 47},
   {24, 26, 37},
   {49},
   {31},
   {25, 47},
   {29},
   {34, 35, 46},
   {36},
   {27},
   {55},
   {33},
   {49},
   {43},
   {31},
   {51, 52},
   {35},
   {48},
   {41},
   {52},
   {53},
   {41},
   {43},
   {44},
   {48},
   {54},
   {60},
   {46},
   {53, 55},
   {52},
   {48},
   {56},
   {53},
   {51},
   {51},
   {55},
   {61},
   {58},
   {57},
   {60},
   {59, 60},
   {58},
   {59, 61},
   {62},
   {62},
   {62},
   {  } ];

deadline = array2d(1..62, 1..3, [1, 3, 4, 2, 4, 5, 8, 1, 3, 10, 2, 5, 11, 4, 4, 13, 3, 2, 14, 0, 2, 18, 0, 0, 26, 3, 1, 27, 0, 0, 28, 2, 2, 30, 1, 1, 31, 0, 2, 31, 1, 1, 33, 4, 3, 34, 3, 5, 36, 2, 5, 41, 4, 2, 43, 1, 1, 44, 2, 0, 46, 3, 5, 49, 0, 5, 50, 3, 2, 60, 1, 3, 60, 0, 0, 60, 1, 3, 65, 2, 5, 65, 0, 5, 66, 0, 5, 70, 0, 3, 79, 4, 1, 80, 2, 0, 80, 4, 5, 84, 2, 4, 85, 2, 2, 88, 5, 5, 89, 1, 1, 91, 4, 0, 94, 2, 4, 98, 3, 3, 101, 1, 0, 101, 0, 1, 102, 3, 3, 106, 5, 2, 107, 3, 2, 110, 3, 3, 112, 4, 0, 119, 1, 2, 121, 1, 5, 121, 1, 0, 121, 4, 3, 127, 3, 3, 129, 3, 1, 130, 2, 3, 131, 5, 1, 131, 0, 0, 134, 2, 5, 135, 3, 0, 135, 2, 5, 136, 4, 2, 137, 1, 1, 146, 2, 3]);
