n_res = 4;
rc = [ 33, 30, 25, 26 ];
n_tasks = 62;
d = [0, 3, 7, 4, 4, 7, 6, 4, 9, 8, 3, 2, 7, 2, 4, 7, 5, 2, 1, 9, 7, 6, 7, 3, 1, 8, 7, 5, 2, 1, 6, 3, 3, 6, 3, 6, 6, 1, 2, 4, 9, 3, 8, 1, 6, 6, 9, 9, 4, 1, 1, 4, 5, 7, 9, 4, 9, 7, 4, 6, 10, 0];
rr = array2d(1..4, 1..62, [0, 0, 8, 3, 0, 0, 1, 1, 4, 9, 3, 4, 9, 7, 9, 0, 7, 4, 3, 0, 6, 8, 8, 4, 1, 0, 1, 0, 2, 0, 0, 1, 1, 6, 5, 5, 7, 6, 7, 3, 10, 4, 9, 1, 2, 9, 10, 10, 5, 6, 2, 3, 0, 0, 0, 0, 1, 4, 9, 0, 0, 0, 0, 7, 8, 0, 2, 0, 9, 3, 9, 5, 4, 7, 0, 4, 2, 3, 0, 3, 1, 2, 0, 5, 3, 6, 0, 9, 8, 3, 7, 7, 10, 0, 2, 3, 9, 0, 5, 7, 0, 0, 3, 3, 3, 6, 7, 0, 1, 0, 1, 2, 9, 5, 6, 7, 8, 8, 7, 4, 10, 3, 0, 0, 0, 5, 3, 0, 0, 9, 2, 0, 0, 10, 9, 2, 1, 0, 4, 5, 7, 1, 8, 6, 0, 0, 10, 2, 10, 0, 10, 7, 8, 3, 8, 7, 3, 1, 7, 2, 0, 6, 1, 10, 3, 8, 0, 0, 4, 0, 10, 0, 0, 4, 9, 0, 7, 0, 7, 3, 2, 0, 1, 9, 7, 0, 0, 5, 2, 6, 9, 1, 0, 0, 6, 0, 6, 2, 9, 2, 0, 0, 6, 7, 7, 7, 9, 0, 0, 9, 1, 4, 1, 8, 10, 2, 0, 1, 1, 0, 0, 1, 9, 6, 5, 5, 0, 8, 6, 10, 4, 10, 0, 6, 0, 9, 2, 0, 2, 4, 2, 10, 7, 2, 5, 3, 2, 0]);

suc = [
   {2, 3, 4},
   {10, 11},
   {12, 7},
   {26, 19, 5},
   {8, 13, 6},
   {9, 11, 20},
   {34},
   {18, 54, 47},
   {16, 17},
   {21, 15},
   {14},
   {40, 60},
   {25},
   {61},
   {36, 37, 30},
   {24},
   {25, 35, 31},
   {33, 28, 22},
   {29, 39},
   {36},
   {44, 23},
   {41, 46, 49},
   {59},
   {56},
   {27, 55},
   {42},
   {60},
   {37},
   {32, 40},
   {33, 45},
   {34},
   {38},
   {57},
   {51},
   {42, 51},
   {52, 53},
   {50},
   {56},
   {53},
   {61},
   {51, 43},
   {47},
   {44},
   {58},
   {48},
   {52, 53},
   {56},
   {54},
   {57},
   {59},
   {52},
   {60},
   {55},
   {55},
   {58},
   {57},
   {59},
   {61},
   {62},
   {62},
   {62},
   {  } ];

deadline = array2d(1..62, 1..3, [1, 4, 0, 1, 1, 2, 2, 1, 2, 2, 1, 2, 3, 4, 0, 5, 5, 2, 13, 3, 3, 15, 0, 1, 17, 3, 0, 18, 5, 5, 21, 2, 2, 25, 0, 2, 27, 4, 0, 40, 4, 4, 40, 2, 1, 49, 3, 5, 50, 3, 3, 54, 5, 1, 60, 3, 1, 61, 2, 1, 63, 4, 0, 64, 4, 2, 68, 5, 1, 70, 3, 5, 74, 3, 4, 75, 5, 5, 81, 2, 3, 81, 2, 5, 83, 2, 4, 88, 1, 2, 92, 2, 4, 101, 1, 4, 102, 5, 1, 107, 2, 5, 107, 1, 5, 109, 4, 3, 109, 0, 5, 110, 1, 3, 110, 4, 4, 112, 5, 4, 113, 2, 5, 114, 1, 4, 118, 2, 5, 121, 5, 1, 127, 2, 1, 127, 5, 3, 129, 0, 4, 133, 1, 2, 135, 2, 0, 142, 3, 2, 142, 3, 5, 144, 5, 1, 149, 1, 3, 151, 0, 5, 152, 4, 3, 156, 4, 5, 157, 5, 4, 157, 5, 1, 158, 0, 5, 158, 1, 5, 158, 3, 3, 160, 3, 0]);
