n_res = 4;
rc = [ 24, 15, 23, 23 ];
n_tasks = 62;
d = [0, 10, 9, 4, 10, 6, 8, 2, 1, 3, 5, 10, 4, 4, 8, 10, 8, 7, 4, 1, 6, 4, 7, 10, 8, 10, 8, 3, 2, 1, 8, 4, 5, 10, 8, 2, 1, 4, 2, 4, 5, 10, 5, 1, 4, 1, 1, 10, 1, 10, 10, 3, 2, 4, 8, 6, 2, 3, 4, 4, 8, 0];
rr = array2d(1..4, 1..62, [0, 0, 0, 6, 10, 0, 6, 0, 0, 8, 10, 9, 2, 2, 0, 6, 0, 7, 0, 0, 3, 0, 0, 0, 0, 0, 0, 7, 0, 0, 3, 0, 0, 3, 3, 8, 0, 7, 10, 7, 0, 2, 0, 8, 1, 10, 0, 0, 7, 7, 7, 0, 2, 6, 0, 6, 0, 9, 0, 0, 2, 0, 0, 0, 0, 1, 0, 0, 0, 6, 9, 0, 0, 0, 6, 4, 2, 0, 0, 0, 0, 7, 0, 4, 6, 0, 3, 2, 6, 0, 8, 0, 0, 0, 9, 0, 0, 9, 0, 0, 0, 0, 0, 5, 0, 1, 8, 0, 0, 0, 0, 4, 0, 9, 5, 5, 0, 0, 1, 0, 0, 0, 9, 0, 0, 5, 5, 3, 0, 7, 0, 10, 0, 4, 0, 6, 0, 0, 4, 0, 9, 0, 5, 0, 0, 0, 0, 1, 0, 0, 10, 5, 6, 0, 2, 10, 0, 0, 0, 0, 3, 1, 5, 0, 10, 8, 0, 3, 0, 5, 6, 3, 8, 0, 0, 0, 2, 0, 0, 9, 6, 3, 4, 0, 6, 0, 0, 0, 5, 6, 1, 3, 0, 0, 0, 0, 0, 0, 1, 0, 0, 3, 0, 6, 8, 7, 0, 3, 0, 0, 5, 0, 6, 0, 0, 7, 0, 4, 5, 6, 0, 0, 3, 0, 5, 5, 3, 0, 5, 0, 7, 6, 6, 6, 0, 4, 8, 6, 0, 0, 2, 2, 0, 6, 9, 10, 4, 0]);

suc = [
   {2, 3, 4},
   {50, 5, 30},
   {11, 6, 15},
   {24, 48, 31},
   {8, 14, 7},
   {16, 34, 44},
   {33, 19},
   {9, 25, 47},
   {17, 10, 18},
   {12, 13},
   {43, 36, 23},
   {32, 58},
   {49, 19, 22},
   {32, 26, 21},
   {43, 19},
   {41},
   {46},
   {57},
   {20, 28},
   {27, 29},
   {41, 34, 47},
   {55},
   {54, 38},
   {61, 53, 37},
   {40, 33},
   {43},
   {42, 46, 39},
   {59, 29},
   {35},
   {38},
   {45, 54, 55},
   {48, 61},
   {49, 36, 39},
   {42, 35},
   {56},
   {51, 46},
   {39},
   {44, 47},
   {58},
   {42, 61},
   {51, 52},
   {45},
   {48, 45},
   {53},
   {56},
   {52},
   {49, 55},
   {52},
   {53},
   {51},
   {57},
   {57, 54},
   {56},
   {60},
   {59},
   {58},
   {59, 60},
   {60},
   {62},
   {62},
   {62},
   {  } ];

deadline = array2d(1..62, 1..3, [13, 5, 4, 16, 5, 1, 17, 1, 4, 18, 0, 2, 19, 1, 4, 23, 1, 4, 26, 3, 0, 27, 1, 5, 27, 2, 0, 28, 4, 4, 30, 5, 4, 32, 3, 5, 36, 0, 3, 39, 1, 5, 45, 5, 2, 45, 4, 3, 50, 2, 0, 51, 1, 0, 52, 4, 5, 54, 4, 1, 59, 5, 3, 63, 4, 3, 64, 3, 0, 64, 2, 3, 65, 1, 4, 65, 3, 4, 71, 2, 3, 71, 3, 2, 75, 1, 0, 79, 3, 0, 80, 3, 3, 83, 1, 1, 85, 2, 5, 86, 3, 1, 91, 0, 3, 92, 1, 1, 97, 4, 2, 102, 4, 5, 103, 4, 2, 107, 3, 0, 108, 3, 5, 108, 5, 5, 116, 2, 4, 122, 0, 0, 124, 0, 3, 131, 5, 5, 133, 3, 1, 136, 3, 4, 136, 5, 5, 139, 5, 1, 140, 1, 5, 143, 1, 1, 151, 2, 3, 151, 3, 5, 153, 2, 1, 160, 2, 5, 161, 2, 4, 163, 0, 0, 166, 5, 4, 170, 0, 3, 171, 4, 5, 174, 4, 3]);
