n_res = 4;
rc = [ 23, 28, 24, 24 ];
n_tasks = 62;
d = [0, 5, 10, 7, 7, 2, 9, 8, 2, 3, 7, 6, 1, 9, 8, 8, 1, 3, 9, 4, 2, 2, 6, 3, 6, 3, 9, 5, 6, 10, 2, 8, 2, 2, 9, 6, 10, 4, 8, 3, 7, 5, 4, 6, 1, 3, 7, 2, 7, 7, 10, 6, 6, 9, 9, 8, 2, 8, 1, 10, 4, 0];
rr = array2d(1..4, 1..62, [0, 6, 10, 0, 0, 8, 0, 0, 5, 8, 0, 5, 8, 8, 3, 0, 0, 8, 0, 2, 2, 6, 1, 3, 8, 2, 4, 0, 0, 10, 2, 9, 9, 4, 0, 0, 0, 0, 0, 8, 0, 3, 3, 0, 0, 0, 3, 0, 0, 7, 0, 3, 10, 6, 2, 0, 7, 0, 0, 10, 2, 0, 0, 9, 0, 7, 10, 0, 4, 0, 8, 0, 0, 0, 5, 0, 0, 9, 0, 0, 1, 0, 7, 0, 5, 0, 0, 0, 6, 4, 0, 0, 0, 8, 3, 0, 9, 0, 0, 3, 2, 0, 7, 0, 0, 0, 7, 2, 0, 4, 1, 7, 7, 0, 0, 0, 0, 0, 0, 4, 0, 0, 0, 0, 0, 0, 1, 0, 8, 0, 5, 8, 0, 6, 0, 0, 0, 5, 2, 0, 0, 5, 0, 0, 4, 6, 5, 0, 5, 2, 0, 6, 0, 5, 0, 0, 0, 5, 0, 6, 0, 0, 3, 1, 0, 2, 3, 0, 9, 3, 5, 0, 0, 0, 0, 0, 7, 8, 2, 0, 0, 7, 2, 7, 0, 0, 0, 5, 0, 0, 7, 6, 0, 0, 0, 0, 1, 0, 7, 8, 4, 0, 5, 0, 2, 7, 2, 0, 5, 0, 0, 2, 0, 0, 1, 0, 7, 1, 9, 4, 0, 5, 4, 6, 4, 0, 0, 0, 0, 3, 0, 0, 3, 0, 4, 5, 2, 0, 3, 8, 0, 4, 8, 0, 0, 0, 0, 0]);

suc = [
   {2, 3, 4},
   {5},
   {11, 12, 31},
   {13, 6, 23},
   {8, 25, 50},
   {10, 18, 7},
   {9, 19, 29},
   {45},
   {41},
   {16},
   {34, 58},
   {28, 14, 15},
   {26, 20, 30},
   {32, 53},
   {44, 22},
   {17, 36, 49},
   {33, 30},
   {21},
   {56},
   {24, 21},
   {59},
   {40},
   {35, 27, 39},
   {33},
   {45},
   {41, 51},
   {54},
   {38},
   {53},
   {57},
   {52},
   {58},
   {43},
   {47},
   {37},
   {37},
   {48},
   {48, 51},
   {46, 55},
   {42},
   {47},
   {53},
   {47},
   {56},
   {59},
   {52},
   {48, 54},
   {57, 61},
   {56, 51},
   {52},
   {60},
   {54},
   {61},
   {59, 60},
   {58},
   {57},
   {60},
   {61},
   {62},
   {62},
   {62},
   {  } ];

deadline = array2d(1..62, 1..3, [2, 0, 1, 10, 2, 1, 16, 1, 5, 25, 5, 2, 26, 5, 1, 27, 1, 0, 28, 0, 4, 31, 4, 1, 31, 4, 5, 32, 5, 1, 37, 4, 1, 38, 4, 2, 38, 0, 1, 39, 5, 4, 40, 4, 5, 41, 1, 3, 52, 0, 1, 53, 1, 4, 54, 2, 3, 54, 5, 2, 55, 2, 1, 61, 3, 3, 61, 2, 3, 61, 0, 5, 64, 0, 5, 64, 0, 4, 64, 0, 0, 65, 4, 5, 68, 1, 4, 68, 1, 5, 72, 5, 3, 72, 3, 3, 73, 3, 2, 73, 5, 1, 74, 5, 3, 74, 1, 2, 76, 3, 5, 79, 5, 1, 87, 2, 4, 89, 4, 3, 90, 1, 3, 94, 0, 0, 98, 0, 1, 101, 4, 3, 102, 5, 5, 105, 5, 1, 106, 2, 0, 109, 3, 4, 111, 4, 3, 113, 1, 2, 113, 1, 4, 113, 0, 3, 116, 0, 4, 120, 1, 0, 121, 4, 0, 126, 1, 5, 126, 0, 5, 129, 0, 0, 129, 4, 5, 130, 5, 5, 131, 5, 4, 132, 2, 3]);
