n_res = 4;
rc = [ 28, 18, 27, 22 ];
n_tasks = 62;
d = [0, 8, 10, 10, 5, 1, 10, 8, 10, 9, 1, 4, 3, 10, 1, 1, 8, 4, 6, 6, 8, 10, 3, 3, 1, 5, 1, 9, 8, 10, 5, 6, 7, 2, 5, 8, 1, 9, 8, 6, 8, 5, 7, 5, 3, 5, 3, 1, 2, 10, 2, 7, 3, 6, 3, 7, 2, 10, 2, 9, 8, 0];
rr = array2d(1..4, 1..62, [0, 8, 7, 0, 0, 6, 0, 0, 3, 5, 4, 0, 0, 8, 0, 6, 9, 0, 0, 0, 0, 8, 6, 2, 7, 8, 0, 8, 6, 8, 0, 8, 6, 2, 10, 5, 0, 1, 0, 0, 0, 0, 0, 0, 0, 6, 0, 0, 3, 7, 3, 8, 0, 7, 0, 8, 0, 0, 0, 7, 10, 0, 0, 7, 1, 1, 0, 0, 0, 2, 0, 0, 0, 10, 0, 0, 2, 0, 0, 7, 2, 2, 0, 9, 0, 0, 2, 7, 8, 8, 0, 7, 0, 0, 0, 0, 8, 0, 8, 5, 3, 0, 4, 0, 5, 0, 2, 0, 0, 3, 0, 0, 2, 6, 0, 0, 10, 6, 0, 0, 0, 10, 10, 0, 0, 3, 9, 0, 0, 4, 0, 10, 0, 0, 0, 10, 5, 9, 0, 6, 0, 3, 0, 0, 7, 0, 0, 10, 10, 0, 1, 9, 0, 0, 5, 0, 0, 0, 7, 1, 0, 7, 0, 1, 10, 3, 6, 9, 0, 0, 9, 0, 0, 0, 8, 0, 0, 0, 0, 4, 9, 7, 8, 2, 0, 0, 0, 0, 0, 8, 6, 0, 6, 0, 0, 8, 0, 0, 7, 5, 0, 0, 9, 0, 0, 1, 0, 5, 3, 9, 0, 10, 0, 0, 0, 2, 0, 2, 3, 0, 1, 5, 5, 5, 0, 4, 10, 0, 0, 0, 2, 0, 10, 0, 0, 6, 0, 0, 10, 7, 6, 0, 0, 0, 9, 9, 9, 0]);

suc = [
   {2, 3, 4},
   {25, 10, 6},
   {9, 5, 7},
   {8, 43, 19},
   {17, 18, 13},
   {41, 21, 15},
   {33, 50, 47},
   {34, 11, 47},
   {27, 29, 14},
   {16, 24, 12},
   {48, 37, 23},
   {42, 35, 29},
   {52, 30},
   {32, 21},
   {42, 45, 30},
   {26, 28, 23},
   {20, 37, 52},
   {33, 22},
   {20, 37, 23},
   {41, 46, 39},
   {26, 36, 31},
   {28},
   {33, 27},
   {43, 31},
   {32, 60, 30},
   {58, 43, 38},
   {42, 35},
   {54, 34, 38},
   {32, 50, 38},
   {51, 39, 31},
   {57},
   {57},
   {56, 39},
   {49, 35, 51},
   {36, 46, 52},
   {58, 53},
   {40, 49},
   {45, 47},
   {44, 55},
   {41, 46, 55},
   {56, 57, 50},
   {44},
   {44, 45},
   {54},
   {48, 49},
   {58},
   {48, 55},
   {61},
   {53},
   {51, 54},
   {59},
   {53},
   {56, 61},
   {59},
   {61},
   {60},
   {59},
   {60},
   {62},
   {62},
   {62},
   {  } ];

deadline = array2d(1..62, 1..3, [3, 5, 5, 5, 5, 5, 6, 2, 1, 8, 3, 0, 14, 2, 4, 16, 2, 4, 18, 3, 5, 20, 3, 3, 21, 3, 3, 22, 0, 0, 23, 1, 5, 31, 4, 5, 33, 1, 5, 33, 4, 1, 35, 3, 1, 41, 3, 0, 49, 5, 2, 51, 1, 3, 53, 1, 0, 59, 0, 0, 59, 2, 4, 64, 3, 2, 66, 4, 2, 67, 1, 5, 72, 4, 5, 73, 5, 4, 74, 1, 1, 75, 2, 2, 76, 2, 2, 80, 1, 5, 81, 0, 0, 86, 5, 3, 87, 0, 5, 87, 3, 2, 88, 1, 0, 89, 1, 4, 98, 4, 5, 98, 2, 2, 101, 3, 4, 102, 2, 5, 106, 5, 5, 113, 5, 0, 120, 5, 1, 126, 0, 4, 127, 2, 1, 127, 5, 3, 130, 2, 1, 132, 4, 2, 140, 0, 2, 144, 3, 4, 152, 4, 5, 154, 1, 2, 157, 3, 1, 159, 3, 5, 162, 1, 1, 173, 2, 5, 174, 0, 0, 176, 0, 0, 176, 4, 0, 176, 5, 5, 189, 5, 5, 190, 3, 1]);
