n_res = 4;
rc = [ 29, 25, 23, 32 ];
n_tasks = 62;
d = [0, 10, 1, 7, 8, 8, 6, 6, 10, 9, 9, 5, 5, 5, 8, 7, 9, 6, 3, 9, 5, 3, 9, 3, 10, 6, 2, 3, 3, 7, 3, 8, 7, 7, 3, 7, 1, 3, 2, 3, 4, 2, 1, 5, 6, 7, 2, 5, 9, 8, 6, 1, 2, 9, 5, 10, 1, 8, 5, 1, 9, 0];
rr = array2d(1..4, 1..62, [0, 0, 0, 0, 0, 0, 1, 0, 8, 0, 10, 0, 10, 0, 6, 0, 7, 0, 0, 6, 0, 9, 5, 8, 7, 10, 10, 0, 2, 0, 0, 6, 6, 10, 10, 0, 4, 0, 0, 4, 10, 6, 0, 0, 0, 0, 6, 0, 9, 0, 6, 5, 10, 0, 0, 0, 10, 0, 8, 0, 0, 0, 0, 0, 9, 0, 7, 0, 0, 0, 6, 0, 5, 0, 0, 8, 0, 0, 0, 8, 0, 9, 7, 0, 7, 0, 0, 0, 0, 4, 0, 10, 9, 0, 10, 2, 0, 0, 2, 9, 5, 0, 7, 4, 0, 3, 0, 3, 0, 0, 0, 8, 9, 0, 6, 4, 7, 0, 0, 6, 0, 9, 0, 0, 0, 3, 4, 0, 10, 4, 8, 2, 0, 1, 0, 0, 0, 7, 10, 0, 10, 0, 0, 0, 0, 8, 7, 8, 0, 6, 0, 0, 0, 3, 4, 0, 0, 1, 4, 0, 0, 6, 10, 0, 6, 0, 4, 0, 6, 7, 10, 8, 0, 5, 0, 9, 7, 1, 0, 0, 0, 4, 0, 10, 8, 0, 0, 0, 8, 4, 0, 0, 2, 0, 5, 0, 6, 4, 0, 5, 0, 9, 8, 0, 9, 0, 5, 8, 10, 7, 10, 0, 0, 0, 0, 0, 0, 9, 9, 0, 4, 6, 9, 0, 0, 2, 0, 0, 0, 0, 5, 1, 0, 2, 7, 7, 0, 2, 0, 0, 9, 8, 9, 0, 0, 9, 0, 0]);

suc = [
   {2, 3, 4},
   {41, 11, 51},
   {8, 5, 7},
   {44, 13, 47},
   {46, 61, 6},
   {33, 18, 21},
   {41, 10, 23},
   {9, 26, 14},
   {16, 18, 35},
   {12, 20, 38},
   {54, 61, 30},
   {17, 43, 45},
   {17, 33, 31},
   {41, 15},
   {25, 34},
   {50, 44, 21},
   {40, 28, 55},
   {24, 40, 19},
   {27, 22, 39},
   {32, 43, 28},
   {24, 42, 37},
   {25, 23},
   {43, 36, 31},
   {25, 28, 38},
   {53, 29},
   {34, 29},
   {42, 31},
   {48, 49, 29},
   {54},
   {33, 35, 36},
   {37},
   {42, 58, 39},
   {40, 37, 38},
   {50, 35, 36},
   {46, 39},
   {48, 52},
   {56, 52, 45},
   {56},
   {48, 60, 47},
   {49},
   {56, 44, 46},
   {45},
   {55},
   {58},
   {49},
   {47},
   {59},
   {57},
   {57, 53},
   {51, 53},
   {58, 52, 54},
   {55},
   {60},
   {59},
   {60},
   {57},
   {59},
   {61},
   {62},
   {62},
   {62},
   {  } ];

deadline = array2d(1..62, 1..3, [1, 1, 1, 2, 1, 5, 4, 3, 3, 8, 4, 0, 10, 2, 3, 12, 3, 4, 15, 1, 4, 16, 1, 1, 18, 5, 3, 19, 1, 1, 20, 3, 1, 20, 1, 0, 23, 5, 1, 24, 3, 5, 26, 2, 3, 28, 4, 2, 28, 1, 5, 28, 5, 3, 28, 3, 5, 33, 1, 5, 41, 1, 0, 42, 1, 5, 43, 2, 1, 49, 5, 1, 50, 4, 5, 54, 4, 2, 63, 0, 3, 63, 4, 0, 67, 4, 2, 67, 4, 0, 73, 2, 3, 74, 1, 0, 75, 1, 5, 78, 1, 1, 78, 1, 1, 78, 5, 1, 80, 4, 5, 85, 3, 4, 92, 4, 5, 93, 5, 1, 98, 5, 3, 98, 3, 1, 99, 3, 0, 100, 2, 1, 100, 3, 3, 106, 4, 3, 107, 0, 2, 111, 5, 1, 114, 3, 5, 120, 4, 3, 124, 5, 0, 125, 5, 0, 129, 4, 4, 130, 2, 5, 132, 0, 3, 138, 0, 4, 139, 2, 0, 139, 4, 0, 140, 0, 3, 144, 1, 3, 149, 2, 4, 150, 2, 5]);
