n_res = 4;
rc = [ 19, 17, 14, 21 ];
n_tasks = 62;
d = [0, 10, 1, 7, 4, 5, 4, 4, 4, 7, 9, 7, 5, 7, 9, 5, 9, 7, 1, 6, 8, 9, 1, 2, 8, 5, 2, 8, 9, 5, 10, 10, 2, 1, 1, 8, 5, 6, 1, 6, 8, 7, 1, 4, 2, 3, 7, 5, 1, 3, 5, 1, 6, 8, 10, 6, 6, 6, 8, 10, 2, 0];
rr = array2d(1..4, 1..62, [0, 6, 2, 9, 0, 5, 0, 0, 0, 4, 0, 0, 0, 0, 0, 2, 0, 0, 0, 0, 8, 6, 4, 0, 0, 0, 0, 0, 3, 0, 4, 0, 3, 4, 0, 0, 0, 0, 0, 0, 0, 0, 0, 0, 0, 0, 5, 0, 0, 0, 0, 1, 0, 0, 2, 0, 0, 0, 0, 0, 5, 0, 0, 0, 0, 0, 0, 0, 0, 0, 0, 0, 0, 0, 4, 9, 0, 0, 6, 0, 5, 3, 0, 0, 0, 6, 0, 10, 1, 1, 0, 0, 0, 10, 0, 0, 0, 0, 0, 5, 0, 0, 4, 0, 1, 0, 0, 0, 0, 7, 0, 0, 0, 0, 9, 0, 0, 0, 0, 1, 0, 5, 0, 0, 0, 0, 0, 0, 1, 0, 0, 0, 7, 0, 0, 0, 0, 0, 0, 0, 0, 4, 0, 0, 0, 0, 0, 0, 8, 0, 0, 0, 0, 0, 0, 0, 0, 0, 0, 2, 0, 0, 0, 0, 0, 0, 0, 6, 6, 0, 0, 0, 8, 0, 0, 0, 0, 6, 0, 6, 0, 0, 0, 0, 0, 0, 0, 0, 0, 0, 0, 0, 9, 9, 0, 0, 10, 8, 0, 0, 2, 0, 0, 0, 0, 0, 0, 0, 0, 0, 0, 0, 0, 0, 0, 5, 0, 0, 0, 0, 2, 0, 2, 0, 1, 9, 0, 10, 0, 0, 0, 5, 0, 0, 0, 4, 5, 0, 0, 0, 0, 0, 6, 0, 8, 0, 0, 0]);

suc = [
   {2, 3, 4},
   {41, 10, 53},
   {29, 5, 22},
   {9, 20, 7},
   {16, 26, 6},
   {10, 13, 15},
   {8, 18, 47},
   {33, 12, 23},
   {10, 11, 54},
   {19, 37, 14},
   {16, 43, 19},
   {25, 38, 57},
   {17, 55, 23},
   {33, 27},
   {32, 41, 27},
   {40, 35, 36},
   {51, 19, 31},
   {35, 21, 30},
   {42},
   {52, 38, 47},
   {24, 25, 22},
   {40, 43, 37},
   {53, 54},
   {32, 41},
   {36, 37, 46},
   {49, 39, 31},
   {28, 46},
   {34, 36, 39},
   {42, 44, 31},
   {60, 38, 39},
   {33, 45, 47},
   {51},
   {48},
   {40, 35},
   {44},
   {42, 44, 55},
   {49, 50},
   {43},
   {48, 61},
   {49, 57},
   {52},
   {59},
   {51, 45, 46},
   {56, 45},
   {48, 50, 58},
   {50, 58},
   {57, 54},
   {59},
   {52},
   {59},
   {53},
   {61, 55},
   {58},
   {56},
   {56},
   {60},
   {60},
   {61},
   {62},
   {62},
   {62},
   {  } ];

deadline = array2d(1..62, 1..3, [6, 0, 4, 6, 5, 1, 7, 2, 5, 7, 2, 0, 17, 5, 3, 19, 5, 1, 29, 4, 0, 31, 3, 4, 33, 4, 0, 36, 4, 3, 42, 2, 5, 44, 4, 2, 51, 1, 0, 53, 5, 0, 57, 1, 1, 64, 0, 5, 65, 0, 2, 68, 3, 5, 68, 2, 5, 71, 2, 0, 71, 1, 5, 73, 5, 1, 76, 0, 3, 77, 4, 5, 78, 4, 3, 79, 3, 2, 88, 2, 1, 98, 2, 2, 99, 3, 5, 102, 2, 0, 112, 1, 5, 114, 0, 4, 119, 4, 5, 120, 0, 5, 123, 0, 2, 126, 3, 1, 127, 4, 2, 129, 1, 0, 129, 5, 2, 130, 1, 0, 130, 0, 5, 131, 5, 1, 135, 5, 4, 137, 2, 2, 137, 5, 1, 138, 3, 0, 139, 0, 4, 140, 5, 1, 140, 3, 5, 146, 0, 3, 151, 0, 0, 151, 5, 0, 152, 5, 4, 159, 5, 1, 161, 5, 4, 163, 2, 5, 163, 2, 3, 165, 3, 5, 166, 3, 2, 167, 5, 2, 168, 2, 4, 175, 4, 4]);
