n_res = 4;
rc = [ 14, 12, 13, 15 ];
n_tasks = 62;
d = [0, 2, 3, 7, 9, 1, 2, 4, 7, 1, 5, 6, 4, 6, 7, 4, 4, 9, 8, 5, 1, 9, 9, 9, 4, 2, 10, 1, 8, 2, 1, 4, 10, 5, 9, 5, 7, 1, 1, 4, 1, 4, 7, 3, 9, 7, 6, 8, 6, 10, 2, 3, 2, 7, 3, 9, 1, 1, 6, 3, 2, 0];
rr = array2d(1..4, 1..62, [0, 0, 0, 0, 0, 2, 0, 9, 0, 0, 0, 0, 4, 9, 0, 0, 0, 0, 0, 0, 1, 0, 5, 0, 0, 0, 0, 6, 0, 0, 0, 9, 1, 0, 0, 0, 0, 0, 0, 0, 2, 4, 0, 0, 0, 0, 0, 10, 0, 9, 10, 0, 10, 0, 0, 0, 0, 0, 5, 0, 0, 0, 0, 0, 2, 0, 0, 0, 0, 0, 0, 0, 0, 0, 0, 0, 0, 6, 1, 9, 0, 0, 0, 4, 0, 3, 0, 0, 0, 0, 0, 2, 0, 0, 0, 0, 0, 0, 0, 0, 0, 0, 0, 0, 0, 2, 0, 0, 0, 0, 3, 0, 0, 0, 0, 0, 0, 8, 0, 5, 0, 10, 5, 0, 0, 1, 0, 2, 0, 0, 0, 0, 0, 0, 5, 4, 0, 0, 0, 0, 0, 0, 0, 3, 0, 0, 0, 0, 0, 0, 7, 0, 0, 0, 0, 0, 0, 7, 0, 0, 0, 5, 0, 10, 0, 0, 0, 0, 0, 0, 6, 0, 0, 0, 0, 0, 0, 5, 0, 0, 0, 0, 0, 0, 0, 0, 0, 0, 0, 0, 10, 0, 1, 0, 8, 1, 0, 0, 0, 0, 2, 0, 0, 0, 2, 0, 0, 0, 0, 0, 5, 2, 0, 0, 5, 0, 9, 0, 0, 0, 10, 8, 1, 0, 1, 0, 0, 0, 9, 0, 8, 10, 0, 0, 0, 0, 0, 4, 0, 0, 8, 0, 10, 0, 0, 0, 0, 0]);

suc = [
   {2, 3, 4},
   {16, 33, 44},
   {13, 5, 23},
   {24, 26, 15},
   {39, 6, 14},
   {10, 18, 7},
   {8, 9, 19},
   {21},
   {11, 20, 31},
   {12, 21},
   {53, 30, 47},
   {29},
   {52},
   {40},
   {36},
   {32, 17, 22},
   {38},
   {35},
   {35, 27, 38},
   {46},
   {46},
   {43},
   {28},
   {25, 51},
   {57},
   {48},
   {42},
   {49},
   {41},
   {48, 37},
   {34, 36},
   {55},
   {41},
   {57},
   {42, 58, 55},
   {45},
   {45},
   {54},
   {43},
   {41},
   {49},
   {56},
   {54},
   {50, 60},
   {61},
   {53},
   {54},
   {56},
   {58},
   {56},
   {58, 52, 53},
   {60},
   {59},
   {59},
   {61},
   {57, 59},
   {61},
   {60},
   {62},
   {62},
   {62},
   {  } ];

deadline = array2d(1..62, 1..3, [1, 3, 1, 2, 0, 5, 6, 2, 2, 11, 4, 1, 14, 3, 5, 15, 3, 2, 15, 5, 4, 18, 3, 5, 19, 0, 3, 19, 0, 1, 21, 4, 2, 24, 1, 4, 24, 5, 4, 26, 0, 4, 27, 5, 0, 31, 0, 1, 31, 1, 0, 33, 3, 3, 34, 4, 1, 38, 4, 0, 41, 4, 5, 41, 5, 1, 42, 4, 4, 42, 1, 4, 43, 1, 1, 43, 1, 4, 44, 3, 5, 45, 2, 5, 45, 1, 4, 45, 4, 3, 50, 0, 2, 62, 3, 4, 65, 3, 4, 69, 4, 3, 71, 0, 1, 71, 4, 0, 73, 3, 3, 74, 0, 4, 78, 5, 0, 80, 0, 0, 82, 3, 2, 84, 2, 0, 88, 1, 1, 88, 4, 0, 90, 1, 5, 90, 4, 3, 92, 3, 3, 92, 2, 3, 93, 0, 3, 94, 3, 3, 105, 3, 2, 109, 3, 3, 110, 3, 0, 112, 1, 5, 112, 0, 4, 116, 0, 0, 118, 2, 4, 120, 1, 1, 124, 1, 1, 126, 4, 0, 130, 3, 2, 130, 2, 0]);
