n_res = 4;
rc = [ 24, 26, 26, 22 ];
n_tasks = 62;
d = [0, 1, 1, 7, 4, 9, 9, 4, 3, 6, 8, 5, 10, 10, 3, 2, 6, 10, 3, 5, 6, 8, 3, 9, 6, 5, 1, 4, 8, 9, 10, 2, 2, 2, 10, 1, 4, 3, 6, 5, 2, 2, 2, 3, 7, 2, 4, 7, 5, 10, 1, 2, 5, 3, 4, 1, 8, 7, 1, 2, 10, 0];
rr = array2d(1..4, 1..62, [0, 6, 1, 7, 7, 0, 9, 3, 4, 7, 3, 1, 0, 6, 7, 9, 9, 5, 0, 3, 8, 0, 6, 3, 7, 3, 8, 4, 2, 9, 0, 3, 7, 1, 1, 9, 10, 7, 0, 6, 8, 3, 5, 6, 0, 10, 3, 0, 6, 3, 10, 2, 6, 4, 9, 1, 7, 0, 5, 0, 7, 0, 0, 7, 0, 7, 2, 6, 8, 10, 7, 8, 8, 2, 0, 5, 3, 1, 9, 7, 1, 0, 9, 6, 10, 9, 10, 2, 9, 0, 4, 0, 9, 6, 6, 3, 0, 7, 0, 6, 8, 7, 0, 6, 8, 7, 0, 0, 9, 0, 0, 5, 0, 10, 1, 4, 3, 7, 10, 7, 8, 10, 7, 0, 0, 0, 7, 9, 2, 10, 1, 0, 6, 8, 4, 0, 2, 6, 10, 10, 10, 2, 0, 0, 10, 7, 4, 3, 4, 9, 10, 10, 0, 4, 8, 0, 2, 5, 5, 5, 0, 0, 0, 0, 8, 0, 3, 0, 0, 0, 3, 0, 10, 0, 0, 4, 9, 6, 6, 8, 0, 0, 2, 0, 4, 0, 0, 5, 0, 10, 1, 0, 7, 6, 3, 7, 0, 7, 0, 0, 9, 10, 10, 0, 7, 7, 8, 9, 8, 8, 3, 3, 0, 6, 3, 8, 10, 0, 0, 0, 2, 7, 8, 3, 2, 0, 3, 0, 4, 6, 2, 0, 3, 9, 8, 2, 10, 4, 6, 10, 9, 0, 7, 10, 6, 0, 4, 0]);

suc = [
   {2, 3, 4},
   {9, 11, 25},
   {9, 19, 22},
   {5, 6, 7},
   {16, 34, 15},
   {17, 12, 14},
   {8, 18, 19},
   {10, 26, 13},
   {52, 30, 15},
   {40, 60, 29},
   {59, 21, 15},
   {56, 34, 27},
   {24, 36, 52},
   {42, 35, 47},
   {37},
   {32, 18, 31},
   {33, 20, 23},
   {27, 36, 55},
   {48, 41, 54},
   {40, 38, 47},
   {28, 29, 23},
   {41, 45, 46},
   {38, 30},
   {27, 44, 31},
   {33, 49, 39},
   {34, 28, 44},
   {57},
   {54, 46, 47},
   {42, 53, 30},
   {50},
   {35, 37, 54},
   {33, 36, 39},
   {43, 37},
   {50, 45, 46},
   {48, 49, 38},
   {57},
   {50},
   {56, 43},
   {53, 51, 45},
   {41, 42},
   {51, 44},
   {43},
   {61},
   {49},
   {48},
   {60},
   {51},
   {57},
   {59, 53, 55},
   {58},
   {52},
   {55},
   {56},
   {60, 61},
   {58},
   {58},
   {59},
   {61},
   {62},
   {62},
   {62},
   {  } ];

deadline = array2d(1..62, 1..3, [4, 0, 5, 5, 2, 2, 9, 3, 5, 11, 1, 2, 12, 2, 4, 13, 1, 2, 17, 2, 1, 28, 2, 5, 40, 0, 2, 41, 3, 5, 42, 5, 5, 43, 3, 5, 47, 1, 2, 48, 1, 2, 50, 4, 1, 52, 0, 2, 54, 0, 2, 57, 2, 2, 74, 2, 4, 74, 1, 3, 75, 1, 4, 83, 3, 0, 85, 4, 0, 88, 2, 3, 91, 1, 2, 95, 3, 0, 100, 3, 5, 101, 1, 4, 101, 5, 3, 101, 5, 4, 106, 1, 2, 106, 1, 0, 108, 0, 5, 108, 5, 0, 111, 0, 0, 115, 5, 2, 123, 5, 1, 132, 2, 5, 132, 5, 1, 133, 1, 5, 134, 3, 4, 135, 2, 5, 136, 2, 4, 136, 2, 2, 137, 1, 4, 141, 4, 4, 143, 0, 4, 153, 3, 3, 154, 2, 3, 157, 5, 3, 158, 3, 5, 160, 5, 4, 166, 0, 5, 179, 2, 3, 182, 0, 1, 189, 5, 5, 199, 5, 1, 202, 4, 0, 204, 4, 4, 208, 4, 5, 210, 1, 3, 214, 5, 0]);
