n_res = 4;
rc = [ 52, 50, 51, 44 ];
n_tasks = 62;
d = [0, 7, 9, 4, 7, 2, 3, 6, 5, 10, 4, 4, 8, 2, 7, 6, 7, 8, 3, 3, 7, 5, 6, 6, 3, 8, 4, 9, 7, 8, 10, 3, 8, 3, 8, 10, 9, 5, 2, 1, 1, 4, 2, 6, 7, 6, 2, 1, 10, 4, 7, 10, 4, 5, 6, 5, 3, 4, 9, 3, 9, 0];
rr = array2d(1..4, 1..62, [0, 10, 3, 8, 5, 9, 5, 9, 8, 9, 10, 10, 4, 5, 7, 5, 8, 2, 5, 8, 8, 7, 9, 10, 6, 2, 8, 8, 6, 10, 7, 6, 8, 6, 1, 9, 10, 5, 5, 10, 8, 4, 6, 5, 4, 7, 3, 2, 7, 5, 5, 6, 7, 5, 8, 2, 9, 3, 4, 10, 2, 0, 0, 4, 10, 2, 3, 6, 4, 6, 5, 7, 10, 7, 7, 10, 5, 10, 6, 6, 2, 1, 5, 8, 5, 6, 6, 7, 4, 5, 3, 1, 5, 2, 1, 1, 2, 8, 6, 9, 5, 2, 2, 2, 2, 8, 3, 5, 10, 4, 1, 9, 9, 2, 6, 3, 5, 3, 1, 5, 10, 2, 6, 0, 0, 6, 8, 4, 4, 2, 8, 8, 7, 2, 10, 10, 8, 3, 4, 1, 2, 5, 9, 1, 5, 7, 10, 10, 6, 9, 6, 9, 7, 1, 7, 8, 10, 10, 2, 10, 3, 8, 10, 8, 10, 1, 2, 2, 7, 7, 10, 6, 3, 10, 9, 8, 2, 1, 5, 9, 10, 9, 2, 5, 2, 0, 0, 4, 4, 8, 6, 9, 10, 8, 3, 10, 10, 5, 10, 9, 10, 3, 1, 3, 8, 3, 4, 7, 9, 3, 9, 6, 6, 1, 10, 3, 2, 3, 2, 5, 7, 7, 4, 1, 2, 5, 2, 7, 8, 5, 2, 7, 6, 4, 9, 3, 2, 7, 10, 1, 4, 5, 1, 4, 10, 2, 3, 0]);

suc = [
   {2, 3, 4},
   {5, 6},
   {10, 7},
   {8, 9, 19},
   {11, 12, 31},
   {32, 25},
   {59, 27},
   {28, 15},
   {16, 17},
   {43, 37, 29},
   {43, 13},
   {24, 42, 15},
   {59, 20, 14},
   {38, 18, 30},
   {16, 26},
   {40, 53, 21},
   {33, 30},
   {56, 41},
   {24, 46},
   {22},
   {36, 45},
   {52, 54, 23},
   {34, 37, 46},
   {32, 28, 38},
   {38},
   {41, 35},
   {34},
   {30, 39},
   {48, 57},
   {49, 44},
   {43},
   {40, 58},
   {49, 35},
   {56, 36},
   {36, 55},
   {61, 39},
   {39},
   {48, 44, 61},
   {58},
   {59, 60},
   {45},
   {50, 44, 47},
   {56, 46, 47},
   {51, 54},
   {48},
   {50},
   {49},
   {51},
   {53},
   {55},
   {52},
   {55},
   {54},
   {60},
   {58},
   {57},
   {61},
   {60},
   {62},
   {62},
   {62},
   {  } ];

deadline = array2d(1..62, 1..3, [1, 4, 5, 4, 5, 3, 7, 2, 0, 8, 1, 4, 9, 0, 0, 10, 5, 0, 12, 2, 4, 15, 2, 4, 18, 1, 5, 19, 2, 2, 24, 2, 4, 28, 1, 4, 29, 5, 1, 36, 1, 5, 42, 0, 1, 44, 4, 5, 51, 4, 4, 56, 2, 0, 66, 5, 3, 72, 0, 2, 79, 1, 5, 83, 3, 2, 91, 3, 3, 96, 2, 2, 98, 2, 0, 98, 0, 0, 99, 3, 0, 99, 5, 5, 100, 2, 4, 102, 2, 0, 103, 0, 2, 107, 5, 5, 109, 1, 0, 112, 0, 0, 115, 0, 4, 118, 5, 3, 122, 5, 3, 123, 0, 2, 125, 1, 4, 129, 5, 2, 132, 3, 4, 136, 1, 2, 138, 2, 1, 138, 0, 0, 139, 5, 3, 142, 4, 2, 145, 5, 5, 149, 0, 0, 150, 0, 4, 155, 2, 3, 155, 4, 2, 157, 5, 3, 157, 4, 2, 158, 3, 5, 161, 0, 1, 166, 2, 3, 168, 3, 4, 175, 1, 2, 180, 5, 4, 183, 1, 3, 184, 2, 0, 191, 2, 3]);
