n_res = 4;
rc = [ 44, 39, 37, 30 ];
n_tasks = 62;
d = [0, 6, 8, 1, 9, 3, 6, 3, 5, 5, 1, 3, 10, 5, 6, 8, 5, 3, 5, 8, 9, 5, 7, 2, 2, 9, 8, 1, 4, 1, 4, 2, 9, 1, 4, 8, 3, 2, 9, 7, 6, 9, 10, 9, 3, 10, 7, 2, 1, 7, 10, 1, 9, 5, 2, 4, 2, 10, 5, 2, 5, 0];
rr = array2d(1..4, 1..62, [0, 9, 9, 6, 5, 6, 10, 9, 5, 7, 4, 10, 10, 2, 1, 8, 9, 8, 5, 10, 6, 5, 6, 8, 9, 4, 2, 3, 5, 6, 10, 10, 9, 4, 2, 1, 10, 7, 6, 1, 1, 2, 2, 8, 3, 6, 3, 5, 2, 2, 3, 3, 7, 8, 6, 3, 2, 1, 6, 1, 2, 0, 0, 10, 2, 4, 1, 7, 6, 1, 4, 3, 9, 4, 9, 10, 2, 4, 7, 10, 6, 7, 6, 5, 2, 10, 8, 4, 4, 5, 7, 4, 10, 6, 10, 9, 8, 7, 9, 6, 7, 6, 1, 6, 4, 6, 4, 5, 5, 8, 3, 7, 6, 2, 3, 7, 8, 4, 6, 6, 4, 7, 9, 0, 0, 3, 3, 2, 10, 9, 7, 4, 9, 5, 9, 2, 9, 5, 6, 3, 1, 3, 4, 9, 4, 6, 4, 10, 2, 10, 9, 4, 10, 3, 5, 5, 8, 10, 3, 6, 4, 3, 4, 1, 7, 6, 7, 1, 2, 3, 2, 3, 8, 2, 1, 7, 2, 5, 9, 3, 1, 8, 7, 6, 3, 0, 0, 6, 8, 1, 8, 5, 4, 6, 9, 10, 6, 3, 10, 1, 3, 6, 5, 3, 2, 7, 4, 6, 6, 10, 1, 5, 9, 4, 2, 6, 1, 3, 8, 1, 4, 7, 3, 5, 3, 2, 10, 9, 5, 5, 1, 2, 9, 3, 3, 2, 7, 3, 2, 5, 6, 8, 5, 8, 2, 1, 10, 0]);

suc = [
   {2, 3, 4},
   {8, 10, 5},
   {13, 6},
   {9, 13, 15},
   {28, 61, 38},
   {18, 42, 7},
   {24, 38, 15},
   {19, 28, 39},
   {34, 29, 54},
   {19, 11, 12},
   {24, 32, 37},
   {17, 14, 30},
   {20, 37},
   {37},
   {16, 33, 52},
   {40, 53, 22},
   {35, 60},
   {33, 28, 46},
   {20, 21, 23},
   {34, 29, 38},
   {32, 42, 31},
   {25, 26, 35},
   {24, 27},
   {51, 44, 52},
   {27, 36, 31},
   {36},
   {32, 41, 29},
   {53},
   {50, 44},
   {48, 35, 55},
   {34, 43},
   {43},
   {40, 43, 36},
   {49},
   {45, 46},
   {49, 51, 47},
   {41, 58},
   {53},
   {40, 50, 52},
   {41, 45, 57},
   {47},
   {48, 46, 47},
   {48, 44, 45},
   {49},
   {59},
   {59, 51},
   {54},
   {50},
   {55},
   {56, 57},
   {57},
   {58, 54},
   {56, 58},
   {59, 55},
   {56, 61},
   {60},
   {61},
   {60},
   {62},
   {62},
   {62},
   {  } ];

deadline = array2d(1..62, 1..3, [1, 0, 0, 1, 4, 0, 5, 5, 1, 6, 2, 3, 15, 0, 2, 17, 4, 2, 23, 5, 3, 24, 4, 5, 26, 4, 2, 31, 2, 5, 40, 1, 3, 41, 1, 0, 44, 1, 3, 46, 1, 1, 47, 5, 2, 49, 5, 4, 56, 1, 2, 56, 5, 0, 60, 0, 3, 62, 4, 0, 63, 4, 3, 64, 4, 1, 69, 1, 5, 69, 1, 4, 74, 0, 2, 76, 4, 2, 77, 0, 5, 90, 2, 0, 91, 4, 2, 95, 4, 1, 98, 5, 1, 99, 3, 5, 99, 0, 2, 100, 1, 1, 101, 1, 4, 103, 4, 0, 108, 2, 4, 111, 4, 2, 113, 3, 5, 117, 1, 2, 117, 5, 3, 118, 3, 5, 119, 0, 3, 126, 3, 1, 130, 5, 5, 139, 2, 0, 139, 1, 5, 148, 4, 3, 150, 0, 3, 157, 2, 1, 157, 4, 0, 160, 5, 2, 160, 2, 1, 163, 5, 0, 163, 5, 4, 167, 1, 0, 173, 2, 2, 174, 3, 5, 177, 0, 2, 180, 1, 2, 180, 1, 5, 187, 2, 5]);
