n_res = 4;
rc = [ 52, 57, 44, 46 ];
n_tasks = 62;
d = [0, 5, 8, 8, 7, 3, 6, 6, 7, 7, 9, 6, 4, 10, 1, 2, 9, 8, 4, 4, 6, 4, 4, 2, 1, 1, 8, 8, 7, 8, 5, 7, 5, 7, 10, 4, 2, 9, 10, 2, 7, 4, 6, 8, 3, 5, 6, 3, 6, 2, 6, 6, 10, 4, 5, 6, 8, 3, 1, 9, 2, 0];
rr = array2d(1..4, 1..62, [0, 6, 9, 1, 7, 3, 8, 8, 2, 9, 10, 6, 8, 4, 3, 2, 2, 9, 7, 7, 2, 10, 7, 9, 3, 5, 10, 9, 6, 3, 9, 6, 6, 1, 9, 10, 9, 4, 3, 8, 4, 6, 2, 4, 2, 10, 7, 1, 9, 10, 5, 5, 2, 7, 5, 1, 3, 10, 1, 1, 8, 0, 0, 9, 7, 2, 7, 5, 1, 4, 4, 7, 4, 7, 4, 5, 10, 1, 6, 6, 4, 8, 4, 5, 9, 9, 8, 4, 4, 7, 7, 2, 6, 10, 8, 1, 3, 4, 7, 6, 7, 8, 9, 6, 8, 7, 2, 4, 6, 5, 4, 8, 6, 9, 3, 7, 7, 10, 5, 1, 5, 1, 7, 0, 0, 2, 1, 7, 3, 9, 10, 9, 6, 7, 2, 1, 9, 8, 3, 7, 1, 7, 2, 7, 6, 1, 4, 7, 1, 1, 1, 9, 1, 7, 7, 10, 1, 5, 1, 3, 2, 6, 5, 8, 2, 2, 9, 1, 7, 9, 1, 6, 3, 1, 6, 8, 10, 7, 1, 10, 1, 10, 6, 6, 2, 0, 0, 8, 8, 5, 1, 1, 2, 3, 3, 2, 4, 8, 4, 2, 5, 1, 7, 2, 5, 2, 10, 9, 9, 10, 4, 9, 9, 9, 1, 9, 3, 1, 4, 5, 6, 3, 1, 5, 8, 3, 2, 5, 6, 1, 3, 2, 3, 2, 9, 8, 3, 6, 6, 10, 7, 10, 9, 7, 4, 8, 8, 0]);

suc = [
   {2, 3, 4},
   {11, 29, 14},
   {36, 5, 15},
   {27, 14, 7},
   {16, 6},
   {8, 41},
   {9, 13, 23},
   {10, 12, 20},
   {25, 15},
   {54, 18, 30},
   {42},
   {50, 19, 46},
   {48, 44},
   {42, 36},
   {17},
   {22, 31},
   {28, 22, 44},
   {28, 53, 38},
   {37, 60, 21},
   {24},
   {33, 44, 22},
   {35, 30},
   {32},
   {47},
   {26, 34, 38},
   {35, 36},
   {58, 37},
   {48, 59, 60},
   {49, 59, 57},
   {39},
   {49, 52, 37},
   {40, 41, 38},
   {51},
   {56, 39},
   {53},
   {41},
   {48, 56},
   {45},
   {61},
   {42, 52},
   {43, 45},
   {50, 45, 47},
   {54},
   {57},
   {51},
   {51, 54},
   {55},
   {57},
   {50, 58},
   {61},
   {55},
   {53},
   {55},
   {58},
   {56},
   {59},
   {61},
   {60},
   {62},
   {62},
   {62},
   {  } ];

deadline = array2d(1..62, 1..3, [2, 1, 4, 2, 2, 3, 3, 1, 3, 10, 3, 2, 11, 1, 2, 15, 5, 4, 20, 2, 5, 24, 1, 3, 27, 3, 3, 29, 1, 4, 32, 3, 4, 41, 3, 2, 41, 4, 5, 47, 0, 4, 49, 0, 2, 57, 1, 0, 57, 3, 4, 60, 1, 0, 68, 4, 0, 69, 3, 2, 70, 3, 2, 76, 4, 2, 79, 0, 0, 80, 5, 1, 86, 1, 1, 88, 1, 5, 88, 3, 4, 90, 0, 1, 91, 4, 0, 93, 4, 5, 93, 4, 0, 94, 3, 2, 96, 0, 3, 98, 4, 1, 107, 3, 1, 109, 3, 5, 113, 2, 2, 119, 1, 5, 122, 2, 2, 122, 3, 4, 123, 3, 2, 123, 0, 0, 126, 5, 5, 129, 5, 5, 129, 1, 4, 133, 2, 5, 139, 0, 3, 142, 2, 4, 143, 4, 3, 150, 3, 2, 157, 4, 0, 164, 3, 3, 165, 1, 1, 166, 5, 4, 167, 3, 5, 170, 3, 4, 170, 5, 1, 177, 2, 4, 178, 1, 0, 179, 3, 1, 186, 3, 5, 187, 2, 0]);
