n_res = 4;
rc = [ 19, 28, 32, 21 ];
n_tasks = 62;
d = [0, 10, 8, 2, 1, 7, 2, 2, 2, 8, 2, 8, 2, 8, 10, 1, 8, 9, 2, 7, 3, 2, 1, 4, 4, 7, 2, 8, 3, 6, 5, 9, 2, 5, 6, 10, 2, 9, 2, 7, 2, 7, 10, 3, 2, 4, 9, 7, 2, 1, 2, 7, 6, 8, 2, 10, 6, 5, 5, 8, 8, 0];
rr = array2d(1..4, 1..62, [0, 0, 0, 6, 0, 0, 0, 9, 3, 8, 0, 0, 7, 3, 8, 7, 8, 9, 5, 4, 0, 5, 0, 0, 0, 0, 3, 3, 0, 4, 0, 0, 1, 10, 2, 1, 0, 0, 0, 3, 1, 0, 0, 0, 5, 3, 0, 7, 0, 7, 4, 4, 0, 0, 0, 0, 7, 8, 6, 4, 5, 0, 0, 8, 0, 9, 3, 4, 8, 0, 2, 0, 0, 0, 8, 7, 0, 6, 0, 1, 0, 10, 7, 0, 0, 8, 0, 0, 9, 0, 0, 5, 10, 9, 0, 8, 8, 0, 2, 0, 10, 0, 1, 9, 0, 0, 9, 0, 7, 0, 2, 0, 0, 2, 5, 0, 5, 0, 0, 10, 6, 0, 0, 0, 0, 3, 1, 0, 8, 10, 5, 0, 4, 0, 7, 9, 0, 0, 6, 0, 9, 0, 0, 0, 0, 1, 1, 0, 9, 9, 5, 5, 0, 0, 0, 0, 0, 0, 0, 4, 0, 2, 0, 4, 0, 3, 4, 0, 0, 7, 0, 0, 5, 3, 2, 9, 0, 10, 9, 8, 0, 10, 0, 0, 0, 0, 0, 5, 0, 0, 0, 1, 0, 0, 0, 1, 0, 4, 0, 9, 0, 0, 8, 5, 0, 6, 3, 0, 0, 0, 0, 9, 8, 0, 2, 0, 0, 4, 5, 4, 10, 0, 6, 0, 6, 0, 0, 0, 5, 5, 7, 0, 0, 4, 1, 0, 2, 0, 9, 0, 0, 0, 7, 0, 0, 0, 5, 0]);

suc = [
   {2, 3, 4},
   {9, 6},
   {5},
   {8, 12, 13},
   {19, 20, 31},
   {49, 53, 7},
   {28, 14, 15},
   {24},
   {26, 10, 11},
   {48},
   {50},
   {17, 44},
   {34},
   {16, 18, 21},
   {40},
   {51, 23},
   {42},
   {58},
   {22},
   {33, 30},
   {39},
   {25, 38},
   {42},
   {27, 29},
   {32},
   {57},
   {56, 43},
   {35},
   {57, 42, 55},
   {41, 36},
   {35, 47},
   {33, 51},
   {37, 47},
   {56, 45},
   {36, 60},
   {48},
   {58},
   {53, 54},
   {44},
   {43},
   {60},
   {48, 52},
   {52},
   {57, 46},
   {52},
   {54},
   {53},
   {61},
   {60},
   {51},
   {59},
   {54},
   {55},
   {58},
   {59},
   {59},
   {61},
   {61},
   {62},
   {62},
   {62},
   {  } ];

deadline = array2d(1..62, 1..3, [1, 4, 3, 2, 2, 0, 6, 2, 1, 7, 2, 0, 9, 4, 3, 12, 5, 3, 12, 2, 0, 13, 0, 5, 18, 2, 0, 21, 0, 3, 22, 5, 1, 24, 5, 4, 28, 1, 3, 30, 0, 1, 34, 4, 2, 37, 3, 5, 37, 3, 2, 42, 0, 3, 54, 1, 0, 58, 4, 0, 63, 0, 4, 64, 2, 3, 65, 4, 5, 68, 2, 0, 71, 1, 1, 76, 2, 5, 80, 5, 3, 80, 3, 2, 80, 0, 3, 86, 4, 2, 98, 3, 3, 98, 5, 1, 110, 2, 3, 110, 1, 4, 110, 3, 2, 114, 3, 3, 115, 2, 2, 117, 5, 4, 117, 3, 4, 119, 3, 3, 121, 1, 0, 124, 2, 1, 125, 2, 5, 128, 0, 3, 130, 3, 0, 137, 0, 4, 141, 1, 3, 142, 5, 0, 144, 5, 3, 145, 5, 1, 147, 2, 4, 151, 5, 4, 154, 1, 0, 155, 1, 2, 157, 0, 5, 157, 2, 0, 162, 3, 1, 162, 3, 2, 167, 1, 2, 171, 2, 0, 171, 5, 4, 175, 2, 4]);
