n_res = 4;
rc = [ 33, 16, 30, 22 ];
n_tasks = 62;
d = [0, 5, 3, 6, 3, 7, 7, 3, 8, 2, 3, 2, 1, 5, 10, 9, 8, 6, 8, 10, 10, 1, 10, 1, 9, 9, 4, 8, 10, 10, 4, 2, 7, 6, 1, 9, 10, 6, 3, 5, 10, 2, 4, 7, 5, 1, 5, 7, 5, 10, 3, 3, 3, 3, 1, 10, 1, 7, 5, 7, 5, 0];
rr = array2d(1..4, 1..62, [0, 0, 0, 0, 1, 4, 0, 0, 1, 0, 0, 0, 0, 0, 3, 0, 4, 8, 5, 0, 1, 0, 0, 10, 0, 0, 0, 0, 0, 0, 0, 2, 0, 0, 0, 10, 0, 0, 3, 0, 6, 0, 9, 0, 8, 0, 0, 0, 0, 0, 0, 0, 0, 6, 7, 0, 0, 0, 0, 0, 0, 0, 0, 0, 9, 4, 0, 0, 0, 0, 0, 0, 0, 0, 0, 6, 0, 0, 0, 0, 0, 6, 0, 0, 7, 0, 0, 0, 5, 0, 0, 0, 3, 0, 9, 0, 0, 0, 0, 0, 0, 0, 0, 0, 0, 1, 0, 0, 8, 3, 8, 0, 0, 0, 0, 0, 0, 0, 0, 0, 0, 8, 2, 0, 0, 1, 0, 0, 0, 0, 7, 3, 0, 0, 5, 9, 0, 0, 0, 5, 0, 0, 0, 0, 0, 0, 0, 0, 3, 0, 0, 10, 6, 0, 0, 0, 0, 0, 0, 0, 4, 0, 0, 1, 0, 0, 0, 0, 0, 6, 0, 0, 0, 7, 10, 6, 3, 0, 0, 0, 10, 3, 5, 0, 0, 0, 0, 0, 0, 0, 0, 0, 0, 0, 0, 6, 0, 0, 10, 0, 0, 0, 0, 0, 0, 0, 0, 6, 0, 0, 0, 3, 0, 0, 0, 4, 0, 0, 0, 9, 4, 0, 0, 3, 0, 0, 0, 2, 0, 0, 0, 0, 0, 0, 0, 0, 0, 0, 0, 0, 0, 4, 0, 0, 0, 0, 0, 0]);

suc = [
   {2, 3, 4},
   {16, 38, 6},
   {37, 20, 5},
   {8, 14, 7},
   {10, 22, 7},
   {18, 21, 15},
   {34, 19, 53},
   {9, 11, 36},
   {41, 12, 13},
   {24, 33, 57},
   {40, 38, 23},
   {17, 27, 30},
   {25, 27, 29},
   {16, 28, 31},
   {40, 56, 44},
   {24, 30, 23},
   {49, 26, 20},
   {50, 20, 36},
   {48, 44, 30},
   {40, 39},
   {54, 25, 22},
   {41, 27},
   {43},
   {35},
   {43, 35},
   {32, 52, 39},
   {55},
   {58, 36, 45},
   {32, 57, 31},
   {42, 45, 39},
   {50, 35, 46},
   {37},
   {43, 38, 47},
   {41, 42, 55},
   {58, 44, 47},
   {42, 51, 37},
   {46},
   {50, 61, 54},
   {61, 46},
   {53, 47},
   {52},
   {57},
   {48, 49, 45},
   {49},
   {60},
   {54},
   {48, 61},
   {51},
   {51},
   {56, 53},
   {52, 55},
   {59},
   {58},
   {56},
   {59},
   {60},
   {60},
   {59},
   {62},
   {62},
   {62},
   {  } ];

deadline = array2d(1..62, 1..3, [2, 1, 3, 4, 3, 1, 6, 3, 5, 14, 1, 1, 20, 2, 1, 21, 3, 2, 23, 2, 4, 28, 1, 5, 30, 5, 0, 33, 1, 5, 35, 4, 0, 35, 0, 4, 37, 5, 1, 37, 4, 4, 42, 1, 5, 43, 3, 5, 44, 0, 4, 45, 1, 0, 47, 2, 2, 60, 3, 4, 60, 4, 2, 64, 4, 1, 66, 4, 5, 70, 0, 2, 77, 1, 4, 82, 0, 4, 86, 2, 5, 86, 2, 4, 90, 4, 2, 93, 5, 1, 95, 1, 4, 97, 4, 1, 98, 2, 3, 101, 2, 5, 103, 0, 4, 110, 1, 0, 110, 3, 0, 110, 3, 1, 112, 1, 1, 113, 0, 4, 115, 3, 2, 120, 0, 3, 126, 3, 2, 127, 5, 2, 134, 2, 4, 134, 3, 1, 135, 3, 3, 139, 2, 5, 139, 4, 3, 147, 4, 4, 150, 0, 3, 150, 1, 4, 155, 0, 5, 155, 2, 2, 157, 0, 5, 158, 0, 4, 159, 0, 1, 164, 1, 3, 166, 1, 1, 168, 3, 2, 170, 5, 2, 171, 4, 3]);
