n_res = 4;
rc = [ 14, 16, 14, 17 ];
n_tasks = 62;
d = [0, 3, 6, 3, 2, 7, 1, 8, 4, 8, 6, 2, 7, 8, 8, 6, 3, 7, 9, 4, 9, 4, 6, 6, 8, 4, 5, 6, 9, 4, 1, 1, 3, 9, 3, 7, 2, 9, 8, 7, 5, 9, 5, 1, 2, 1, 8, 1, 8, 1, 3, 10, 2, 4, 1, 3, 10, 9, 1, 5, 3, 0];
rr = array2d(1..4, 1..62, [0, 10, 9, 8, 3, 2, 2, 4, 0, 0, 4, 5, 8, 8, 5, 0, 8, 9, 2, 0, 5, 0, 5, 6, 0, 4, 5, 0, 0, 0, 2, 6, 8, 4, 0, 1, 0, 0, 0, 1, 0, 3, 10, 5, 10, 1, 3, 8, 0, 3, 2, 8, 0, 8, 2, 1, 7, 7, 8, 9, 4, 0, 0, 7, 0, 8, 3, 7, 0, 1, 4, 10, 0, 3, 9, 4, 1, 4, 7, 6, 8, 5, 7, 0, 8, 3, 5, 2, 1, 0, 0, 10, 2, 7, 3, 8, 5, 0, 8, 0, 3, 0, 6, 6, 7, 0, 5, 0, 5, 0, 4, 1, 0, 8, 3, 0, 5, 1, 7, 0, 9, 0, 4, 0, 0, 0, 4, 4, 0, 2, 2, 4, 4, 0, 1, 3, 1, 0, 8, 10, 0, 4, 0, 0, 7, 3, 6, 0, 1, 3, 4, 0, 0, 9, 8, 5, 8, 1, 4, 0, 5, 1, 6, 0, 2, 1, 0, 8, 3, 4, 0, 10, 7, 7, 2, 9, 9, 5, 4, 0, 1, 5, 1, 0, 4, 0, 0, 0, 8, 4, 9, 2, 2, 7, 5, 0, 3, 3, 8, 3, 8, 7, 3, 9, 0, 6, 9, 9, 4, 2, 8, 0, 2, 9, 5, 10, 10, 6, 0, 10, 9, 4, 7, 3, 0, 4, 6, 2, 4, 2, 0, 0, 2, 6, 0, 5, 8, 0, 2, 2, 10, 3, 8, 9, 3, 5, 0, 0]);

suc = [
   {2, 3, 4},
   {8, 50},
   {9, 20, 5},
   {39},
   {32, 11, 6},
   {10, 14, 7},
   {24, 29, 55},
   {12, 29, 60},
   {15},
   {16, 13},
   {17},
   {33},
   {18},
   {37, 46},
   {27},
   {19, 22, 23},
   {26, 36, 31},
   {45},
   {25, 34, 21},
   {57},
   {51},
   {35, 30},
   {42, 52, 38},
   {42},
   {57, 43},
   {28},
   {47},
   {40, 54},
   {41, 44},
   {53},
   {56},
   {48, 53},
   {61},
   {35},
   {37},
   {44},
   {51},
   {44},
   {49, 47},
   {52, 46},
   {46},
   {47},
   {54},
   {61},
   {55},
   {56},
   {59},
   {52, 55},
   {54},
   {53},
   {58, 61},
   {57},
   {60},
   {58},
   {56},
   {58},
   {59},
   {59},
   {62},
   {62},
   {62},
   {  } ];

deadline = array2d(1..62, 1..3, [1, 5, 5, 2, 0, 2, 2, 0, 2, 5, 3, 1, 6, 0, 4, 12, 1, 2, 15, 3, 4, 15, 4, 2, 16, 0, 4, 26, 0, 5, 32, 2, 5, 35, 1, 3, 39, 2, 0, 39, 5, 1, 41, 3, 5, 41, 0, 4, 42, 4, 4, 43, 5, 1, 46, 0, 2, 48, 5, 5, 59, 0, 0, 60, 1, 1, 61, 2, 0, 61, 4, 4, 62, 4, 2, 63, 0, 4, 71, 4, 1, 74, 0, 5, 81, 3, 4, 81, 1, 5, 86, 0, 1, 89, 5, 4, 90, 3, 3, 93, 1, 5, 93, 4, 2, 97, 1, 2, 100, 1, 4, 100, 3, 0, 101, 1, 5, 109, 3, 5, 118, 4, 5, 118, 2, 0, 118, 5, 4, 119, 1, 4, 122, 3, 0, 123, 4, 2, 127, 5, 5, 128, 2, 2, 131, 3, 0, 139, 5, 2, 139, 3, 0, 140, 3, 1, 140, 1, 3, 141, 5, 5, 145, 3, 0, 146, 2, 1, 146, 0, 2, 151, 5, 1, 154, 3, 1, 154, 2, 5, 160, 5, 5, 161, 3, 1]);
