n_res = 4;
rc = [ 25, 17, 17, 13 ];
n_tasks = 62;
d = [0, 6, 7, 8, 6, 4, 7, 6, 3, 2, 1, 1, 6, 6, 10, 2, 5, 4, 6, 9, 1, 8, 3, 3, 6, 10, 6, 6, 4, 1, 9, 6, 2, 3, 8, 10, 4, 5, 8, 1, 9, 10, 1, 8, 10, 4, 6, 5, 4, 6, 4, 8, 3, 8, 4, 7, 4, 9, 4, 10, 9, 0];
rr = array2d(1..4, 1..62, [0, 1, 0, 0, 1, 7, 8, 0, 5, 3, 0, 0, 10, 0, 0, 0, 2, 0, 0, 1, 7, 0, 0, 0, 0, 2, 0, 10, 0, 0, 0, 6, 0, 9, 7, 8, 5, 0, 0, 5, 2, 2, 0, 0, 0, 0, 6, 0, 0, 0, 3, 0, 0, 0, 3, 2, 0, 0, 0, 0, 7, 0, 0, 0, 0, 1, 0, 0, 0, 7, 0, 0, 0, 0, 0, 0, 8, 0, 0, 0, 0, 0, 0, 9, 0, 0, 0, 0, 0, 0, 0, 0, 0, 0, 0, 0, 0, 0, 0, 0, 8, 0, 0, 0, 0, 0, 0, 3, 0, 0, 0, 0, 0, 8, 0, 8, 0, 0, 0, 0, 0, 2, 0, 0, 0, 0, 9, 0, 0, 0, 0, 0, 0, 0, 3, 0, 0, 0, 0, 0, 0, 8, 9, 0, 0, 0, 0, 8, 0, 0, 4, 0, 10, 0, 5, 0, 2, 0, 0, 0, 0, 5, 0, 0, 0, 0, 0, 7, 0, 0, 0, 1, 0, 1, 0, 0, 0, 0, 0, 0, 0, 8, 0, 0, 0, 0, 0, 0, 0, 0, 0, 0, 0, 0, 0, 0, 0, 9, 0, 5, 0, 5, 0, 0, 0, 0, 0, 0, 4, 0, 4, 0, 0, 0, 0, 6, 0, 0, 0, 0, 0, 0, 0, 0, 0, 0, 0, 0, 8, 0, 1, 0, 0, 0, 4, 0, 0, 0, 1, 0, 0, 0, 4, 0, 2, 0, 0, 0]);

suc = [
   {2, 3, 4},
   {12, 5, 14},
   {57, 44, 23},
   {8, 25, 10},
   {9, 6, 7},
   {11, 13, 22},
   {16, 41, 44},
   {40, 53, 47},
   {17, 31, 15},
   {27, 23},
   {16, 24, 28},
   {60},
   {48, 18, 15},
   {43, 20, 37},
   {34, 19, 21},
   {29},
   {53},
   {50},
   {33, 30},
   {25},
   {43, 27},
   {43, 35, 29},
   {45},
   {26, 51, 46},
   {32, 39},
   {42, 61},
   {36},
   {54},
   {39},
   {49, 35, 47},
   {32},
   {35, 44, 38},
   {41, 38},
   {36},
   {40, 41, 56},
   {45, 37},
   {52},
   {42, 53},
   {42},
   {51, 52, 55},
   {50, 61},
   {45, 55},
   {58},
   {58},
   {60},
   {56, 47},
   {50},
   {49},
   {56},
   {52},
   {54},
   {57},
   {61, 54},
   {57},
   {59},
   {58, 59},
   {59},
   {60},
   {62},
   {62},
   {62},
   {  } ];

deadline = array2d(1..62, 1..3, [1, 2, 1, 1, 3, 4, 6, 3, 2, 10, 1, 4, 13, 4, 2, 19, 3, 2, 22, 5, 2, 27, 3, 4, 28, 1, 3, 28, 0, 4, 28, 4, 4, 28, 4, 3, 29, 1, 3, 29, 1, 5, 29, 0, 5, 32, 2, 1, 34, 4, 0, 36, 2, 1, 37, 4, 4, 39, 2, 5, 41, 3, 4, 49, 3, 5, 50, 1, 1, 50, 0, 1, 64, 1, 3, 69, 4, 0, 73, 0, 1, 76, 2, 3, 78, 1, 2, 81, 3, 1, 87, 1, 0, 91, 3, 4, 99, 2, 2, 105, 4, 5, 109, 4, 1, 109, 4, 4, 114, 4, 5, 117, 4, 3, 121, 0, 4, 123, 1, 0, 126, 3, 5, 131, 2, 2, 134, 2, 3, 146, 4, 1, 149, 0, 5, 151, 5, 0, 151, 4, 1, 153, 0, 0, 156, 5, 1, 159, 5, 3, 161, 5, 2, 169, 3, 3, 173, 0, 2, 175, 5, 2, 180, 0, 1, 182, 1, 0, 183, 0, 4, 183, 0, 5, 185, 1, 1, 186, 1, 4, 192, 0, 5, 195, 3, 3]);
