n_res = 4;
rc = [ 43, 37, 57, 40 ];
n_tasks = 62;
d = [0, 6, 3, 4, 6, 10, 9, 4, 3, 3, 2, 10, 4, 8, 9, 10, 10, 10, 2, 2, 3, 2, 1, 8, 9, 8, 10, 2, 8, 7, 4, 3, 8, 2, 4, 7, 7, 10, 2, 5, 10, 8, 7, 7, 5, 9, 7, 4, 6, 5, 6, 6, 6, 2, 3, 3, 6, 7, 4, 3, 7, 0];
rr = array2d(1..4, 1..62, [0, 0, 3, 0, 9, 7, 0, 5, 3, 4, 5, 7, 8, 1, 10, 1, 7, 0, 4, 8, 5, 0, 9, 10, 0, 2, 7, 8, 3, 1, 7, 0, 1, 0, 5, 4, 1, 0, 8, 9, 2, 0, 0, 6, 9, 1, 7, 0, 0, 8, 3, 0, 10, 3, 3, 1, 9, 0, 9, 7, 9, 0, 0, 9, 10, 6, 3, 9, 0, 1, 1, 3, 4, 9, 0, 10, 6, 9, 0, 4, 3, 3, 7, 0, 0, 3, 5, 8, 0, 4, 3, 4, 3, 2, 2, 5, 3, 0, 0, 5, 8, 6, 4, 9, 0, 5, 0, 3, 6, 2, 2, 4, 9, 0, 0, 9, 6, 7, 0, 9, 4, 2, 0, 0, 0, 0, 7, 10, 0, 0, 4, 9, 2, 0, 0, 0, 1, 2, 7, 3, 5, 5, 2, 0, 10, 0, 9, 0, 1, 5, 5, 9, 7, 10, 0, 8, 0, 6, 6, 0, 1, 9, 0, 0, 8, 10, 3, 5, 8, 3, 5, 0, 6, 0, 2, 5, 8, 5, 8, 0, 3, 9, 5, 3, 7, 0, 0, 6, 10, 2, 1, 5, 0, 10, 5, 1, 5, 8, 5, 9, 0, 0, 8, 8, 0, 9, 3, 3, 2, 0, 3, 0, 1, 3, 1, 1, 10, 2, 8, 7, 5, 9, 0, 5, 7, 9, 2, 4, 0, 0, 1, 3, 0, 5, 5, 8, 1, 3, 0, 7, 1, 6, 1, 0, 0, 5, 1, 0]);

suc = [
   {2, 3, 4},
   {9, 6, 41},
   {8, 5, 7},
   {16, 24, 27},
   {25, 10, 20},
   {12, 14, 23},
   {11, 39, 15},
   {34, 11, 54},
   {42, 14},
   {11, 21},
   {14, 30},
   {18, 19, 13},
   {40, 58, 29},
   {26, 61},
   {18, 26, 28},
   {17, 50, 57},
   {34, 20, 22},
   {25, 35, 36},
   {26, 42, 30},
   {32},
   {34, 36, 31},
   {41, 53, 45},
   {33, 29, 30},
   {48, 33, 52},
   {48, 43, 47},
   {55},
   {35, 37, 39},
   {32, 56, 43},
   {50, 44, 31},
   {49, 36, 44},
   {48, 59},
   {49, 52, 60},
   {35, 37, 38},
   {41, 37, 47},
   {40, 45, 46},
   {47},
   {61},
   {40, 39},
   {50, 43, 45},
   {54},
   {51},
   {44, 46},
   {46, 55},
   {57, 51},
   {58},
   {49},
   {51, 53},
   {54},
   {53},
   {59},
   {56, 52},
   {55},
   {58},
   {56, 57},
   {59},
   {60},
   {60},
   {61},
   {62},
   {62},
   {62},
   {  } ];

deadline = array2d(1..62, 1..3, [5, 0, 0, 7, 2, 0, 14, 4, 2, 17, 1, 2, 20, 4, 3, 20, 3, 4, 23, 2, 1, 28, 5, 0, 30, 0, 0, 33, 1, 4, 34, 0, 0, 35, 5, 3, 35, 0, 3, 37, 2, 4, 41, 2, 2, 44, 4, 0, 47, 2, 1, 50, 2, 0, 57, 3, 0, 65, 4, 2, 66, 4, 2, 68, 1, 5, 71, 5, 3, 75, 2, 0, 80, 3, 5, 81, 2, 2, 87, 0, 0, 90, 4, 2, 92, 4, 0, 94, 2, 0, 100, 3, 5, 109, 5, 5, 113, 5, 4, 114, 2, 2, 120, 2, 4, 122, 1, 5, 123, 1, 3, 123, 4, 3, 128, 1, 5, 130, 3, 0, 135, 2, 4, 137, 2, 0, 138, 1, 5, 147, 4, 4, 150, 1, 0, 157, 4, 3, 161, 3, 4, 161, 3, 4, 162, 4, 0, 165, 0, 2, 167, 5, 2, 168, 0, 0, 174, 2, 3, 176, 5, 4, 183, 0, 3, 184, 0, 3, 186, 0, 4, 187, 0, 1, 199, 3, 1, 212, 2, 2, 214, 5, 4, 216, 1, 2]);
