n_res = 4;
rc = [ 37, 32, 23, 37 ];
n_tasks = 62;
d = [0, 10, 9, 8, 6, 10, 3, 9, 5, 10, 5, 8, 2, 4, 3, 4, 7, 4, 6, 8, 4, 10, 3, 8, 8, 3, 10, 7, 7, 3, 3, 4, 3, 7, 7, 4, 6, 6, 3, 3, 8, 3, 9, 2, 1, 2, 4, 1, 9, 8, 3, 10, 3, 2, 1, 6, 10, 4, 2, 9, 3, 0];
rr = array2d(1..4, 1..62, [0, 8, 5, 5, 0, 0, 8, 6, 10, 4, 9, 0, 0, 10, 0, 3, 0, 10, 1, 0, 0, 7, 9, 0, 4, 9, 0, 0, 0, 2, 7, 0, 8, 7, 0, 9, 0, 4, 2, 0, 0, 0, 0, 7, 6, 0, 1, 10, 4, 3, 2, 2, 0, 8, 3, 4, 0, 0, 4, 10, 3, 0, 0, 0, 0, 0, 7, 7, 1, 0, 0, 5, 0, 0, 6, 7, 5, 0, 4, 5, 0, 0, 0, 0, 8, 10, 0, 6, 2, 5, 0, 7, 6, 0, 10, 0, 0, 6, 9, 6, 2, 0, 10, 0, 2, 9, 0, 0, 0, 0, 1, 0, 0, 4, 9, 8, 0, 0, 10, 10, 0, 5, 4, 0, 0, 6, 0, 0, 2, 0, 6, 0, 0, 10, 8, 0, 0, 0, 0, 0, 3, 0, 0, 0, 2, 0, 0, 8, 0, 0, 0, 8, 3, 0, 1, 0, 4, 0, 0, 0, 0, 4, 2, 9, 0, 5, 9, 0, 0, 0, 0, 6, 0, 1, 0, 0, 0, 0, 3, 1, 0, 1, 0, 0, 0, 0, 0, 0, 9, 0, 0, 3, 1, 0, 0, 0, 2, 4, 0, 0, 7, 6, 8, 3, 0, 4, 10, 0, 0, 0, 6, 10, 4, 3, 0, 0, 2, 4, 9, 0, 6, 0, 7, 6, 10, 0, 8, 2, 0, 0, 3, 4, 0, 0, 4, 0, 0, 0, 0, 0, 7, 0, 0, 7, 0, 7, 0, 0]);

suc = [
   {2, 3, 4},
   {8, 16, 6},
   {19, 5},
   {12, 29, 14},
   {9, 11, 7},
   {32, 10},
   {15},
   {50},
   {59},
   {23},
   {41, 26},
   {17, 13},
   {18, 20, 36},
   {49, 55},
   {23},
   {21},
   {44},
   {30},
   {25, 28, 33},
   {24, 22},
   {48, 56},
   {51},
   {61},
   {27, 45},
   {35},
   {28, 53, 46},
   {32},
   {31},
   {49, 47, 39},
   {34, 42},
   {43, 38},
   {37},
   {41},
   {43},
   {51, 38},
   {37},
   {49},
   {42, 45},
   {40},
   {46},
   {59},
   {50, 52, 58},
   {57, 45},
   {53},
   {48},
   {57},
   {61},
   {54},
   {56},
   {59},
   {58},
   {60, 54},
   {55},
   {61},
   {56},
   {58},
   {60},
   {60},
   {62},
   {62},
   {62},
   {  } ];

deadline = array2d(1..62, 1..3, [8, 2, 1, 11, 2, 4, 13, 4, 3, 13, 5, 3, 27, 5, 0, 33, 1, 5, 36, 3, 5, 40, 4, 5, 42, 5, 3, 45, 5, 4, 46, 3, 1, 52, 1, 4, 54, 1, 1, 54, 3, 3, 56, 1, 3, 57, 0, 2, 58, 0, 0, 69, 5, 1, 70, 0, 1, 70, 3, 5, 72, 0, 0, 74, 2, 0, 77, 2, 0, 79, 3, 1, 79, 3, 5, 80, 0, 1, 81, 0, 0, 82, 4, 4, 89, 4, 4, 89, 2, 4, 93, 1, 5, 94, 1, 5, 98, 0, 5, 98, 0, 1, 106, 2, 0, 110, 5, 1, 113, 5, 2, 115, 5, 1, 116, 0, 1, 130, 5, 4, 132, 4, 3, 136, 0, 5, 137, 4, 0, 139, 3, 2, 143, 4, 5, 146, 1, 5, 149, 5, 1, 152, 3, 5, 154, 1, 5, 160, 2, 5, 167, 1, 2, 167, 4, 0, 176, 0, 5, 179, 4, 0, 185, 1, 5, 185, 0, 2, 186, 0, 4, 188, 5, 3, 193, 3, 0, 195, 0, 1, 204, 4, 2, 205, 2, 1]);
