n_res = 4;
rc = [ 38, 44, 44, 45 ];
n_tasks = 62;
d = [0, 5, 1, 5, 10, 7, 5, 8, 10, 6, 7, 5, 7, 9, 5, 10, 3, 10, 3, 7, 3, 4, 2, 2, 1, 10, 6, 4, 6, 5, 10, 9, 9, 8, 9, 2, 9, 9, 3, 8, 5, 1, 4, 8, 8, 4, 9, 7, 9, 3, 10, 7, 4, 6, 3, 9, 3, 1, 2, 8, 5, 0];
rr = array2d(1..4, 1..62, [0, 0, 6, 7, 4, 0, 8, 7, 4, 0, 10, 2, 3, 0, 2, 0, 7, 1, 0, 0, 8, 0, 0, 7, 2, 0, 7, 0, 0, 0, 5, 2, 0, 1, 3, 4, 0, 4, 7, 3, 0, 8, 4, 10, 10, 0, 0, 8, 1, 0, 7, 7, 3, 2, 3, 6, 0, 4, 7, 7, 4, 0, 0, 1, 2, 1, 2, 4, 1, 2, 1, 1, 4, 3, 0, 10, 3, 5, 1, 5, 0, 3, 1, 10, 0, 2, 2, 7, 4, 10, 0, 2, 5, 0, 1, 3, 2, 8, 5, 1, 10, 4, 4, 8, 6, 9, 7, 0, 8, 3, 1, 0, 9, 5, 0, 2, 0, 2, 0, 7, 2, 5, 4, 0, 0, 6, 9, 0, 7, 5, 2, 0, 0, 10, 2, 8, 5, 9, 9, 3, 0, 5, 9, 0, 8, 10, 6, 8, 5, 10, 6, 5, 3, 0, 0, 3, 1, 8, 1, 0, 1, 2, 8, 5, 6, 0, 2, 5, 0, 8, 3, 10, 6, 10, 10, 0, 0, 0, 5, 4, 8, 9, 0, 4, 1, 0, 0, 5, 4, 0, 0, 4, 4, 9, 10, 8, 0, 8, 10, 2, 0, 0, 0, 2, 0, 6, 0, 7, 5, 0, 5, 9, 9, 8, 2, 10, 10, 3, 0, 1, 0, 5, 1, 10, 10, 9, 9, 6, 0, 4, 1, 7, 4, 0, 10, 8, 9, 2, 2, 0, 0, 9, 7, 3, 8, 3, 5, 0]);

suc = [
   {2, 3, 4},
   {5},
   {13, 6, 31},
   {8, 20, 15},
   {16, 10, 12},
   {55, 7},
   {9, 11, 21},
   {17, 27, 47},
   {40, 19, 53},
   {14, 22},
   {28, 39},
   {56, 35},
   {18, 52, 45},
   {33},
   {32},
   {59, 51, 46},
   {36},
   {23},
   {48, 26, 38},
   {25},
   {29},
   {24, 57, 60},
   {40, 37},
   {58},
   {30},
   {30},
   {36},
   {37},
   {34, 43},
   {41, 34, 54},
   {41, 34},
   {51},
   {42},
   {45},
   {42},
   {50},
   {44},
   {49},
   {41},
   {58},
   {46},
   {45},
   {61},
   {51},
   {58},
   {49, 61},
   {53},
   {49},
   {60},
   {54},
   {53},
   {57},
   {54},
   {60},
   {57},
   {61},
   {59},
   {59},
   {62},
   {62},
   {62},
   {  } ];

deadline = array2d(1..62, 1..3, [4, 4, 0, 4, 0, 0, 5, 5, 3, 6, 2, 4, 8, 0, 5, 11, 3, 4, 14, 0, 0, 19, 3, 1, 24, 1, 1, 27, 4, 4, 32, 5, 1, 34, 2, 4, 36, 0, 3, 38, 5, 0, 42, 3, 0, 43, 3, 0, 46, 5, 1, 47, 3, 4, 47, 5, 4, 48, 0, 1, 50, 3, 3, 50, 5, 0, 51, 1, 3, 52, 0, 4, 65, 2, 1, 68, 5, 2, 72, 1, 5, 73, 1, 1, 77, 0, 1, 95, 5, 0, 99, 1, 2, 101, 1, 2, 109, 1, 4, 110, 0, 4, 111, 1, 1, 112, 2, 3, 118, 3, 0, 118, 3, 3, 118, 5, 5, 120, 4, 0, 122, 4, 5, 122, 2, 4, 123, 1, 0, 124, 0, 2, 128, 2, 1, 129, 3, 4, 130, 4, 1, 130, 2, 2, 131, 4, 1, 131, 0, 0, 132, 5, 4, 134, 4, 2, 139, 1, 5, 139, 2, 3, 140, 3, 3, 142, 0, 5, 150, 3, 5, 156, 0, 3, 158, 4, 5, 159, 1, 1, 170, 0, 1, 171, 1, 1]);
