n_res = 4;
rc = [ 31, 34, 28, 33 ];
n_tasks = 62;
d = [0, 9, 6, 1, 1, 3, 9, 10, 9, 1, 1, 5, 8, 1, 2, 1, 4, 3, 6, 8, 9, 5, 6, 9, 1, 2, 2, 1, 7, 1, 2, 6, 8, 3, 6, 5, 3, 4, 6, 2, 6, 1, 1, 6, 4, 9, 10, 1, 9, 1, 7, 2, 7, 10, 6, 9, 2, 9, 6, 7, 6, 0];
rr = array2d(1..4, 1..62, [0, 2, 2, 7, 9, 10, 1, 10, 0, 9, 10, 3, 0, 1, 0, 2, 7, 10, 4, 6, 9, 6, 0, 5, 9, 0, 10, 0, 9, 6, 3, 0, 4, 3, 0, 6, 5, 5, 2, 8, 5, 5, 9, 9, 6, 0, 1, 5, 3, 0, 7, 0, 1, 3, 7, 10, 0, 1, 5, 0, 4, 0, 0, 0, 0, 0, 7, 4, 10, 7, 10, 0, 8, 0, 0, 3, 0, 3, 4, 10, 0, 8, 4, 0, 3, 6, 6, 1, 0, 0, 0, 0, 9, 2, 3, 0, 6, 5, 6, 7, 9, 8, 1, 3, 2, 9, 1, 10, 0, 9, 0, 10, 0, 3, 4, 1, 9, 0, 6, 9, 1, 9, 3, 0, 0, 5, 2, 3, 4, 0, 5, 7, 8, 9, 6, 6, 10, 6, 0, 6, 5, 0, 0, 9, 0, 0, 0, 8, 7, 4, 10, 6, 2, 6, 2, 10, 5, 0, 7, 9, 9, 1, 0, 0, 5, 6, 5, 3, 1, 4, 8, 0, 0, 10, 1, 0, 0, 6, 0, 9, 2, 4, 8, 0, 9, 0, 0, 0, 6, 0, 5, 9, 7, 10, 1, 9, 10, 2, 8, 5, 6, 0, 5, 0, 4, 8, 3, 6, 2, 8, 4, 0, 7, 3, 0, 0, 0, 4, 8, 9, 1, 2, 8, 0, 7, 4, 6, 10, 5, 7, 2, 0, 0, 4, 5, 7, 6, 10, 1, 6, 0, 9, 1, 3, 6, 7, 9, 0]);

suc = [
   {2, 3, 4},
   {11, 5, 14},
   {10, 6, 23},
   {9, 17, 31},
   {8, 26, 19},
   {25, 7},
   {40, 19, 12},
   {48, 36, 15},
   {49, 42, 13},
   {20, 28},
   {49, 42, 19},
   {32, 53, 30},
   {34, 27},
   {20, 21, 23},
   {16, 24, 33},
   {43, 29, 31},
   {18, 52},
   {48, 25, 20},
   {54, 22},
   {41, 45, 55},
   {24, 26, 32},
   {32, 48, 55},
   {33, 27, 31},
   {56, 28, 29},
   {40, 38, 39},
   {59, 27, 30},
   {35, 36},
   {50},
   {53, 39},
   {46, 42, 38},
   {41, 37, 49},
   {44, 38, 39},
   {35, 44, 52},
   {35},
   {40, 43},
   {43, 46},
   {51, 45, 47},
   {56, 58},
   {50, 45},
   {60},
   {44, 46},
   {56},
   {53},
   {51, 47},
   {61},
   {47},
   {57},
   {57, 50},
   {52},
   {51},
   {59},
   {59, 54},
   {54, 55},
   {58, 60},
   {57, 58},
   {60},
   {61},
   {61},
   {62},
   {62},
   {62},
   {  } ];

deadline = array2d(1..62, 1..3, [3, 1, 4, 9, 5, 1, 17, 1, 2, 20, 4, 1, 27, 1, 4, 34, 5, 5, 35, 3, 1, 37, 4, 4, 38, 5, 1, 39, 4, 2, 41, 2, 1, 47, 0, 0, 48, 1, 5, 54, 2, 4, 58, 0, 3, 59, 3, 4, 63, 3, 3, 64, 5, 2, 65, 1, 3, 67, 2, 5, 72, 3, 4, 73, 2, 2, 74, 2, 3, 74, 4, 1, 79, 1, 3, 93, 1, 3, 95, 3, 2, 95, 2, 5, 96, 0, 5, 97, 3, 3, 97, 0, 1, 101, 1, 4, 102, 4, 0, 110, 0, 4, 111, 2, 5, 111, 4, 3, 112, 0, 5, 113, 1, 2, 113, 4, 5, 116, 3, 4, 117, 3, 1, 119, 2, 3, 121, 5, 1, 122, 1, 1, 126, 3, 2, 126, 4, 0, 129, 4, 4, 133, 5, 1, 140, 4, 1, 143, 4, 1, 143, 0, 5, 144, 0, 4, 149, 4, 4, 152, 0, 2, 161, 1, 0, 162, 4, 1, 164, 5, 5, 165, 4, 1, 168, 2, 3, 169, 5, 4, 171, 4, 0, 174, 2, 1]);
