n_res = 4;
rc = [ 23, 34, 28, 29 ];
n_tasks = 62;
d = [0, 10, 2, 10, 8, 7, 9, 10, 10, 10, 4, 3, 6, 3, 6, 5, 10, 9, 8, 1, 3, 9, 8, 6, 2, 10, 7, 6, 1, 2, 10, 6, 5, 3, 1, 4, 1, 3, 3, 3, 7, 9, 8, 2, 9, 5, 10, 9, 2, 7, 8, 8, 5, 5, 7, 8, 9, 1, 4, 2, 9, 0];
rr = array2d(1..4, 1..62, [0, 0, 4, 0, 4, 2, 9, 0, 7, 0, 3, 0, 0, 0, 0, 0, 0, 0, 0, 0, 6, 9, 6, 0, 7, 3, 0, 0, 0, 0, 0, 0, 1, 7, 0, 2, 0, 0, 8, 7, 5, 0, 0, 4, 0, 0, 10, 3, 5, 6, 0, 7, 0, 0, 0, 9, 0, 0, 0, 0, 0, 0, 0, 6, 0, 0, 5, 2, 4, 2, 0, 1, 6, 8, 1, 0, 5, 4, 5, 0, 5, 0, 0, 1, 0, 0, 0, 1, 0, 9, 3, 2, 5, 6, 0, 0, 0, 0, 6, 0, 6, 2, 0, 9, 4, 0, 0, 2, 0, 8, 9, 9, 9, 1, 0, 0, 0, 1, 0, 5, 9, 6, 2, 0, 0, 0, 0, 0, 2, 0, 1, 0, 7, 0, 0, 0, 6, 0, 0, 6, 3, 7, 6, 0, 0, 8, 6, 3, 9, 0, 8, 0, 10, 0, 8, 0, 4, 0, 7, 0, 10, 4, 0, 7, 9, 0, 4, 3, 6, 0, 3, 0, 0, 0, 0, 6, 8, 0, 2, 0, 0, 0, 0, 9, 0, 0, 0, 0, 0, 9, 9, 10, 0, 0, 2, 3, 0, 10, 10, 8, 5, 8, 7, 4, 5, 10, 2, 0, 1, 0, 0, 6, 5, 6, 0, 0, 7, 6, 2, 0, 10, 0, 0, 0, 4, 0, 6, 1, 0, 0, 0, 0, 0, 0, 0, 0, 0, 4, 1, 9, 2, 4, 1, 0, 0, 0, 0, 0]);

suc = [
   {2, 3, 4},
   {13, 5, 6},
   {8, 42, 15},
   {16, 17, 7},
   {27, 14, 31},
   {9, 10, 12},
   {34, 37, 21},
   {32, 11},
   {49, 19, 22},
   {25, 35, 55},
   {54, 33, 38},
   {20, 21},
   {26, 36, 31},
   {17, 21, 54},
   {16, 28, 44},
   {48, 19, 20},
   {41, 18, 29},
   {47, 46, 23},
   {52, 30, 31},
   {59, 52, 37},
   {25, 43, 23},
   {24, 32, 51},
   {38, 28, 30},
   {56, 27, 29},
   {40, 59},
   {40, 44, 39},
   {40, 41, 42},
   {33},
   {33, 61, 30},
   {57, 45},
   {32, 54, 38},
   {53, 37},
   {57, 36, 45},
   {43, 47},
   {42, 36},
   {48},
   {41, 50},
   {51},
   {46},
   {53},
   {58, 60},
   {43, 53},
   {58, 52, 45},
   {46, 47},
   {50},
   {48, 49},
   {49, 51},
   {60},
   {50, 55},
   {60},
   {56},
   {61},
   {58},
   {55},
   {56},
   {57},
   {59},
   {61},
   {62},
   {62},
   {62},
   {  } ];

deadline = array2d(1..62, 1..3, [3, 2, 5, 9, 4, 3, 10, 2, 1, 10, 4, 1, 11, 0, 4, 17, 2, 4, 19, 2, 0, 25, 2, 1, 31, 5, 3, 36, 3, 5, 37, 0, 0, 44, 3, 2, 46, 2, 5, 47, 2, 5, 48, 3, 5, 49, 0, 2, 59, 5, 2, 68, 2, 4, 71, 5, 4, 75, 4, 0, 81, 5, 2, 84, 0, 1, 89, 1, 4, 93, 2, 5, 94, 1, 3, 95, 0, 1, 96, 0, 4, 98, 4, 0, 98, 5, 1, 99, 2, 0, 99, 0, 3, 101, 2, 0, 103, 5, 0, 103, 5, 5, 112, 5, 5, 119, 1, 4, 123, 1, 3, 123, 5, 5, 124, 5, 1, 132, 0, 4, 137, 2, 4, 138, 3, 4, 142, 2, 0, 144, 5, 5, 145, 4, 2, 149, 2, 2, 151, 0, 0, 155, 1, 3, 161, 5, 0, 163, 2, 1, 171, 2, 2, 174, 4, 2, 175, 0, 1, 175, 2, 4, 179, 4, 0, 179, 3, 0, 190, 4, 4, 195, 3, 1, 198, 5, 0, 207, 1, 2, 208, 5, 1, 210, 1, 2]);
