n_res = 4;
rc = [ 19, 20, 19, 18 ];
n_tasks = 62;
d = [0, 4, 5, 5, 3, 8, 3, 7, 4, 4, 5, 4, 3, 7, 1, 3, 5, 10, 4, 3, 8, 6, 1, 9, 8, 3, 4, 5, 7, 10, 6, 10, 8, 8, 5, 3, 7, 4, 4, 2, 7, 1, 10, 6, 4, 6, 3, 6, 1, 5, 3, 6, 4, 6, 8, 2, 10, 2, 8, 3, 3, 0];
rr = array2d(1..4, 1..62, [0, 8, 2, 7, 8, 3, 8, 5, 2, 9, 8, 1, 6, 4, 7, 8, 3, 2, 2, 9, 4, 4, 3, 5, 3, 5, 4, 9, 4, 10, 2, 3, 7, 10, 1, 6, 7, 6, 1, 6, 7, 8, 1, 5, 5, 10, 2, 3, 9, 4, 1, 10, 6, 10, 3, 1, 3, 3, 9, 3, 2, 0, 0, 3, 9, 8, 9, 8, 5, 8, 5, 8, 6, 5, 7, 5, 1, 4, 9, 8, 10, 3, 6, 9, 1, 8, 2, 2, 5, 6, 8, 3, 9, 4, 5, 1, 4, 2, 9, 3, 4, 7, 4, 4, 7, 5, 7, 3, 5, 8, 5, 10, 1, 7, 9, 2, 8, 3, 6, 1, 9, 8, 8, 0, 0, 9, 1, 10, 5, 5, 4, 3, 3, 7, 4, 5, 7, 9, 3, 7, 3, 1, 6, 3, 4, 5, 5, 7, 10, 4, 3, 7, 9, 3, 1, 9, 5, 6, 9, 10, 5, 3, 1, 1, 2, 8, 5, 2, 9, 6, 9, 6, 6, 5, 4, 8, 6, 3, 2, 6, 1, 10, 3, 7, 2, 0, 0, 10, 2, 5, 2, 4, 9, 3, 6, 6, 7, 2, 6, 9, 4, 2, 3, 1, 4, 8, 4, 3, 5, 4, 10, 10, 1, 4, 10, 3, 7, 9, 4, 3, 1, 4, 6, 9, 6, 8, 8, 4, 6, 6, 7, 8, 4, 6, 3, 1, 4, 6, 7, 7, 9, 8, 5, 6, 4, 4, 5, 0]);

suc = [
   {2, 3, 4},
   {9, 5, 6},
   {57, 28, 15},
   {8, 26, 7},
   {18, 11, 14},
   {16, 17, 53},
   {40, 35, 29},
   {10, 13, 30},
   {17, 35, 44},
   {40, 49, 28},
   {51, 19, 12},
   {27, 20, 21},
   {25, 22, 57},
   {32, 26, 19},
   {41, 36, 31},
   {34, 46},
   {18, 27, 42},
   {59},
   {35, 28, 23},
   {25, 50, 38},
   {25, 30},
   {33, 50, 27},
   {24, 38, 30},
   {34, 43, 39},
   {41, 61, 45},
   {33, 36, 38},
   {60},
   {34, 50, 45},
   {42, 36, 31},
   {58, 54},
   {46, 39},
   {57, 39},
   {49, 45, 37},
   {56},
   {47},
   {37, 46},
   {44, 47},
   {40, 41, 52},
   {53},
   {58, 55},
   {43, 44},
   {51, 43},
   {48},
   {59},
   {48, 47},
   {48, 49, 54},
   {52, 53},
   {56},
   {51},
   {58, 55},
   {52, 55},
   {60},
   {54},
   {56},
   {61},
   {60},
   {61},
   {59},
   {62},
   {62},
   {62},
   {  } ];

deadline = array2d(1..62, 1..3, [5, 0, 0, 10, 5, 0, 12, 5, 0, 17, 2, 5, 19, 4, 5, 19, 4, 3, 19, 5, 1, 22, 3, 5, 22, 0, 2, 24, 4, 2, 25, 5, 4, 26, 1, 5, 26, 5, 3, 29, 3, 5, 32, 4, 0, 32, 1, 5, 39, 3, 3, 42, 0, 5, 43, 1, 1, 46, 1, 5, 46, 3, 0, 54, 4, 4, 55, 2, 0, 55, 2, 2, 57, 4, 4, 59, 3, 0, 60, 2, 3, 62, 4, 2, 66, 3, 2, 68, 0, 4, 70, 4, 0, 73, 0, 5, 80, 4, 3, 81, 4, 2, 90, 0, 5, 91, 5, 2, 92, 1, 1, 99, 3, 4, 100, 5, 4, 105, 5, 2, 106, 5, 1, 111, 5, 4, 111, 4, 3, 115, 4, 2, 115, 5, 2, 115, 3, 2, 116, 4, 1, 116, 5, 3, 117, 2, 0, 121, 1, 2, 126, 0, 0, 127, 2, 4, 131, 0, 1, 132, 0, 3, 132, 0, 0, 137, 5, 2, 142, 3, 3, 148, 3, 4, 148, 3, 5, 149, 3, 2, 149, 5, 2, 150, 4, 4]);
