n_res = 4;
rc = [ 29, 34, 33, 29 ];
n_tasks = 62;
d = [0, 6, 8, 5, 4, 2, 8, 3, 8, 5, 9, 6, 7, 7, 9, 9, 8, 3, 8, 7, 6, 4, 1, 3, 9, 6, 10, 2, 9, 2, 8, 3, 2, 5, 3, 8, 8, 10, 3, 3, 4, 10, 4, 7, 1, 5, 6, 7, 9, 4, 3, 4, 2, 9, 8, 2, 10, 10, 6, 1, 3, 0];
rr = array2d(1..4, 1..62, [0, 9, 7, 0, 0, 9, 0, 0, 0, 10, 8, 8, 6, 3, 0, 0, 0, 0, 5, 1, 5, 0, 0, 0, 5, 0, 7, 4, 9, 7, 0, 0, 2, 3, 1, 5, 0, 3, 0, 3, 9, 0, 0, 7, 0, 0, 0, 0, 0, 0, 8, 3, 1, 0, 0, 0, 0, 0, 10, 0, 0, 0, 0, 9, 0, 6, 3, 8, 10, 9, 2, 0, 0, 0, 0, 8, 0, 0, 3, 0, 0, 0, 1, 6, 0, 10, 0, 0, 8, 0, 10, 0, 0, 0, 0, 2, 7, 0, 0, 7, 4, 3, 0, 10, 3, 7, 0, 0, 0, 0, 6, 2, 0, 0, 0, 3, 4, 1, 2, 5, 3, 0, 1, 0, 0, 0, 8, 5, 9, 5, 1, 0, 3, 0, 10, 2, 0, 0, 0, 3, 2, 5, 2, 9, 10, 8, 0, 0, 5, 0, 0, 0, 0, 2, 3, 10, 0, 0, 0, 0, 0, 0, 2, 0, 0, 0, 2, 0, 0, 4, 5, 0, 0, 0, 0, 3, 0, 4, 7, 1, 2, 0, 3, 0, 0, 0, 0, 10, 2, 9, 0, 0, 8, 0, 3, 0, 0, 0, 0, 7, 2, 4, 7, 7, 2, 0, 5, 5, 1, 1, 0, 10, 9, 2, 0, 0, 0, 5, 5, 0, 3, 0, 7, 3, 0, 0, 0, 0, 0, 5, 9, 9, 6, 3, 5, 7, 0, 0, 0, 0, 0, 0, 1, 3, 0, 1, 0, 0]);

suc = [
   {2, 3, 4},
   {8, 16, 30},
   {37, 15},
   {17, 20, 5},
   {9, 11, 6},
   {16, 18, 7},
   {48, 25, 14},
   {26, 37},
   {10, 21, 13},
   {27, 12, 15},
   {29, 43, 21},
   {32, 36, 55},
   {35, 53},
   {34, 19, 22},
   {48, 46, 31},
   {33, 28, 22},
   {48, 19, 23},
   {24},
   {50, 29},
   {47},
   {49, 27, 22},
   {44, 39},
   {32, 46, 31},
   {50, 43},
   {26, 45},
   {33, 27, 28},
   {53},
   {41, 36, 38},
   {32, 44, 46},
   {35, 52, 39},
   {33, 45},
   {37, 39},
   {34, 35, 38},
   {49, 42, 36},
   {41, 54, 47},
   {44, 54},
   {56},
   {40, 42},
   {41, 45, 57},
   {43, 53, 47},
   {42, 51},
   {59},
   {56, 52, 55},
   {52, 60},
   {51, 60, 61},
   {56},
   {49},
   {58},
   {50, 51, 55},
   {60},
   {59},
   {57},
   {58, 54},
   {59},
   {58},
   {57},
   {61},
   {61},
   {62},
   {62},
   {62},
   {  } ];

deadline = array2d(1..62, 1..3, [11, 3, 2, 12, 5, 3, 20, 0, 1, 25, 0, 2, 27, 2, 5, 30, 2, 5, 35, 0, 2, 47, 2, 2, 51, 2, 3, 58, 0, 4, 58, 3, 3, 59, 3, 3, 59, 5, 0, 65, 1, 1, 68, 2, 1, 73, 2, 3, 75, 2, 2, 77, 1, 3, 84, 3, 1, 90, 4, 5, 92, 3, 0, 94, 2, 2, 98, 4, 4, 101, 4, 0, 102, 4, 1, 106, 2, 2, 110, 0, 2, 111, 3, 1, 116, 2, 1, 120, 0, 1, 120, 3, 4, 123, 5, 1, 125, 4, 0, 125, 1, 4, 127, 1, 0, 132, 3, 0, 134, 1, 3, 141, 4, 5, 142, 2, 4, 149, 1, 4, 149, 1, 3, 158, 2, 1, 161, 1, 4, 163, 0, 2, 169, 1, 2, 171, 3, 0, 171, 4, 3, 175, 3, 0, 176, 5, 1, 181, 1, 5, 183, 3, 1, 183, 5, 2, 186, 3, 2, 189, 4, 2, 191, 0, 0, 195, 0, 2, 195, 1, 3, 210, 0, 2, 214, 4, 0, 219, 5, 1, 220, 4, 4, 221, 1, 1]);
