n_res = 4;
rc = [ 46, 38, 41, 54 ];
n_tasks = 62;
d = [0, 2, 4, 7, 6, 5, 9, 8, 5, 7, 8, 3, 1, 9, 7, 5, 8, 6, 7, 9, 4, 8, 1, 1, 3, 6, 7, 3, 8, 5, 10, 6, 6, 7, 6, 6, 7, 9, 9, 4, 1, 6, 5, 10, 3, 9, 5, 7, 8, 4, 10, 4, 8, 9, 6, 8, 6, 10, 1, 8, 1, 0];
rr = array2d(1..4, 1..62, [0, 8, 3, 6, 3, 6, 7, 5, 6, 10, 5, 9, 1, 1, 4, 5, 2, 6, 3, 8, 6, 4, 7, 9, 9, 5, 7, 9, 9, 7, 2, 1, 5, 5, 10, 5, 5, 9, 6, 10, 5, 1, 1, 1, 2, 3, 6, 3, 9, 1, 6, 6, 7, 2, 7, 2, 3, 3, 7, 2, 1, 0, 0, 6, 4, 9, 7, 1, 10, 6, 4, 5, 4, 2, 4, 9, 7, 5, 3, 6, 9, 1, 10, 3, 6, 8, 4, 1, 10, 7, 2, 8, 3, 9, 9, 5, 3, 10, 6, 3, 3, 9, 1, 2, 9, 2, 1, 3, 4, 2, 5, 7, 2, 2, 1, 3, 4, 9, 5, 3, 3, 9, 4, 0, 0, 4, 4, 5, 10, 9, 1, 7, 2, 7, 2, 4, 1, 6, 7, 9, 2, 1, 1, 8, 2, 3, 1, 8, 7, 3, 6, 3, 10, 10, 4, 10, 6, 8, 2, 7, 7, 4, 3, 9, 6, 2, 4, 7, 4, 7, 7, 2, 4, 7, 8, 6, 3, 1, 4, 1, 6, 1, 7, 3, 7, 0, 0, 1, 7, 7, 2, 2, 4, 8, 1, 1, 8, 5, 1, 7, 5, 5, 10, 4, 1, 6, 4, 10, 3, 9, 9, 2, 7, 5, 9, 3, 9, 7, 10, 9, 9, 9, 10, 5, 7, 4, 3, 1, 2, 2, 3, 6, 5, 1, 6, 7, 1, 4, 7, 9, 5, 6, 7, 8, 4, 9, 6, 0]);

suc = [
   {2, 3, 4},
   {8, 12, 7},
   {9, 5, 6},
   {56, 43, 47},
   {17, 61, 30},
   {31},
   {32, 50},
   {13, 15},
   {25, 10, 18},
   {16, 11, 36},
   {48},
   {14},
   {24, 34},
   {42, 29},
   {37},
   {19, 20, 60},
   {40},
   {38, 39},
   {28},
   {32, 21, 23},
   {22, 31},
   {26, 27, 28},
   {33},
   {46},
   {57},
   {55},
   {30},
   {41},
   {40},
   {33},
   {33, 58},
   {47},
   {54},
   {35, 53},
   {43},
   {40, 44, 45},
   {47},
   {52, 46},
   {57},
   {43},
   {49, 59},
   {48},
   {58},
   {56},
   {50},
   {58},
   {48},
   {53},
   {51},
   {55},
   {56},
   {53},
   {55},
   {59},
   {61},
   {57},
   {61},
   {59},
   {62},
   {62},
   {62},
   {  } ];

deadline = array2d(1..62, 1..3, [7, 4, 2, 7, 1, 5, 8, 0, 5, 13, 5, 3, 18, 2, 0, 26, 0, 0, 27, 2, 0, 32, 1, 5, 33, 2, 4, 40, 2, 4, 45, 3, 2, 48, 4, 0, 51, 0, 5, 53, 0, 4, 54, 2, 1, 55, 1, 4, 65, 3, 2, 67, 1, 4, 68, 1, 0, 75, 5, 1, 75, 1, 1, 79, 5, 3, 82, 5, 1, 84, 2, 3, 85, 1, 1, 86, 5, 5, 89, 3, 3, 92, 2, 0, 93, 2, 1, 95, 3, 2, 97, 1, 3, 97, 3, 2, 98, 3, 3, 100, 0, 5, 110, 4, 1, 111, 5, 4, 118, 3, 3, 122, 2, 2, 123, 5, 2, 124, 2, 3, 124, 3, 3, 129, 3, 3, 131, 1, 0, 137, 3, 3, 137, 2, 0, 138, 1, 5, 142, 1, 5, 147, 1, 5, 148, 1, 3, 149, 2, 3, 151, 4, 4, 154, 2, 1, 158, 1, 0, 159, 5, 0, 160, 1, 2, 167, 1, 4, 167, 3, 0, 173, 5, 1, 186, 5, 4, 193, 4, 4, 193, 2, 4, 196, 2, 2]);
