n_res = 4;
rc = [ 19, 29, 11, 13 ];
n_tasks = 62;
d = [0, 6, 10, 4, 3, 10, 2, 2, 8, 1, 8, 2, 4, 4, 8, 7, 7, 2, 2, 10, 9, 7, 5, 5, 9, 3, 6, 6, 1, 2, 8, 5, 7, 4, 8, 5, 8, 7, 3, 9, 8, 9, 10, 7, 4, 10, 7, 10, 10, 4, 8, 5, 2, 5, 2, 3, 3, 10, 8, 2, 6, 0];
rr = array2d(1..4, 1..62, [0, 0, 7, 0, 0, 0, 0, 2, 0, 0, 0, 0, 0, 0, 0, 1, 1, 0, 0, 0, 0, 0, 0, 0, 0, 0, 0, 0, 0, 0, 0, 0, 8, 7, 3, 0, 0, 0, 0, 0, 8, 0, 4, 0, 0, 9, 0, 6, 0, 1, 0, 0, 8, 3, 0, 0, 3, 0, 8, 0, 0, 0, 0, 0, 0, 0, 1, 0, 10, 0, 3, 0, 0, 0, 10, 10, 5, 0, 0, 0, 0, 0, 0, 9, 0, 0, 0, 9, 8, 0, 8, 5, 0, 0, 0, 0, 0, 0, 0, 0, 0, 6, 0, 0, 0, 2, 0, 0, 0, 0, 0, 0, 4, 0, 0, 0, 7, 0, 0, 0, 0, 0, 8, 0, 0, 7, 0, 4, 0, 0, 0, 0, 0, 0, 2, 4, 0, 0, 0, 0, 0, 9, 1, 1, 2, 0, 0, 4, 0, 0, 0, 0, 0, 0, 6, 0, 0, 0, 0, 5, 0, 0, 6, 0, 0, 0, 0, 0, 1, 0, 0, 0, 0, 0, 0, 0, 0, 0, 0, 6, 0, 2, 0, 7, 0, 0, 0, 0, 0, 0, 0, 2, 0, 0, 0, 2, 0, 0, 0, 0, 0, 0, 0, 0, 0, 0, 0, 0, 5, 0, 9, 0, 0, 3, 0, 0, 0, 4, 0, 0, 0, 0, 3, 6, 0, 0, 0, 2, 0, 0, 0, 0, 5, 0, 1, 0, 0, 9, 0, 0, 0, 0, 0, 0, 0, 0, 0, 0]);

suc = [
   {2, 3, 4},
   {18, 19, 21},
   {8, 5, 6},
   {32},
   {35, 38, 31},
   {9, 12, 7},
   {40, 29},
   {16, 24, 10},
   {29, 23},
   {11, 44, 14},
   {25, 13, 22},
   {39},
   {30},
   {17, 26, 15},
   {42, 35},
   {43, 20, 36},
   {41, 51, 28},
   {34, 59, 44},
   {58},
   {56, 28, 29},
   {60, 31},
   {35},
   {27},
   {49, 58},
   {33, 28, 41},
   {27, 47},
   {37},
   {31},
   {55},
   {40, 53},
   {49, 54},
   {46},
   {51, 45, 38},
   {61},
   {55},
   {48, 52, 54},
   {49, 42, 50},
   {47},
   {54},
   {51, 46, 47},
   {50},
   {60, 45},
   {44, 45},
   {53},
   {48, 53, 46},
   {61},
   {48, 50},
   {56},
   {57},
   {52},
   {57, 58, 52},
   {56},
   {55},
   {57},
   {61},
   {59},
   {59},
   {60},
   {62},
   {62},
   {62},
   {  } ];

deadline = array2d(1..62, 1..3, [5, 3, 5, 10, 0, 1, 10, 4, 5, 11, 0, 0, 17, 4, 5, 17, 2, 1, 18, 5, 5, 19, 1, 4, 21, 2, 5, 21, 4, 3, 25, 3, 1, 34, 5, 2, 34, 0, 1, 35, 0, 3, 55, 4, 4, 57, 3, 2, 59, 0, 2, 59, 0, 2, 64, 4, 5, 69, 4, 5, 73, 4, 1, 76, 0, 1, 76, 0, 0, 84, 4, 5, 85, 2, 3, 86, 1, 1, 87, 0, 5, 91, 4, 0, 91, 1, 4, 95, 3, 5, 99, 4, 3, 103, 3, 4, 103, 1, 0, 104, 3, 4, 111, 5, 0, 112, 5, 1, 120, 2, 1, 122, 3, 3, 123, 4, 5, 128, 0, 4, 128, 3, 5, 129, 1, 2, 129, 3, 3, 132, 3, 5, 135, 2, 0, 138, 2, 2, 142, 2, 0, 143, 1, 2, 147, 3, 4, 150, 1, 0, 151, 3, 4, 158, 4, 4, 163, 1, 4, 164, 0, 3, 164, 3, 3, 166, 2, 3, 176, 3, 1, 182, 0, 1, 182, 3, 0, 193, 4, 4, 194, 4, 2, 195, 0, 5]);
