n_res = 4;
rc = [ 27, 32, 34, 23 ];
n_tasks = 62;
d = [0, 4, 8, 6, 7, 4, 9, 3, 3, 8, 3, 8, 8, 5, 9, 3, 7, 8, 6, 6, 8, 2, 8, 4, 2, 5, 1, 8, 7, 5, 2, 8, 7, 1, 6, 2, 1, 8, 3, 4, 10, 7, 8, 8, 10, 7, 3, 5, 4, 9, 6, 3, 3, 7, 2, 3, 9, 2, 3, 7, 7, 0];
rr = array2d(1..4, 1..62, [0, 0, 4, 9, 2, 10, 2, 0, 4, 3, 4, 6, 2, 4, 0, 0, 0, 1, 7, 6, 0, 2, 0, 2, 6, 5, 2, 5, 9, 4, 0, 4, 8, 9, 8, 2, 3, 9, 3, 8, 4, 0, 3, 6, 8, 0, 8, 1, 2, 9, 8, 4, 0, 2, 6, 5, 5, 0, 4, 7, 7, 0, 0, 6, 0, 10, 0, 10, 1, 3, 7, 9, 1, 5, 0, 4, 3, 2, 3, 6, 0, 9, 6, 9, 0, 1, 10, 7, 1, 9, 6, 1, 1, 6, 9, 1, 10, 4, 0, 4, 4, 5, 4, 10, 2, 10, 3, 5, 10, 9, 0, 0, 8, 0, 4, 10, 0, 1, 0, 3, 0, 0, 0, 0, 0, 6, 4, 5, 8, 2, 0, 0, 0, 3, 0, 2, 7, 0, 8, 0, 0, 2, 3, 9, 3, 9, 9, 0, 0, 4, 1, 6, 4, 0, 5, 3, 8, 0, 8, 8, 4, 8, 2, 9, 0, 0, 10, 0, 10, 9, 5, 7, 3, 8, 0, 10, 10, 2, 0, 0, 4, 0, 9, 2, 10, 0, 0, 1, 4, 7, 6, 0, 2, 10, 8, 0, 3, 3, 2, 3, 9, 9, 9, 0, 2, 8, 10, 7, 0, 10, 9, 0, 8, 0, 0, 5, 5, 4, 0, 5, 3, 0, 6, 9, 1, 0, 0, 5, 1, 2, 1, 9, 7, 7, 5, 6, 8, 0, 0, 10, 7, 0, 3, 2, 2, 10, 0, 0]);

suc = [
   {2, 3, 4},
   {17, 5, 22},
   {25, 18, 6},
   {9, 10, 11},
   {52, 53},
   {8, 13, 7},
   {19, 37, 14},
   {27, 54},
   {42, 12, 15},
   {41, 34, 21},
   {25, 35, 36},
   {47},
   {16, 48},
   {20, 23, 15},
   {58},
   {19},
   {36},
   {24, 44},
   {40, 50, 55},
   {35, 44, 31},
   {28},
   {43},
   {58},
   {26, 34, 29},
   {49, 45},
   {43, 28},
   {46, 38},
   {48, 33},
   {48, 37, 30},
   {32, 60, 39},
   {32, 34},
   {41, 46, 55},
   {45, 47},
   {59},
   {49, 61},
   {50},
   {40, 55},
   {43},
   {57, 47},
   {41, 51},
   {57, 53},
   {56},
   {56, 53},
   {52, 45},
   {46},
   {57},
   {58},
   {51, 54},
   {50, 51},
   {54},
   {52},
   {56},
   {59},
   {60},
   {61},
   {60},
   {61},
   {59},
   {62},
   {62},
   {62},
   {  } ];

deadline = array2d(1..62, 1..3, [4, 2, 2, 7, 1, 0, 12, 1, 3, 12, 0, 1, 12, 4, 4, 16, 4, 1, 18, 3, 1, 20, 3, 2, 23, 0, 4, 23, 3, 1, 30, 0, 0, 31, 3, 2, 32, 1, 1, 32, 2, 1, 45, 0, 1, 48, 5, 0, 49, 5, 4, 50, 3, 1, 54, 3, 0, 56, 1, 0, 58, 4, 4, 64, 3, 4, 64, 2, 4, 66, 1, 2, 71, 5, 5, 79, 0, 0, 81, 1, 2, 81, 1, 0, 86, 2, 2, 86, 0, 4, 89, 4, 3, 92, 5, 0, 95, 3, 2, 97, 0, 3, 99, 0, 1, 102, 1, 1, 104, 0, 2, 104, 1, 1, 105, 5, 2, 107, 5, 2, 112, 0, 0, 125, 3, 1, 127, 0, 3, 127, 1, 1, 135, 2, 1, 144, 1, 5, 145, 4, 5, 147, 1, 2, 153, 1, 3, 161, 0, 2, 163, 1, 4, 166, 5, 1, 166, 2, 3, 167, 5, 2, 170, 1, 5, 172, 0, 3, 174, 1, 2, 175, 3, 1, 175, 0, 0, 176, 2, 1, 178, 3, 3, 182, 5, 0]);
