n_res = 4;
rc = [ 30, 42, 36, 42 ];
n_tasks = 62;
d = [0, 5, 5, 5, 2, 5, 9, 6, 3, 7, 10, 5, 8, 4, 7, 5, 8, 4, 4, 7, 2, 4, 10, 2, 8, 4, 4, 1, 7, 4, 8, 10, 9, 6, 1, 7, 10, 1, 5, 8, 4, 5, 9, 4, 4, 10, 8, 6, 10, 9, 7, 2, 3, 8, 9, 6, 5, 2, 8, 7, 7, 0];
rr = array2d(1..4, 1..62, [0, 3, 10, 0, 3, 4, 7, 5, 7, 2, 2, 2, 2, 10, 1, 0, 8, 0, 6, 0, 0, 9, 0, 2, 0, 0, 0, 9, 0, 0, 0, 1, 0, 0, 3, 6, 0, 8, 0, 1, 3, 10, 4, 1, 9, 0, 0, 7, 9, 3, 3, 4, 8, 3, 8, 5, 6, 6, 9, 5, 2, 0, 0, 10, 10, 8, 0, 0, 2, 0, 0, 7, 3, 5, 0, 2, 6, 10, 1, 10, 8, 5, 7, 5, 9, 0, 0, 10, 0, 2, 0, 0, 4, 9, 8, 6, 4, 3, 9, 1, 2, 2, 3, 9, 9, 8, 3, 2, 7, 0, 5, 10, 3, 0, 1, 0, 8, 4, 8, 3, 7, 8, 0, 0, 0, 0, 4, 1, 5, 0, 2, 5, 0, 0, 0, 7, 9, 9, 10, 8, 8, 4, 6, 0, 2, 0, 4, 0, 1, 8, 1, 5, 3, 5, 7, 8, 6, 0, 4, 8, 4, 1, 5, 5, 6, 3, 4, 5, 5, 10, 0, 0, 0, 0, 2, 0, 2, 0, 9, 8, 6, 7, 10, 1, 3, 0, 0, 9, 5, 2, 0, 7, 7, 10, 2, 1, 0, 0, 3, 6, 0, 5, 1, 5, 9, 4, 6, 1, 9, 5, 10, 6, 2, 6, 2, 4, 10, 8, 10, 2, 6, 10, 2, 0, 4, 4, 0, 7, 0, 1, 7, 1, 9, 6, 10, 6, 0, 0, 8, 5, 10, 1, 0, 8, 0, 0, 7, 0]);

suc = [
   {2, 3, 4},
   {9, 10, 5},
   {18, 21},
   {16, 12, 6},
   {34, 51},
   {27, 13, 7},
   {8, 19, 14},
   {30},
   {40, 11, 15},
   {24, 58},
   {48, 22, 31},
   {43},
   {20},
   {29, 60, 21},
   {17},
   {18, 39, 23},
   {52},
   {26},
   {28, 37},
   {32},
   {45, 31},
   {24},
   {25, 47},
   {42},
   {53},
   {33},
   {56, 28},
   {50},
   {41, 42, 38},
   {52},
   {46},
   {33, 61},
   {35, 36},
   {49},
   {57, 55},
   {42},
   {61},
   {48},
   {55},
   {49},
   {45},
   {56},
   {44},
   {51},
   {46},
   {53},
   {51, 54},
   {49},
   {56},
   {53, 54},
   {55},
   {57},
   {61},
   {58},
   {59},
   {59},
   {60},
   {60},
   {62},
   {62},
   {62},
   {  } ];

deadline = array2d(1..62, 1..3, [3, 1, 4, 4, 1, 1, 6, 2, 0, 7, 0, 0, 8, 2, 4, 13, 0, 4, 14, 4, 5, 16, 0, 1, 22, 5, 1, 22, 0, 4, 23, 0, 4, 25, 4, 4, 31, 4, 1, 37, 0, 5, 44, 1, 5, 48, 5, 1, 53, 4, 2, 53, 4, 2, 54, 2, 4, 56, 3, 2, 56, 1, 4, 56, 4, 1, 58, 5, 3, 65, 2, 2, 67, 1, 3, 77, 2, 4, 80, 1, 4, 82, 1, 1, 88, 4, 1, 90, 5, 1, 94, 1, 5, 95, 1, 2, 96, 1, 3, 99, 3, 3, 100, 3, 5, 104, 3, 3, 104, 0, 5, 106, 3, 0, 106, 2, 1, 109, 4, 4, 113, 3, 5, 115, 1, 5, 116, 1, 2, 125, 1, 2, 127, 2, 1, 127, 5, 3, 136, 2, 1, 140, 2, 5, 143, 4, 1, 144, 3, 2, 147, 0, 0, 153, 0, 4, 155, 5, 4, 155, 2, 3, 158, 3, 0, 171, 0, 0, 174, 5, 5, 174, 2, 0, 174, 1, 0, 174, 2, 5, 175, 4, 3, 175, 3, 2]);
