n_res = 4;
rc = [ 26, 31, 24, 22 ];
n_tasks = 62;
d = [0, 2, 5, 8, 7, 3, 9, 8, 8, 3, 3, 4, 9, 6, 2, 7, 7, 5, 2, 5, 7, 1, 8, 9, 1, 4, 4, 5, 8, 2, 3, 8, 8, 3, 4, 4, 4, 1, 7, 6, 1, 7, 5, 10, 7, 8, 4, 3, 5, 2, 7, 4, 5, 5, 3, 9, 8, 8, 4, 2, 9, 0];
rr = array2d(1..4, 1..62, [0, 0, 0, 8, 0, 9, 0, 0, 6, 8, 0, 0, 8, 8, 6, 1, 0, 0, 0, 0, 2, 8, 10, 2, 6, 6, 4, 4, 2, 3, 0, 6, 0, 0, 0, 4, 0, 10, 0, 0, 0, 6, 8, 0, 6, 2, 0, 1, 0, 0, 5, 4, 0, 4, 0, 3, 0, 0, 5, 0, 1, 0, 0, 0, 5, 0, 6, 0, 9, 10, 0, 2, 0, 5, 0, 0, 0, 5, 9, 0, 7, 1, 0, 3, 0, 5, 4, 9, 8, 0, 9, 0, 0, 5, 8, 7, 1, 0, 9, 0, 4, 0, 5, 0, 0, 7, 0, 0, 2, 0, 0, 0, 9, 0, 1, 0, 6, 7, 10, 0, 0, 3, 5, 0, 0, 4, 9, 6, 0, 0, 1, 0, 7, 0, 9, 6, 4, 0, 0, 0, 0, 0, 0, 0, 7, 0, 0, 0, 0, 10, 3, 4, 0, 9, 0, 3, 7, 0, 1, 8, 0, 0, 5, 10, 1, 6, 6, 0, 0, 0, 0, 0, 6, 4, 4, 0, 5, 10, 2, 0, 0, 9, 0, 0, 1, 0, 0, 10, 0, 0, 5, 0, 6, 10, 0, 8, 0, 0, 0, 0, 0, 0, 0, 1, 0, 4, 2, 0, 1, 0, 8, 0, 1, 0, 10, 9, 9, 9, 0, 0, 10, 2, 0, 0, 10, 3, 0, 9, 3, 0, 0, 3, 0, 2, 0, 0, 0, 6, 0, 1, 1, 0, 4, 0, 0, 0, 0, 0]);

suc = [
   {2, 3, 4},
   {56},
   {16, 12},
   {5, 6, 7},
   {10, 54},
   {9, 26},
   {8, 11, 15},
   {22},
   {25, 19, 13},
   {36},
   {33, 44, 23},
   {18, 20, 30},
   {17, 14},
   {35, 27},
   {37},
   {24, 25, 49},
   {50},
   {40, 38, 55},
   {43, 21},
   {29},
   {56},
   {32, 47, 31},
   {34},
   {48, 52},
   {41},
   {59, 28, 36},
   {47},
   {49},
   {34, 51},
   {35},
   {48},
   {33},
   {42},
   {39},
   {49},
   {45},
   {39},
   {45},
   {56},
   {46},
   {61, 53, 47},
   {60},
   {46},
   {61},
   {46},
   {61},
   {54},
   {58},
   {51},
   {58},
   {57},
   {59},
   {54, 55},
   {57},
   {57},
   {58, 60},
   {60},
   {59},
   {62},
   {62},
   {62},
   {  } ];

deadline = array2d(1..62, 1..3, [5, 0, 1, 8, 2, 5, 14, 2, 1, 28, 4, 0, 28, 4, 1, 29, 2, 1, 31, 1, 5, 34, 3, 5, 41, 1, 4, 45, 1, 3, 45, 3, 0, 46, 3, 0, 47, 0, 0, 50, 5, 1, 54, 0, 3, 55, 1, 2, 58, 1, 0, 59, 5, 3, 59, 4, 0, 65, 1, 3, 66, 5, 1, 66, 5, 0, 68, 4, 3, 70, 4, 4, 70, 3, 5, 71, 2, 3, 72, 4, 0, 74, 2, 2, 75, 4, 4, 79, 0, 1, 79, 0, 5, 82, 4, 2, 83, 4, 4, 84, 0, 5, 84, 5, 4, 87, 0, 4, 91, 4, 1, 94, 2, 0, 97, 1, 5, 99, 1, 2, 102, 3, 1, 103, 1, 5, 103, 5, 4, 107, 4, 0, 109, 0, 3, 115, 0, 2, 116, 4, 5, 120, 5, 5, 125, 1, 3, 128, 5, 4, 129, 3, 5, 130, 0, 0, 133, 3, 4, 133, 0, 0, 136, 5, 4, 140, 1, 0, 140, 4, 1, 140, 2, 3, 141, 4, 1, 142, 4, 2, 146, 3, 2, 147, 5, 0]);
