n_res = 4;
rc = [ 32, 28, 31, 32 ];
n_tasks = 62;
d = [0, 8, 3, 8, 7, 7, 9, 9, 8, 2, 10, 6, 8, 3, 6, 10, 10, 10, 8, 9, 8, 9, 8, 7, 2, 8, 7, 6, 6, 10, 1, 3, 6, 10, 1, 10, 5, 1, 4, 3, 8, 10, 9, 9, 4, 3, 10, 1, 10, 10, 3, 4, 6, 1, 6, 5, 6, 4, 3, 8, 1, 0];
rr = array2d(1..4, 1..62, [0, 5, 0, 0, 10, 7, 8, 1, 1, 0, 0, 0, 10, 10, 2, 1, 1, 7, 7, 8, 9, 7, 1, 10, 0, 4, 8, 0, 1, 6, 4, 0, 5, 5, 3, 0, 7, 0, 0, 3, 7, 0, 0, 0, 2, 1, 2, 0, 3, 3, 2, 7, 9, 4, 10, 8, 1, 7, 1, 4, 8, 0, 0, 5, 7, 2, 0, 5, 7, 10, 6, 0, 7, 5, 3, 2, 2, 4, 9, 0, 4, 8, 0, 0, 0, 5, 10, 6, 6, 0, 4, 5, 0, 3, 2, 0, 8, 9, 10, 0, 7, 6, 6, 0, 3, 3, 9, 0, 7, 2, 0, 8, 0, 0, 2, 0, 9, 6, 5, 2, 2, 0, 0, 0, 0, 3, 9, 0, 7, 0, 9, 2, 3, 5, 3, 7, 1, 5, 10, 5, 0, 0, 1, 6, 0, 5, 8, 3, 0, 2, 0, 1, 9, 4, 0, 9, 9, 0, 4, 0, 4, 7, 4, 0, 8, 6, 5, 5, 2, 7, 0, 3, 10, 7, 2, 1, 5, 0, 4, 1, 5, 3, 10, 4, 9, 0, 0, 10, 1, 7, 6, 2, 0, 0, 8, 6, 6, 0, 8, 9, 1, 2, 6, 5, 2, 8, 10, 9, 8, 1, 0, 4, 2, 4, 1, 1, 3, 6, 6, 0, 5, 0, 2, 0, 4, 6, 6, 0, 10, 2, 1, 8, 1, 8, 10, 9, 7, 0, 5, 6, 0, 0, 4, 10, 0, 1, 0, 0]);

suc = [
   {2, 3, 4},
   {8, 19, 60},
   {17, 37, 5},
   {6, 7},
   {9, 10, 28},
   {29, 34, 13},
   {16, 51, 14},
   {11, 21},
   {12, 20, 15},
   {51},
   {35},
   {45, 39},
   {47},
   {54},
   {41, 18, 26},
   {50, 22, 23},
   {31},
   {24, 32},
   {25, 30},
   {33, 47},
   {46},
   {57, 42},
   {59, 27},
   {38},
   {40, 42},
   {36},
   {48, 38},
   {49},
   {53},
   {61},
   {43},
   {52},
   {41},
   {41},
   {39},
   {40, 58},
   {53},
   {56},
   {49},
   {44},
   {52, 53},
   {43},
   {45},
   {55},
   {46},
   {49},
   {52, 60},
   {54},
   {54},
   {55},
   {61},
   {57, 55},
   {59},
   {56},
   {56},
   {61},
   {58},
   {59},
   {62},
   {62},
   {62},
   {  } ];

deadline = array2d(1..62, 1..3, [1, 2, 2, 2, 1, 1, 3, 0, 1, 4, 4, 3, 4, 4, 2, 14, 1, 5, 15, 0, 1, 17, 4, 2, 19, 4, 4, 21, 1, 3, 23, 2, 2, 23, 2, 1, 29, 1, 5, 32, 2, 0, 33, 5, 5, 34, 4, 2, 43, 0, 4, 49, 2, 2, 52, 2, 4, 55, 3, 0, 57, 1, 3, 60, 2, 1, 67, 1, 4, 72, 2, 3, 73, 0, 4, 80, 3, 2, 81, 2, 4, 84, 5, 2, 93, 1, 5, 93, 3, 4, 97, 0, 2, 97, 0, 0, 99, 0, 0, 99, 4, 1, 102, 5, 2, 102, 3, 1, 106, 0, 0, 108, 0, 4, 110, 3, 2, 116, 5, 4, 117, 5, 2, 122, 5, 0, 124, 4, 2, 135, 5, 5, 136, 1, 0, 140, 2, 5, 146, 0, 0, 148, 0, 0, 148, 0, 5, 149, 1, 2, 164, 3, 0, 164, 0, 2, 172, 3, 1, 178, 4, 5, 182, 0, 0, 182, 1, 1, 183, 3, 1, 189, 4, 3, 194, 4, 2, 195, 3, 3, 195, 3, 3, 197, 5, 4]);
