n_res = 4;
rc = [ 20, 20, 19, 21 ];
n_tasks = 62;
d = [0, 6, 6, 4, 8, 3, 4, 10, 2, 3, 10, 4, 8, 10, 10, 7, 2, 2, 9, 5, 3, 4, 5, 8, 2, 8, 8, 6, 2, 8, 7, 2, 7, 2, 1, 3, 6, 4, 4, 10, 5, 9, 2, 6, 8, 10, 7, 3, 3, 6, 2, 8, 3, 7, 5, 7, 2, 10, 1, 2, 7, 0];
rr = array2d(1..4, 1..62, [0, 10, 10, 8, 8, 1, 2, 1, 10, 3, 8, 2, 10, 7, 10, 9, 8, 4, 8, 9, 4, 2, 1, 3, 7, 10, 3, 10, 7, 3, 3, 2, 8, 3, 6, 10, 7, 4, 4, 4, 4, 10, 5, 3, 8, 4, 7, 1, 10, 8, 3, 1, 6, 1, 5, 5, 9, 1, 5, 6, 4, 0, 0, 6, 4, 6, 6, 1, 9, 10, 10, 7, 7, 1, 5, 2, 2, 6, 3, 3, 2, 8, 7, 3, 2, 4, 6, 1, 7, 3, 3, 4, 9, 2, 5, 6, 8, 5, 10, 5, 9, 7, 5, 3, 8, 4, 3, 10, 3, 8, 7, 9, 3, 2, 10, 1, 9, 6, 9, 4, 5, 1, 3, 0, 0, 3, 3, 7, 5, 8, 7, 5, 5, 9, 3, 2, 5, 6, 7, 8, 5, 8, 7, 8, 6, 3, 4, 1, 6, 9, 8, 10, 1, 10, 8, 6, 5, 9, 5, 4, 3, 1, 5, 4, 1, 10, 6, 1, 3, 4, 2, 6, 1, 6, 10, 8, 5, 6, 1, 6, 5, 8, 9, 10, 2, 0, 0, 5, 6, 2, 6, 2, 8, 1, 3, 6, 9, 6, 1, 7, 8, 6, 5, 7, 5, 7, 7, 10, 10, 2, 7, 4, 7, 10, 5, 8, 6, 9, 8, 8, 2, 7, 10, 10, 4, 2, 2, 2, 9, 6, 7, 4, 10, 4, 10, 2, 2, 1, 4, 9, 10, 6, 4, 1, 5, 3, 4, 0]);

suc = [
   {2, 3, 4},
   {23, 6, 7},
   {33, 39, 15},
   {8, 20, 5},
   {61},
   {9, 10, 13},
   {42},
   {11, 21, 14},
   {34, 30},
   {18, 12, 15},
   {17, 27, 30},
   {38},
   {16, 28, 22},
   {17, 19, 47},
   {24, 30},
   {41},
   {24, 43, 37},
   {29, 31},
   {41, 44, 37},
   {40, 25, 29},
   {35},
   {51, 36},
   {51, 47},
   {26},
   {36, 37},
   {31},
   {48, 29, 39},
   {33, 36, 45},
   {32, 50, 45},
   {50, 58},
   {45},
   {34, 51},
   {34},
   {54},
   {61, 47},
   {49, 43, 46},
   {48},
   {43},
   {42},
   {42},
   {57},
   {54},
   {50, 44, 58},
   {56, 53},
   {54},
   {58},
   {48},
   {59, 60},
   {53, 55},
   {52},
   {60, 61},
   {53, 55},
   {57},
   {55},
   {56, 57},
   {59},
   {60},
   {59},
   {62},
   {62},
   {62},
   {  } ];

deadline = array2d(1..62, 1..3, [2, 1, 3, 4, 4, 0, 6, 5, 1, 7, 0, 0, 13, 5, 3, 19, 2, 1, 21, 2, 3, 25, 0, 1, 27, 2, 0, 29, 4, 2, 43, 2, 2, 45, 1, 5, 46, 2, 2, 46, 4, 2, 48, 0, 5, 48, 4, 2, 48, 5, 5, 55, 1, 5, 56, 2, 1, 60, 2, 5, 64, 5, 5, 72, 2, 0, 72, 4, 4, 75, 1, 2, 81, 3, 0, 86, 0, 0, 91, 3, 0, 92, 5, 0, 94, 3, 0, 96, 4, 3, 99, 2, 2, 100, 5, 4, 100, 1, 0, 103, 0, 4, 106, 3, 2, 110, 3, 1, 120, 3, 4, 125, 0, 1, 125, 0, 2, 125, 2, 3, 128, 2, 0, 128, 5, 3, 129, 3, 3, 134, 4, 1, 140, 3, 4, 144, 5, 5, 145, 4, 0, 145, 5, 1, 147, 0, 0, 148, 2, 0, 149, 0, 1, 155, 1, 5, 155, 0, 5, 157, 4, 2, 162, 2, 2, 162, 1, 5, 163, 4, 4, 169, 4, 0, 169, 1, 3, 179, 5, 5, 182, 3, 0, 185, 4, 2]);
