n_res = 4;
rc = [ 23, 13, 14, 20 ];
n_tasks = 62;
d = [0, 9, 8, 3, 4, 9, 4, 8, 9, 6, 1, 9, 8, 9, 7, 6, 1, 5, 2, 3, 4, 10, 3, 9, 8, 1, 3, 10, 6, 6, 6, 5, 6, 2, 7, 2, 10, 5, 6, 7, 10, 7, 5, 6, 2, 10, 6, 5, 2, 1, 5, 8, 7, 1, 2, 5, 1, 1, 3, 2, 2, 0];
rr = array2d(1..4, 1..62, [0, 0, 6, 0, 0, 7, 0, 0, 0, 9, 3, 8, 0, 0, 1, 0, 0, 0, 0, 0, 7, 0, 1, 0, 0, 0, 0, 0, 0, 0, 0, 4, 0, 0, 0, 0, 0, 0, 0, 2, 0, 7, 10, 0, 0, 6, 0, 0, 10, 2, 0, 0, 0, 0, 5, 0, 6, 0, 0, 0, 0, 0, 0, 0, 0, 0, 0, 0, 7, 8, 0, 0, 0, 0, 0, 0, 0, 8, 0, 0, 8, 0, 0, 6, 0, 0, 0, 0, 0, 0, 0, 0, 5, 0, 0, 0, 0, 0, 0, 0, 0, 0, 3, 0, 0, 0, 0, 0, 0, 0, 0, 0, 0, 3, 4, 0, 0, 3, 0, 1, 4, 0, 0, 0, 0, 0, 0, 0, 0, 0, 0, 0, 0, 0, 0, 0, 2, 0, 0, 0, 0, 0, 0, 8, 0, 0, 0, 0, 6, 6, 5, 0, 8, 4, 0, 0, 0, 9, 0, 0, 4, 0, 0, 0, 0, 0, 0, 0, 3, 0, 5, 4, 0, 0, 10, 0, 0, 0, 0, 0, 0, 0, 0, 2, 8, 0, 0, 2, 0, 8, 5, 0, 0, 0, 8, 0, 0, 0, 0, 1, 0, 0, 3, 3, 0, 0, 0, 0, 0, 8, 0, 0, 0, 6, 0, 0, 0, 0, 7, 0, 9, 4, 0, 1, 2, 0, 0, 0, 0, 1, 0, 0, 0, 0, 0, 0, 0, 0, 0, 3, 0, 0, 0, 0, 0, 0, 0, 0]);

suc = [
   {2, 3, 4},
   {57},
   {12, 55, 7},
   {21, 11, 5},
   {8, 13, 6},
   {24, 10, 20},
   {9, 37, 22},
   {33},
   {16, 49, 40},
   {27},
   {25, 26, 14},
   {42, 19, 15},
   {57},
   {43},
   {17, 45, 29},
   {43},
   {18, 28, 23},
   {34, 30, 31},
   {20},
   {36},
   {32},
   {33},
   {35},
   {30},
   {42, 28},
   {38, 39},
   {58},
   {34},
   {33},
   {47},
   {44},
   {41, 51},
   {48, 43},
   {52},
   {38},
   {56, 41},
   {48},
   {50},
   {55},
   {52},
   {54, 46},
   {60},
   {47},
   {50, 53},
   {54},
   {60},
   {50},
   {60},
   {61},
   {61},
   {54},
   {61},
   {59},
   {57, 58},
   {56},
   {58},
   {59},
   {59},
   {62},
   {62},
   {62},
   {  } ];

deadline = array2d(1..62, 1..3, [3, 1, 5, 6, 1, 1, 14, 5, 0, 16, 2, 2, 17, 0, 3, 22, 4, 5, 24, 5, 4, 26, 4, 3, 28, 4, 2, 28, 4, 4, 30, 2, 5, 32, 1, 1, 35, 3, 4, 40, 2, 0, 41, 4, 0, 42, 2, 1, 44, 5, 1, 45, 1, 2, 50, 5, 0, 51, 5, 0, 51, 4, 1, 54, 4, 2, 55, 4, 4, 60, 1, 4, 61, 1, 5, 62, 1, 2, 62, 4, 3, 63, 4, 2, 63, 5, 3, 65, 0, 4, 65, 0, 5, 66, 5, 0, 71, 2, 0, 71, 5, 4, 74, 2, 2, 74, 1, 2, 76, 0, 3, 80, 2, 0, 81, 3, 2, 82, 1, 5, 90, 2, 2, 90, 0, 5, 90, 4, 5, 91, 3, 1, 94, 1, 5, 94, 5, 3, 95, 3, 2, 96, 2, 0, 97, 5, 1, 97, 2, 1, 99, 4, 5, 101, 0, 4, 103, 5, 5, 104, 5, 4, 106, 5, 3, 111, 0, 5, 113, 4, 2, 118, 4, 3, 121, 5, 1, 122, 2, 2, 125, 2, 0, 126, 0, 4]);
