n_res = 4;
rc = [ 13, 15, 13, 16 ];
n_tasks = 62;
d = [0, 3, 1, 3, 8, 5, 6, 5, 5, 9, 2, 9, 4, 2, 3, 6, 9, 5, 1, 1, 8, 5, 3, 9, 3, 5, 6, 2, 10, 10, 1, 3, 5, 7, 4, 1, 7, 6, 8, 1, 6, 8, 6, 6, 9, 10, 7, 6, 3, 3, 6, 9, 4, 10, 7, 6, 1, 1, 8, 10, 7, 0];
rr = array2d(1..4, 1..62, [0, 0, 0, 1, 0, 7, 3, 0, 1, 0, 3, 10, 9, 0, 0, 0, 0, 0, 6, 10, 6, 10, 10, 0, 0, 0, 0, 9, 0, 0, 8, 1, 6, 0, 9, 7, 4, 0, 0, 0, 0, 0, 0, 0, 0, 0, 0, 0, 0, 0, 9, 0, 9, 0, 0, 0, 8, 0, 0, 9, 0, 0, 0, 0, 4, 7, 2, 0, 0, 8, 8, 2, 0, 0, 3, 0, 5, 10, 0, 1, 8, 0, 0, 8, 0, 8, 2, 2, 4, 0, 8, 6, 9, 0, 0, 0, 0, 0, 6, 0, 4, 2, 3, 8, 5, 1, 3, 6, 0, 1, 5, 0, 0, 0, 0, 8, 0, 6, 0, 0, 0, 0, 0, 0, 0, 3, 0, 4, 0, 1, 0, 7, 4, 0, 0, 8, 0, 5, 0, 0, 10, 0, 1, 6, 5, 0, 0, 8, 0, 5, 7, 0, 0, 10, 1, 3, 9, 0, 0, 8, 0, 1, 0, 4, 9, 2, 6, 0, 0, 4, 3, 0, 1, 9, 3, 7, 1, 10, 8, 0, 0, 2, 9, 0, 0, 0, 0, 9, 10, 7, 0, 9, 5, 0, 10, 8, 0, 1, 0, 0, 5, 0, 0, 4, 0, 0, 10, 1, 2, 6, 0, 0, 7, 3, 6, 0, 6, 6, 0, 8, 0, 0, 0, 9, 0, 0, 0, 0, 6, 10, 0, 0, 7, 6, 0, 0, 6, 0, 7, 9, 0, 8, 0, 0, 10, 0, 2, 0]);

suc = [
   {2, 3, 4},
   {8, 5, 14},
   {9, 10, 7},
   {15},
   {16, 12, 6},
   {53, 37},
   {33, 13},
   {48},
   {32, 18, 30},
   {40, 42, 11},
   {31},
   {35},
   {41, 55},
   {58, 19},
   {42, 47},
   {17, 23},
   {25, 43, 20},
   {49},
   {24, 48},
   {29, 21, 30},
   {38, 57, 22},
   {26, 27},
   {35, 28},
   {52},
   {32, 28, 36},
   {35, 46},
   {45},
   {38, 44, 30},
   {34},
   {40, 34, 59},
   {36, 37},
   {34, 59, 39},
   {44, 39},
   {49, 53, 45},
   {42, 54},
   {50, 60, 46},
   {55},
   {51, 47},
   {40},
   {41, 50, 53},
   {57},
   {56},
   {61},
   {52},
   {50},
   {48, 58, 51},
   {49, 58, 54},
   {56},
   {60},
   {51},
   {52},
   {54},
   {55},
   {61},
   {56, 57},
   {61},
   {60},
   {59},
   {62},
   {62},
   {62},
   {  } ];

deadline = array2d(1..62, 1..3, [2, 1, 3, 2, 2, 4, 5, 4, 0, 5, 3, 4, 7, 4, 5, 12, 5, 0, 13, 2, 1, 13, 1, 5, 14, 3, 0, 16, 4, 3, 25, 4, 5, 33, 4, 3, 34, 1, 0, 36, 2, 4, 41, 3, 4, 46, 5, 5, 46, 4, 0, 49, 0, 5, 59, 4, 4, 77, 1, 2, 81, 2, 2, 83, 1, 5, 85, 1, 5, 86, 4, 0, 86, 0, 0, 89, 5, 2, 101, 5, 2, 104, 1, 0, 109, 3, 3, 109, 1, 0, 117, 1, 5, 121, 4, 5, 123, 3, 1, 128, 3, 1, 129, 0, 5, 134, 1, 5, 134, 1, 1, 135, 4, 5, 138, 2, 0, 138, 3, 5, 141, 3, 0, 146, 2, 1, 146, 1, 5, 149, 1, 2, 150, 5, 0, 151, 1, 2, 155, 0, 0, 163, 1, 2, 164, 1, 5, 165, 1, 3, 170, 0, 1, 174, 5, 1, 179, 4, 2, 182, 2, 4, 183, 0, 1, 185, 3, 5, 211, 2, 2, 222, 1, 4, 224, 0, 1, 224, 1, 5, 228, 1, 1, 229, 1, 0]);
