n_res = 4;
rc = [ 37, 34, 44, 34 ];
n_tasks = 62;
d = [0, 5, 2, 9, 5, 8, 6, 3, 1, 8, 3, 5, 3, 1, 6, 8, 1, 8, 6, 2, 9, 10, 1, 8, 4, 6, 9, 4, 2, 3, 5, 9, 2, 5, 6, 7, 9, 7, 8, 6, 3, 6, 8, 3, 5, 4, 10, 5, 5, 4, 4, 1, 6, 2, 3, 2, 3, 9, 2, 10, 1, 0];
rr = array2d(1..4, 1..62, [0, 3, 9, 7, 4, 10, 1, 1, 3, 3, 0, 6, 1, 2, 8, 7, 5, 10, 7, 0, 7, 5, 0, 10, 7, 0, 2, 7, 0, 2, 0, 5, 4, 2, 5, 3, 8, 5, 0, 2, 0, 4, 9, 0, 3, 10, 9, 3, 8, 9, 4, 2, 8, 5, 3, 0, 0, 3, 3, 4, 8, 0, 0, 0, 4, 10, 6, 0, 0, 8, 9, 3, 0, 6, 7, 2, 0, 0, 6, 3, 5, 0, 1, 1, 10, 6, 5, 3, 0, 2, 0, 0, 0, 3, 0, 5, 0, 4, 0, 9, 1, 3, 6, 1, 6, 8, 9, 9, 7, 0, 0, 5, 10, 0, 5, 0, 2, 0, 5, 0, 0, 6, 3, 0, 0, 0, 3, 3, 9, 9, 1, 4, 0, 9, 6, 0, 10, 8, 3, 0, 1, 4, 8, 1, 10, 8, 5, 0, 4, 7, 6, 8, 0, 9, 6, 0, 4, 9, 0, 9, 0, 0, 9, 7, 0, 1, 0, 5, 0, 8, 5, 1, 2, 5, 3, 4, 0, 0, 5, 10, 8, 3, 6, 9, 3, 0, 0, 10, 9, 6, 0, 9, 1, 1, 5, 0, 10, 7, 10, 0, 2, 7, 8, 0, 1, 2, 10, 9, 7, 5, 0, 0, 0, 0, 10, 7, 10, 0, 10, 10, 6, 4, 3, 0, 0, 5, 3, 5, 1, 10, 7, 6, 6, 2, 1, 6, 8, 5, 2, 3, 9, 0, 7, 4, 5, 6, 10, 0]);

suc = [
   {2, 3, 4},
   {9, 6, 7},
   {32, 56, 61},
   {40, 11, 5},
   {8, 10},
   {28, 45, 15},
   {58, 51, 28},
   {24, 26, 19},
   {26, 34, 21},
   {16, 12, 28},
   {17, 13, 14},
   {32, 48, 36},
   {25, 18, 15},
   {41, 20},
   {29, 39},
   {24, 49, 23},
   {49, 18, 29},
   {21},
   {22},
   {31, 23},
   {57, 27, 54},
   {35, 30, 31},
   {36, 29},
   {43, 34, 27},
   {44},
   {41, 30},
   {36, 46, 39},
   {32, 44, 30},
   {33, 34},
   {56, 33, 50},
   {33, 42, 37},
   {38},
   {38, 47},
   {57, 46, 47},
   {48, 41, 37},
   {58, 38},
   {44, 52, 39},
   {55},
   {58},
   {48, 42, 45},
   {42, 43},
   {54, 46},
   {53, 45},
   {57, 50, 53},
   {47},
   {50, 51},
   {52},
   {49, 51, 52},
   {54, 55},
   {60},
   {61, 53},
   {61},
   {56, 55},
   {59},
   {59},
   {60},
   {60},
   {59},
   {62},
   {62},
   {62},
   {  } ];

deadline = array2d(1..62, 1..3, [3, 3, 0, 4, 4, 5, 8, 4, 4, 9, 3, 3, 11, 2, 3, 11, 5, 4, 12, 4, 1, 14, 3, 5, 14, 0, 3, 20, 2, 5, 20, 1, 4, 21, 1, 4, 25, 3, 1, 29, 0, 4, 32, 3, 3, 34, 5, 0, 36, 5, 1, 40, 3, 0, 45, 3, 4, 50, 5, 2, 50, 0, 3, 50, 1, 5, 51, 3, 0, 53, 0, 4, 55, 5, 5, 56, 5, 0, 56, 4, 3, 58, 2, 5, 59, 4, 4, 63, 2, 3, 64, 0, 1, 64, 4, 5, 66, 4, 2, 68, 5, 2, 69, 0, 2, 70, 4, 4, 82, 0, 3, 92, 4, 1, 94, 4, 1, 97, 0, 5, 100, 0, 0, 105, 4, 2, 109, 4, 1, 110, 5, 3, 114, 5, 3, 115, 3, 0, 118, 3, 3, 119, 2, 0, 122, 4, 0, 129, 0, 1, 129, 3, 1, 130, 0, 0, 143, 1, 4, 149, 5, 5, 159, 3, 1, 161, 0, 0, 164, 2, 5, 164, 4, 2, 166, 4, 2, 170, 5, 0, 173, 2, 1, 184, 3, 1]);
