n_res = 4;
rc = [ 66, 60, 69, 65 ];
n_tasks = 62;
d = [0, 2, 3, 6, 9, 5, 4, 9, 10, 8, 8, 7, 1, 7, 6, 5, 10, 4, 2, 9, 7, 10, 8, 3, 10, 3, 2, 9, 8, 3, 6, 2, 8, 8, 8, 5, 2, 10, 2, 10, 8, 10, 5, 2, 3, 3, 8, 3, 1, 2, 7, 5, 9, 3, 8, 1, 4, 5, 3, 5, 6, 0];
rr = array2d(1..4, 1..62, [0, 4, 6, 10, 5, 9, 10, 9, 1, 2, 2, 6, 8, 7, 7, 5, 10, 7, 8, 1, 8, 5, 2, 1, 3, 7, 10, 2, 10, 4, 3, 7, 8, 6, 7, 9, 4, 10, 10, 8, 4, 1, 6, 9, 8, 8, 9, 3, 6, 3, 6, 9, 1, 8, 6, 3, 5, 5, 7, 5, 6, 0, 0, 10, 8, 5, 2, 10, 6, 2, 3, 3, 3, 9, 5, 6, 1, 4, 4, 2, 1, 8, 7, 7, 6, 5, 10, 10, 8, 5, 2, 4, 2, 2, 2, 4, 2, 2, 4, 2, 5, 8, 1, 6, 7, 4, 1, 5, 7, 2, 1, 10, 7, 5, 6, 10, 5, 9, 6, 5, 1, 6, 2, 0, 0, 7, 8, 6, 6, 1, 1, 6, 7, 6, 3, 9, 7, 9, 5, 5, 8, 2, 7, 5, 10, 2, 8, 4, 3, 2, 4, 8, 7, 9, 9, 2, 6, 4, 7, 6, 3, 3, 7, 7, 1, 6, 5, 10, 1, 10, 8, 6, 5, 10, 3, 10, 7, 7, 6, 9, 2, 6, 2, 6, 3, 0, 0, 5, 5, 3, 10, 5, 4, 9, 9, 1, 4, 3, 3, 9, 7, 5, 2, 6, 3, 3, 4, 3, 9, 6, 3, 2, 10, 4, 7, 5, 6, 2, 9, 2, 1, 6, 5, 4, 8, 3, 3, 6, 7, 4, 4, 3, 5, 6, 6, 9, 8, 1, 8, 1, 8, 9, 9, 1, 3, 10, 6, 0]);

suc = [
   {2, 3, 4},
   {9, 5, 7},
   {16, 34, 13},
   {49, 12, 14},
   {27, 6, 15},
   {10, 20, 21},
   {8, 28, 44},
   {59},
   {11},
   {31},
   {25, 29, 54},
   {24, 17, 26},
   {18, 22},
   {17},
   {42, 19, 45},
   {19},
   {56},
   {36},
   {30},
   {46},
   {58},
   {40, 29, 23},
   {31},
   {41},
   {32},
   {40},
   {58},
   {49, 57},
   {41},
   {40, 33},
   {39},
   {47},
   {35, 38},
   {47},
   {37, 46},
   {49, 39},
   {50, 43},
   {50, 59, 53},
   {43},
   {41},
   {43},
   {48, 44},
   {52},
   {51},
   {60},
   {60},
   {52},
   {61},
   {61},
   {55},
   {52},
   {53},
   {57},
   {56},
   {57},
   {61},
   {60},
   {59},
   {62},
   {62},
   {62},
   {  } ];

deadline = array2d(1..62, 1..3, [6, 2, 4, 8, 2, 4, 13, 3, 5, 17, 1, 0, 19, 5, 2, 22, 1, 1, 23, 0, 2, 31, 4, 5, 35, 3, 0, 36, 5, 0, 37, 3, 0, 38, 1, 0, 43, 3, 4, 47, 3, 0, 48, 4, 3, 49, 5, 0, 49, 0, 2, 55, 3, 2, 58, 0, 3, 59, 5, 2, 62, 3, 2, 62, 5, 4, 65, 0, 5, 67, 1, 2, 69, 5, 5, 73, 1, 2, 75, 5, 4, 77, 0, 2, 81, 2, 1, 83, 4, 3, 87, 1, 3, 87, 4, 4, 89, 2, 2, 90, 3, 1, 91, 4, 1, 91, 4, 5, 92, 3, 2, 103, 0, 5, 104, 3, 4, 104, 2, 2, 110, 2, 2, 111, 5, 0, 114, 5, 1, 114, 5, 1, 117, 3, 4, 117, 1, 4, 123, 4, 0, 128, 0, 0, 131, 0, 1, 136, 2, 3, 138, 3, 5, 139, 5, 1, 140, 0, 4, 141, 0, 2, 144, 3, 3, 153, 5, 5, 154, 0, 0, 157, 5, 5, 159, 4, 5, 159, 4, 3, 159, 5, 3, 167, 1, 3]);
