n_res = 4;
rc = [ 33, 32, 29, 32 ];
n_tasks = 62;
d = [0, 8, 5, 8, 6, 3, 9, 8, 2, 10, 10, 6, 8, 2, 10, 10, 9, 7, 5, 4, 3, 2, 10, 10, 3, 8, 3, 8, 8, 7, 2, 8, 8, 5, 2, 9, 10, 9, 1, 4, 9, 9, 6, 4, 2, 2, 10, 2, 1, 3, 2, 10, 1, 8, 4, 9, 3, 10, 7, 1, 9, 0];
rr = array2d(1..4, 1..62, [0, 6, 4, 7, 4, 1, 8, 10, 7, 10, 10, 5, 9, 9, 10, 8, 6, 3, 8, 2, 2, 4, 10, 7, 1, 6, 6, 9, 3, 8, 10, 6, 1, 7, 3, 6, 7, 1, 1, 8, 7, 9, 7, 8, 2, 1, 8, 3, 5, 7, 7, 9, 10, 4, 10, 7, 8, 3, 3, 5, 7, 0, 0, 2, 10, 3, 5, 10, 2, 10, 7, 4, 2, 9, 8, 10, 6, 7, 8, 1, 2, 6, 7, 10, 10, 5, 7, 3, 2, 10, 1, 8, 6, 3, 1, 8, 6, 10, 5, 5, 10, 8, 5, 5, 2, 6, 10, 4, 1, 8, 6, 3, 4, 4, 9, 10, 8, 10, 4, 8, 10, 7, 8, 0, 0, 7, 1, 7, 3, 2, 10, 3, 3, 4, 1, 4, 10, 6, 2, 10, 5, 5, 10, 9, 8, 3, 10, 5, 5, 6, 4, 3, 6, 7, 5, 3, 6, 1, 1, 2, 5, 9, 4, 1, 3, 2, 9, 9, 9, 3, 6, 2, 1, 5, 7, 6, 4, 2, 1, 9, 8, 3, 3, 3, 7, 0, 0, 3, 7, 3, 5, 10, 5, 6, 3, 10, 6, 6, 2, 6, 1, 7, 10, 8, 7, 6, 5, 7, 9, 4, 3, 4, 1, 9, 2, 3, 9, 2, 10, 3, 3, 7, 9, 4, 1, 2, 8, 5, 5, 10, 7, 5, 5, 1, 6, 3, 3, 7, 1, 9, 7, 3, 8, 7, 4, 3, 2, 0]);

suc = [
   {2, 3, 4},
   {10, 5, 6},
   {41, 27, 14},
   {16, 9, 15},
   {8, 57, 7},
   {27, 59, 19},
   {17, 20, 13},
   {45, 46},
   {11, 30},
   {11, 12, 61},
   {37, 29, 47},
   {40, 49, 34},
   {43},
   {17, 44},
   {32, 28},
   {18, 27},
   {26, 35, 21},
   {28},
   {25, 35, 31},
   {24, 22},
   {31},
   {23},
   {42, 29, 39},
   {55},
   {29},
   {30},
   {35},
   {33, 36, 46},
   {60},
   {42, 53, 55},
   {54},
   {38},
   {47},
   {48, 44},
   {58, 54},
   {50},
   {40, 43, 38},
   {48, 45},
   {46},
   {51},
   {42, 50, 47},
   {59},
   {49, 58},
   {57, 52, 55},
   {49, 52},
   {54},
   {48},
   {58, 51, 53},
   {53},
   {57, 51, 61},
   {52},
   {56},
   {56},
   {61},
   {56},
   {59},
   {60},
   {60},
   {62},
   {62},
   {62},
   {  } ];

deadline = array2d(1..62, 1..3, [3, 4, 2, 3, 2, 5, 10, 4, 3, 14, 0, 3, 14, 2, 2, 23, 5, 4, 24, 2, 5, 26, 3, 4, 29, 2, 3, 29, 1, 1, 34, 1, 1, 38, 0, 0, 40, 5, 4, 40, 1, 3, 46, 4, 1, 55, 1, 3, 55, 3, 4, 56, 1, 1, 61, 3, 4, 70, 2, 5, 73, 4, 2, 84, 5, 2, 86, 4, 1, 86, 4, 0, 90, 0, 0, 90, 5, 0, 91, 5, 4, 99, 4, 4, 109, 2, 2, 118, 2, 3, 118, 5, 0, 119, 0, 0, 132, 3, 2, 133, 1, 0, 137, 3, 4, 139, 2, 3, 141, 5, 4, 143, 0, 2, 144, 4, 2, 146, 4, 4, 149, 3, 0, 151, 5, 2, 156, 0, 5, 156, 2, 2, 164, 1, 4, 167, 4, 3, 168, 3, 0, 168, 1, 5, 168, 4, 5, 172, 2, 5, 174, 1, 3, 179, 0, 5, 179, 0, 4, 182, 2, 2, 183, 4, 4, 183, 0, 4, 184, 0, 5, 188, 3, 4, 191, 1, 0, 192, 2, 1, 194, 5, 1, 195, 2, 0]);
