n_res = 4;
rc = [ 36, 38, 30, 19 ];
n_tasks = 62;
d = [0, 8, 9, 8, 8, 9, 9, 8, 8, 2, 7, 9, 7, 9, 4, 10, 5, 2, 2, 5, 8, 8, 4, 1, 10, 7, 7, 8, 10, 1, 5, 3, 9, 2, 9, 2, 10, 6, 10, 1, 1, 8, 8, 1, 3, 3, 8, 4, 9, 10, 2, 4, 9, 9, 2, 3, 3, 2, 5, 3, 6, 0];
rr = array2d(1..4, 1..62, [0, 0, 1, 7, 1, 4, 10, 3, 3, 3, 0, 0, 1, 0, 6, 9, 1, 2, 0, 0, 2, 3, 0, 10, 10, 0, 0, 1, 0, 2, 0, 8, 6, 0, 3, 0, 0, 1, 0, 0, 8, 9, 6, 6, 5, 0, 7, 0, 0, 6, 5, 0, 2, 0, 2, 2, 6, 0, 4, 0, 0, 0, 0, 2, 0, 10, 0, 0, 0, 0, 3, 0, 10, 0, 0, 5, 6, 0, 0, 0, 1, 3, 9, 5, 0, 0, 2, 6, 0, 7, 1, 1, 0, 9, 4, 2, 0, 5, 10, 0, 0, 10, 0, 8, 6, 0, 10, 0, 0, 6, 8, 5, 0, 0, 7, 2, 8, 0, 3, 0, 0, 0, 1, 0, 0, 0, 3, 0, 2, 0, 5, 0, 8, 0, 6, 3, 0, 8, 0, 0, 0, 0, 0, 2, 7, 0, 2, 0, 8, 0, 1, 7, 0, 0, 8, 0, 10, 5, 0, 0, 3, 0, 8, 0, 5, 0, 0, 2, 7, 1, 0, 1, 4, 0, 0, 9, 5, 10, 0, 0, 0, 7, 5, 1, 6, 0, 0, 4, 6, 7, 0, 4, 10, 9, 0, 0, 0, 0, 0, 0, 0, 0, 0, 4, 1, 0, 0, 1, 0, 4, 0, 0, 2, 0, 0, 10, 0, 0, 0, 2, 0, 9, 0, 3, 7, 0, 0, 0, 0, 0, 0, 0, 0, 0, 9, 0, 1, 0, 0, 0, 4, 1, 5, 0, 0, 0, 3, 0]);

suc = [
   {2, 3, 4},
   {13, 12, 5},
   {43},
   {49},
   {21, 6, 7},
   {8, 14, 15},
   {9, 36, 44},
   {25, 42, 22},
   {27, 10, 11},
   {20, 30, 55},
   {33, 18, 29},
   {35, 21},
   {16, 19, 23},
   {17, 45, 30},
   {18, 43, 28},
   {32},
   {24, 26},
   {51},
   {37, 35, 21},
   {58},
   {24},
   {41, 26, 38},
   {60},
   {34},
   {60},
   {49, 58, 35},
   {45},
   {39},
   {38, 31},
   {46, 39},
   {59, 47},
   {40, 41},
   {41, 49, 39},
   {42, 43},
   {54},
   {45},
   {42, 50},
   {56},
   {48, 57},
   {44, 54, 55},
   {56, 46},
   {44, 46},
   {50, 53},
   {58, 51},
   {53},
   {48},
   {54},
   {52},
   {57, 51},
   {52, 60, 55},
   {52, 53},
   {61},
   {56},
   {57},
   {59},
   {61},
   {61},
   {59},
   {62},
   {62},
   {62},
   {  } ];

deadline = array2d(1..62, 1..3, [5, 2, 1, 6, 0, 3, 6, 5, 5, 12, 1, 5, 16, 0, 4, 21, 3, 0, 26, 0, 0, 27, 1, 1, 27, 5, 3, 30, 4, 0, 35, 4, 4, 39, 1, 0, 44, 3, 2, 47, 4, 2, 48, 0, 3, 48, 5, 5, 51, 3, 1, 53, 2, 4, 60, 4, 2, 61, 4, 4, 78, 4, 5, 78, 1, 1, 80, 2, 3, 84, 5, 3, 89, 0, 2, 100, 2, 3, 102, 5, 3, 114, 3, 5, 115, 3, 3, 118, 2, 5, 124, 5, 5, 127, 2, 1, 129, 4, 3, 133, 4, 0, 135, 3, 1, 136, 3, 5, 142, 2, 4, 143, 3, 2, 143, 4, 4, 145, 4, 3, 146, 1, 4, 151, 4, 2, 152, 2, 3, 152, 4, 1, 153, 2, 3, 156, 5, 0, 158, 0, 1, 159, 2, 2, 160, 0, 5, 164, 3, 1, 165, 2, 0, 165, 3, 4, 169, 3, 2, 170, 2, 2, 172, 2, 2, 185, 4, 3, 187, 2, 2, 191, 1, 5, 197, 3, 1, 198, 4, 2, 198, 0, 5, 201, 2, 5]);
