n_res = 4;
rc = [ 37, 25, 34, 34 ];
n_tasks = 62;
d = [0, 10, 2, 2, 10, 4, 7, 4, 8, 4, 6, 5, 7, 8, 3, 3, 4, 8, 7, 5, 1, 6, 4, 5, 4, 1, 6, 4, 6, 2, 5, 5, 4, 1, 2, 7, 8, 10, 1, 9, 6, 3, 10, 3, 3, 1, 7, 7, 3, 10, 4, 10, 4, 8, 1, 6, 10, 5, 9, 7, 10, 0];
rr = array2d(1..4, 1..62, [0, 9, 6, 3, 10, 9, 8, 6, 3, 6, 2, 9, 2, 4, 8, 0, 5, 0, 0, 2, 0, 7, 10, 5, 4, 8, 0, 2, 0, 6, 7, 8, 0, 7, 8, 7, 7, 8, 0, 0, 10, 0, 10, 8, 7, 10, 8, 3, 3, 5, 8, 10, 5, 6, 7, 9, 5, 4, 0, 5, 0, 0, 0, 1, 3, 1, 8, 0, 3, 1, 9, 0, 7, 9, 1, 0, 0, 4, 5, 3, 1, 6, 6, 3, 3, 7, 6, 0, 2, 0, 4, 7, 3, 8, 6, 0, 9, 0, 0, 0, 2, 4, 0, 4, 1, 0, 6, 4, 4, 9, 4, 2, 5, 4, 3, 6, 6, 6, 0, 9, 10, 9, 4, 0, 0, 7, 0, 5, 3, 8, 0, 0, 1, 5, 9, 10, 7, 2, 10, 7, 0, 1, 7, 7, 0, 0, 10, 4, 4, 10, 0, 0, 7, 0, 1, 9, 4, 0, 0, 6, 0, 0, 0, 1, 4, 6, 0, 2, 8, 7, 0, 4, 8, 10, 6, 7, 9, 0, 0, 7, 10, 0, 6, 4, 0, 0, 0, 5, 0, 6, 0, 3, 1, 6, 7, 10, 9, 6, 0, 9, 0, 8, 1, 5, 0, 6, 4, 1, 1, 0, 0, 10, 0, 9, 10, 0, 9, 0, 2, 0, 0, 6, 0, 2, 9, 8, 9, 3, 2, 9, 0, 10, 2, 7, 8, 3, 9, 2, 5, 5, 10, 6, 2, 7, 3, 6, 1, 0]);

suc = [
   {2, 3, 4},
   {8, 18, 5},
   {10, 20, 37},
   {7},
   {11, 12, 6},
   {32, 13, 15},
   {9, 14, 17},
   {57, 19},
   {34, 43, 47},
   {27, 21, 22},
   {43, 53},
   {32},
   {16, 54, 23},
   {40, 53, 39},
   {29, 43, 21},
   {44, 39, 31},
   {48, 22},
   {24, 31},
   {30},
   {58},
   {48, 33},
   {33, 26, 28},
   {25, 44, 38},
   {27, 38},
   {61},
   {42},
   {36},
   {49, 36},
   {56, 34},
   {32, 45, 46},
   {34, 35},
   {42, 55},
   {41, 39},
   {38},
   {36},
   {57},
   {56},
   {40, 53},
   {50, 47},
   {41},
   {50},
   {44, 52, 47},
   {51, 55},
   {60},
   {49, 50},
   {56, 52},
   {61},
   {49, 51},
   {52},
   {51},
   {59},
   {59, 60, 54},
   {57},
   {61},
   {58},
   {58},
   {59},
   {60},
   {62},
   {62},
   {62},
   {  } ];

deadline = array2d(1..62, 1..3, [5, 3, 3, 9, 3, 0, 9, 4, 5, 17, 0, 5, 19, 4, 0, 24, 1, 5, 30, 3, 3, 33, 2, 5, 34, 3, 2, 35, 0, 0, 36, 3, 4, 36, 3, 0, 37, 5, 0, 44, 5, 3, 45, 2, 0, 48, 4, 3, 56, 0, 0, 57, 0, 4, 58, 1, 5, 61, 3, 0, 64, 0, 2, 86, 1, 0, 91, 5, 3, 94, 2, 0, 95, 3, 0, 98, 5, 0, 98, 4, 3, 100, 3, 2, 102, 2, 4, 103, 3, 4, 115, 5, 4, 118, 3, 3, 123, 2, 2, 129, 1, 2, 129, 4, 1, 131, 5, 5, 132, 1, 4, 134, 3, 5, 140, 4, 3, 141, 5, 2, 156, 1, 2, 160, 0, 5, 165, 4, 4, 165, 3, 4, 170, 4, 4, 171, 4, 1, 172, 3, 3, 172, 2, 4, 175, 3, 1, 179, 0, 5, 180, 5, 4, 184, 1, 0, 186, 1, 5, 195, 0, 4, 198, 3, 3, 203, 3, 3, 212, 4, 3, 212, 0, 4, 215, 5, 3, 217, 4, 3, 219, 0, 2, 220, 4, 2]);
