n_res = 4;
rc = [ 50, 43, 52, 46 ];
n_tasks = 62;
d = [0, 3, 8, 8, 9, 3, 5, 8, 10, 2, 6, 8, 3, 9, 4, 2, 4, 4, 4, 8, 5, 2, 9, 3, 2, 2, 8, 9, 9, 5, 2, 1, 4, 2, 3, 6, 5, 10, 7, 5, 1, 7, 3, 10, 3, 9, 7, 2, 6, 5, 7, 7, 8, 9, 10, 3, 2, 4, 1, 7, 5, 0];
rr = array2d(1..4, 1..62, [0, 6, 0, 3, 6, 6, 3, 4, 8, 7, 1, 8, 6, 0, 8, 8, 0, 2, 4, 0, 0, 3, 10, 9, 9, 8, 3, 5, 9, 5, 9, 6, 0, 0, 9, 0, 4, 10, 0, 2, 2, 0, 0, 5, 8, 1, 4, 0, 6, 6, 9, 9, 10, 5, 8, 8, 9, 0, 4, 10, 4, 0, 0, 0, 9, 0, 0, 3, 0, 7, 0, 3, 8, 0, 0, 1, 2, 7, 10, 7, 2, 5, 0, 1, 0, 0, 10, 2, 10, 8, 2, 7, 0, 3, 0, 2, 9, 10, 7, 0, 0, 4, 2, 10, 10, 0, 8, 2, 8, 0, 6, 6, 5, 5, 6, 8, 0, 10, 3, 6, 8, 5, 3, 0, 0, 10, 4, 3, 5, 7, 5, 0, 4, 3, 5, 0, 4, 5, 10, 5, 9, 10, 5, 10, 7, 0, 7, 10, 7, 10, 8, 5, 6, 5, 0, 9, 4, 0, 5, 7, 8, 2, 0, 10, 0, 0, 4, 8, 0, 6, 1, 2, 9, 2, 0, 0, 5, 5, 2, 9, 7, 7, 1, 0, 0, 0, 0, 4, 9, 0, 0, 7, 9, 9, 4, 2, 5, 0, 7, 2, 0, 0, 9, 6, 8, 1, 0, 0, 10, 10, 9, 0, 0, 0, 3, 4, 6, 8, 7, 1, 1, 0, 3, 5, 1, 0, 6, 1, 4, 1, 0, 0, 6, 7, 5, 1, 0, 4, 0, 10, 4, 3, 6, 2, 7, 7, 8, 0]);

suc = [
   {2, 3, 4},
   {11, 12, 5},
   {10, 6, 14},
   {9, 59, 15},
   {8, 32, 7},
   {40, 31},
   {18},
   {28},
   {40, 13},
   {24, 25, 35},
   {19, 20},
   {27},
   {16, 29, 23},
   {48},
   {17, 42},
   {26, 43},
   {53, 21},
   {41, 52},
   {38, 22},
   {61},
   {57},
   {36, 31},
   {48},
   {51, 30},
   {43},
   {52},
   {34},
   {33, 49, 47},
   {54},
   {42},
   {56},
   {34},
   {50},
   {44, 53, 39},
   {50, 58, 37},
   {44},
   {46},
   {51},
   {49},
   {60},
   {49, 59},
   {43},
   {61},
   {45},
   {54},
   {57, 47},
   {59},
   {54},
   {56},
   {51},
   {55},
   {60},
   {58},
   {55},
   {57},
   {58},
   {61},
   {60},
   {62},
   {62},
   {62},
   {  } ];

deadline = array2d(1..62, 1..3, [2, 4, 1, 3, 0, 2, 4, 5, 0, 5, 4, 2, 9, 4, 0, 19, 2, 3, 21, 2, 1, 26, 3, 5, 29, 5, 0, 30, 4, 4, 30, 3, 4, 33, 4, 1, 35, 2, 5, 37, 4, 1, 37, 3, 4, 40, 0, 2, 42, 0, 3, 42, 1, 5, 42, 1, 0, 46, 5, 4, 54, 2, 4, 59, 2, 1, 65, 3, 5, 71, 4, 1, 74, 0, 3, 75, 0, 2, 76, 0, 1, 76, 3, 5, 78, 5, 2, 82, 0, 4, 84, 3, 0, 87, 1, 1, 93, 4, 1, 95, 1, 3, 95, 1, 5, 96, 1, 5, 96, 5, 0, 99, 3, 4, 103, 4, 1, 105, 4, 4, 107, 3, 4, 115, 3, 2, 116, 3, 2, 116, 3, 3, 119, 3, 0, 119, 5, 3, 121, 0, 5, 124, 2, 2, 124, 3, 4, 125, 4, 4, 130, 2, 0, 132, 0, 2, 132, 5, 4, 133, 1, 4, 135, 0, 0, 137, 3, 1, 138, 3, 0, 140, 3, 3, 147, 5, 1, 148, 1, 2, 153, 1, 0, 155, 3, 2]);
