n_res = 4;
rc = [ 63, 49, 54, 56 ];
n_tasks = 62;
d = [0, 6, 3, 9, 5, 3, 3, 8, 2, 7, 2, 3, 6, 1, 2, 10, 8, 4, 5, 6, 1, 6, 2, 1, 3, 5, 6, 7, 4, 4, 2, 4, 9, 9, 2, 8, 6, 8, 6, 3, 7, 5, 6, 8, 2, 10, 4, 10, 10, 1, 3, 1, 7, 5, 2, 6, 4, 2, 9, 6, 5, 0];
rr = array2d(1..4, 1..62, [0, 10, 3, 9, 5, 0, 7, 2, 10, 6, 5, 0, 0, 0, 1, 7, 6, 3, 10, 3, 4, 8, 8, 3, 10, 0, 5, 1, 5, 6, 0, 0, 6, 9, 8, 0, 0, 0, 3, 4, 7, 9, 8, 10, 9, 8, 0, 0, 0, 9, 1, 4, 10, 9, 0, 5, 4, 0, 5, 3, 7, 0, 0, 0, 0, 8, 4, 4, 9, 9, 4, 3, 10, 0, 6, 7, 10, 4, 1, 8, 9, 9, 0, 0, 0, 1, 0, 0, 0, 1, 5, 0, 1, 1, 8, 3, 0, 6, 6, 4, 7, 0, 0, 0, 8, 8, 9, 3, 9, 1, 0, 0, 3, 4, 1, 0, 0, 9, 3, 4, 0, 1, 3, 0, 0, 0, 4, 7, 7, 3, 2, 0, 7, 3, 4, 5, 0, 3, 6, 0, 6, 5, 0, 2, 3, 9, 0, 1, 3, 8, 5, 7, 0, 8, 7, 9, 2, 0, 9, 4, 10, 0, 6, 10, 2, 9, 10, 3, 7, 4, 9, 9, 5, 0, 2, 0, 10, 4, 4, 0, 4, 10, 0, 7, 3, 0, 0, 1, 0, 0, 10, 4, 5, 2, 9, 6, 2, 6, 4, 0, 5, 0, 0, 10, 0, 5, 3, 7, 2, 2, 10, 4, 8, 10, 6, 6, 9, 8, 3, 5, 9, 5, 1, 6, 0, 0, 0, 0, 10, 2, 2, 3, 9, 10, 5, 1, 7, 9, 10, 0, 2, 0, 7, 3, 2, 5, 5, 0]);

suc = [
   {2, 3, 4},
   {8, 5, 6},
   {17, 10, 19},
   {9, 12, 7},
   {41},
   {24, 15},
   {51, 14},
   {34},
   {35, 11, 13},
   {16, 25, 21},
   {18},
   {52},
   {26, 36, 60},
   {27, 31},
   {20},
   {37, 54},
   {31},
   {40},
   {30},
   {46, 23},
   {22},
   {47},
   {58, 28, 45},
   {54},
   {57},
   {50, 39},
   {29},
   {32, 44},
   {38, 39},
   {38},
   {40, 33, 42},
   {39},
   {48},
   {57},
   {59},
   {59},
   {56, 53},
   {45},
   {61},
   {49, 43},
   {60},
   {50, 58},
   {59, 55},
   {50, 55},
   {48, 49},
   {51},
   {48},
   {52},
   {53},
   {52},
   {54},
   {53},
   {57},
   {56},
   {60},
   {58},
   {61},
   {61},
   {62},
   {62},
   {62},
   {  } ];

deadline = array2d(1..62, 1..3, [1, 5, 3, 2, 0, 4, 2, 0, 2, 4, 2, 0, 6, 0, 1, 8, 3, 1, 9, 3, 5, 9, 2, 3, 15, 0, 3, 15, 1, 4, 19, 3, 0, 19, 5, 3, 20, 5, 4, 20, 3, 5, 26, 0, 0, 29, 4, 5, 30, 1, 3, 34, 3, 0, 35, 2, 2, 35, 1, 0, 37, 3, 2, 38, 5, 0, 47, 2, 0, 48, 5, 2, 48, 5, 4, 48, 0, 5, 48, 2, 0, 50, 0, 2, 50, 3, 2, 50, 3, 3, 54, 4, 1, 56, 0, 5, 58, 1, 5, 64, 3, 1, 65, 0, 1, 69, 3, 2, 78, 2, 3, 87, 0, 4, 87, 5, 3, 87, 3, 5, 88, 5, 1, 89, 1, 5, 89, 2, 3, 93, 1, 4, 97, 0, 5, 105, 2, 5, 110, 5, 4, 112, 2, 4, 115, 4, 0, 117, 3, 5, 118, 1, 0, 119, 2, 2, 129, 1, 5, 130, 1, 5, 130, 2, 0, 137, 4, 1, 138, 2, 3, 140, 0, 4, 144, 1, 5, 147, 5, 5, 148, 4, 1, 149, 1, 0]);
