n_res = 4;
rc = [ 33, 14, 24, 25 ];
n_tasks = 62;
d = [0, 1, 9, 3, 5, 9, 1, 5, 8, 4, 7, 8, 2, 10, 1, 3, 8, 5, 10, 10, 2, 3, 6, 4, 1, 4, 3, 3, 3, 3, 9, 9, 7, 2, 5, 4, 5, 1, 10, 2, 10, 9, 3, 4, 7, 6, 9, 4, 5, 9, 6, 5, 7, 5, 10, 3, 10, 4, 1, 5, 7, 0];
rr = array2d(1..4, 1..62, [0, 0, 0, 8, 5, 9, 4, 9, 9, 8, 2, 0, 0, 0, 0, 5, 0, 0, 0, 0, 5, 0, 4, 0, 0, 0, 2, 0, 0, 0, 6, 3, 0, 0, 0, 0, 0, 0, 0, 2, 0, 0, 1, 0, 1, 0, 0, 0, 2, 0, 0, 0, 0, 1, 0, 0, 0, 3, 0, 0, 0, 0, 0, 9, 0, 0, 0, 0, 0, 0, 0, 0, 0, 0, 0, 0, 0, 0, 0, 0, 5, 0, 0, 0, 0, 0, 0, 0, 0, 0, 0, 8, 0, 0, 0, 4, 6, 0, 6, 0, 0, 0, 0, 3, 0, 0, 0, 0, 0, 0, 0, 6, 0, 0, 0, 0, 10, 0, 9, 0, 0, 3, 0, 0, 0, 0, 0, 0, 0, 0, 0, 0, 0, 0, 0, 3, 0, 0, 0, 0, 7, 0, 0, 0, 0, 0, 0, 4, 0, 0, 0, 9, 1, 0, 0, 0, 7, 0, 0, 10, 0, 0, 4, 0, 0, 0, 0, 0, 0, 4, 10, 0, 0, 0, 9, 0, 7, 0, 0, 0, 0, 0, 5, 0, 2, 0, 0, 0, 9, 0, 0, 0, 0, 0, 0, 0, 0, 0, 9, 4, 10, 0, 0, 6, 0, 2, 0, 1, 0, 0, 4, 9, 0, 0, 0, 0, 0, 0, 0, 0, 0, 0, 0, 7, 0, 0, 10, 0, 0, 4, 0, 0, 0, 4, 0, 0, 0, 1, 0, 0, 0, 8, 0, 0, 0, 0, 0, 0]);

suc = [
   {2, 3, 4},
   {5, 6, 14},
   {10, 11, 53},
   {12, 13, 7},
   {8, 9, 21},
   {15},
   {16, 26, 28},
   {27, 47},
   {20},
   {37},
   {29},
   {19},
   {17, 22},
   {18, 61, 39},
   {17},
   {40, 31},
   {24, 33, 51},
   {32, 22, 23},
   {37},
   {57},
   {39},
   {48},
   {58, 54},
   {25, 35, 49},
   {50},
   {38},
   {36},
   {52},
   {30},
   {34},
   {38},
   {53},
   {42, 46},
   {48},
   {50},
   {43, 45},
   {48},
   {42, 45},
   {47},
   {41, 44},
   {47},
   {49, 55},
   {46},
   {46},
   {52},
   {58},
   {49, 54},
   {50},
   {60},
   {52},
   {60},
   {58},
   {54, 55},
   {57},
   {56, 59},
   {57},
   {60},
   {59},
   {62},
   {62},
   {62},
   {  } ];

deadline = array2d(1..62, 1..3, [8, 2, 3, 9, 5, 0, 16, 3, 2, 18, 4, 2, 19, 3, 2, 20, 0, 2, 20, 1, 3, 21, 5, 0, 22, 1, 3, 23, 1, 0, 25, 0, 5, 25, 4, 0, 26, 2, 0, 29, 4, 1, 30, 2, 0, 31, 0, 5, 31, 4, 3, 36, 1, 0, 38, 4, 5, 40, 2, 3, 41, 5, 2, 43, 5, 3, 47, 3, 3, 48, 4, 3, 53, 5, 5, 54, 4, 1, 56, 1, 3, 56, 1, 1, 57, 4, 3, 58, 2, 5, 59, 0, 3, 62, 4, 0, 63, 3, 1, 71, 3, 5, 80, 4, 0, 84, 5, 4, 85, 1, 2, 85, 3, 5, 88, 5, 2, 88, 0, 3, 89, 1, 4, 89, 1, 4, 93, 4, 5, 97, 4, 1, 104, 3, 2, 107, 5, 1, 107, 1, 1, 110, 0, 3, 111, 0, 0, 116, 1, 2, 122, 4, 4, 124, 1, 1, 124, 5, 2, 130, 2, 1, 130, 2, 3, 133, 2, 4, 134, 3, 5, 138, 0, 5, 140, 5, 4, 140, 3, 2, 143, 3, 4, 144, 3, 4]);
