n_res = 4;
rc = [ 12, 20, 19, 30 ];
n_tasks = 62;
d = [0, 3, 1, 9, 7, 1, 7, 2, 4, 5, 7, 3, 5, 7, 9, 1, 4, 1, 4, 6, 10, 8, 8, 3, 7, 8, 8, 6, 4, 3, 5, 8, 9, 2, 2, 1, 5, 8, 3, 10, 5, 2, 4, 2, 10, 2, 10, 10, 8, 1, 9, 7, 10, 7, 2, 4, 6, 5, 5, 5, 4, 0];
rr = array2d(1..4, 1..62, [0, 0, 0, 5, 6, 0, 0, 3, 0, 0, 0, 0, 0, 0, 0, 0, 0, 10, 0, 0, 0, 0, 0, 0, 0, 0, 0, 0, 8, 2, 0, 0, 0, 0, 0, 0, 0, 0, 4, 0, 0, 0, 5, 0, 0, 7, 0, 0, 1, 0, 0, 0, 0, 0, 0, 0, 7, 0, 0, 0, 4, 0, 0, 0, 0, 0, 0, 0, 0, 0, 0, 0, 9, 10, 2, 0, 0, 0, 10, 0, 0, 0, 0, 0, 0, 0, 0, 8, 0, 5, 0, 0, 4, 0, 0, 10, 0, 0, 0, 0, 0, 3, 0, 0, 0, 1, 1, 0, 5, 0, 0, 3, 0, 6, 1, 2, 0, 10, 0, 0, 0, 0, 0, 0, 0, 0, 7, 0, 0, 0, 9, 0, 8, 0, 0, 0, 0, 0, 9, 0, 0, 0, 0, 0, 0, 0, 6, 5, 5, 0, 4, 0, 0, 0, 0, 0, 9, 0, 0, 0, 9, 0, 0, 0, 0, 2, 0, 0, 0, 0, 0, 0, 0, 0, 5, 0, 0, 0, 0, 0, 0, 10, 6, 0, 0, 0, 0, 5, 0, 0, 0, 7, 0, 0, 0, 10, 0, 0, 0, 9, 0, 10, 0, 0, 10, 1, 3, 4, 0, 0, 0, 0, 0, 0, 0, 0, 0, 4, 0, 0, 10, 2, 0, 3, 0, 0, 6, 0, 0, 0, 0, 0, 0, 7, 0, 0, 0, 0, 0, 0, 3, 0, 0, 0, 0, 3, 0, 0]);

suc = [
   {2, 3, 4},
   {33, 23},
   {13, 5, 7},
   {8, 24, 6},
   {9, 58, 41},
   {41, 10, 11},
   {59, 21},
   {16, 18, 26},
   {12, 28, 39},
   {17, 18, 15},
   {17, 42, 37},
   {51, 14, 30},
   {44, 21, 31},
   {19, 21, 22},
   {16, 19, 20},
   {52, 29, 38},
   {50, 43, 39},
   {27, 20, 23},
   {25, 26},
   {50, 44, 55},
   {45},
   {25, 34, 55},
   {42, 28, 52},
   {36, 29, 46},
   {45, 38},
   {34, 38, 31},
   {32, 36, 31},
   {40, 46, 47},
   {32, 47, 39},
   {57, 54},
   {35},
   {48, 33, 44},
   {37},
   {50, 35},
   {40, 61, 45},
   {42, 37},
   {58, 43},
   {56, 49},
   {40, 48},
   {49},
   {43, 46, 47},
   {48, 58, 51},
   {51},
   {60},
   {52},
   {49, 60},
   {53, 55},
   {56, 53, 54},
   {54},
   {57},
   {61},
   {53},
   {57},
   {59},
   {56},
   {61},
   {60},
   {59},
   {62},
   {62},
   {62},
   {  } ];

deadline = array2d(1..62, 1..3, [3, 4, 5, 5, 3, 0, 12, 0, 0, 20, 3, 2, 23, 4, 0, 23, 4, 3, 26, 3, 2, 28, 4, 1, 29, 3, 4, 32, 0, 1, 33, 5, 5, 55, 5, 0, 55, 2, 4, 63, 2, 1, 64, 5, 1, 67, 0, 1, 69, 4, 5, 84, 0, 0, 87, 5, 4, 89, 5, 4, 96, 1, 1, 102, 4, 2, 104, 2, 4, 112, 3, 4, 113, 3, 4, 115, 2, 4, 123, 5, 0, 124, 4, 5, 125, 5, 5, 126, 2, 2, 127, 0, 4, 135, 4, 4, 138, 5, 0, 138, 1, 1, 139, 4, 2, 146, 5, 5, 147, 2, 4, 148, 4, 0, 149, 5, 5, 155, 2, 4, 160, 1, 4, 160, 0, 0, 161, 5, 4, 161, 0, 3, 161, 2, 2, 164, 2, 0, 164, 3, 1, 164, 2, 1, 169, 1, 1, 172, 0, 1, 173, 5, 1, 174, 5, 4, 179, 2, 3, 180, 5, 1, 181, 0, 1, 182, 2, 5, 184, 1, 2, 188, 2, 5, 192, 2, 0, 193, 1, 3, 195, 5, 3, 198, 0, 5]);
