n_res = 4;
rc = [ 26, 17, 17, 14 ];
n_tasks = 62;
d = [0, 10, 7, 2, 10, 10, 9, 1, 4, 1, 3, 6, 3, 9, 7, 1, 10, 8, 10, 9, 10, 2, 10, 1, 9, 2, 4, 5, 4, 6, 9, 7, 8, 6, 9, 4, 10, 1, 2, 9, 9, 2, 6, 3, 6, 7, 5, 4, 3, 6, 10, 5, 6, 7, 9, 2, 9, 3, 5, 5, 7, 0];
rr = array2d(1..4, 1..62, [0, 0, 0, 0, 0, 1, 10, 0, 3, 10, 0, 0, 0, 0, 0, 7, 0, 0, 9, 0, 0, 0, 6, 9, 0, 0, 10, 0, 8, 0, 4, 10, 0, 0, 8, 5, 10, 0, 0, 0, 3, 0, 0, 2, 0, 1, 0, 0, 0, 0, 0, 0, 0, 0, 0, 0, 0, 0, 0, 0, 0, 0, 0, 3, 0, 8, 0, 0, 0, 0, 0, 0, 0, 10, 9, 0, 1, 0, 0, 0, 0, 0, 0, 9, 0, 0, 0, 10, 0, 0, 0, 4, 0, 0, 0, 10, 0, 0, 0, 0, 2, 0, 0, 0, 0, 0, 10, 0, 8, 0, 0, 0, 0, 0, 8, 9, 0, 0, 0, 0, 0, 0, 10, 0, 0, 0, 0, 0, 7, 0, 0, 2, 0, 0, 0, 0, 0, 8, 0, 0, 4, 0, 0, 2, 10, 0, 0, 0, 0, 0, 0, 0, 0, 0, 0, 0, 8, 0, 0, 0, 0, 10, 0, 7, 0, 6, 3, 0, 0, 0, 0, 0, 0, 0, 0, 0, 0, 0, 0, 3, 3, 6, 7, 0, 0, 0, 0, 0, 4, 0, 0, 0, 0, 0, 0, 0, 1, 0, 0, 0, 0, 0, 0, 7, 0, 0, 0, 0, 0, 0, 3, 0, 0, 8, 0, 0, 0, 0, 0, 0, 0, 0, 0, 0, 0, 0, 0, 0, 0, 0, 0, 0, 0, 3, 9, 10, 4, 1, 0, 0, 4, 0, 0, 0, 0, 5, 0, 0]);

suc = [
   {2, 3, 4},
   {48, 9, 7},
   {8, 5, 6},
   {24, 27, 22},
   {50, 31, 15},
   {57, 12, 36},
   {41, 18, 28},
   {40, 41, 10},
   {26, 22, 23},
   {18, 11, 13},
   {26, 19, 14},
   {46, 19, 14},
   {16, 34, 47},
   {20, 60},
   {17, 41, 39},
   {33, 26, 49},
   {59, 29},
   {32, 36, 23},
   {48, 20},
   {21},
   {42, 30},
   {40, 25, 33},
   {27, 52},
   {45, 35, 29},
   {36, 38},
   {56, 37, 54},
   {34, 43, 37},
   {42, 35, 30},
   {51, 43, 30},
   {53},
   {56, 35, 38},
   {33, 34, 37},
   {45, 38, 39},
   {44, 39},
   {43, 55},
   {50, 47},
   {58},
   {52, 54},
   {53},
   {42, 44, 46},
   {52, 53, 47},
   {49, 45},
   {44, 46},
   {54},
   {50, 55},
   {60},
   {49, 55},
   {51},
   {51},
   {59},
   {58},
   {57, 59, 61},
   {56},
   {57},
   {61},
   {58},
   {60},
   {61},
   {62},
   {62},
   {62},
   {  } ];

deadline = array2d(1..62, 1..3, [2, 3, 0, 5, 4, 1, 9, 2, 5, 10, 3, 1, 25, 5, 3, 28, 0, 1, 29, 1, 5, 29, 1, 2, 29, 1, 4, 30, 1, 2, 33, 5, 2, 38, 3, 1, 39, 2, 5, 39, 5, 5, 42, 1, 4, 46, 0, 0, 46, 1, 4, 53, 4, 1, 55, 3, 1, 56, 4, 4, 63, 3, 4, 67, 5, 3, 68, 2, 1, 72, 1, 0, 74, 3, 2, 81, 4, 5, 93, 0, 3, 96, 5, 0, 97, 4, 2, 97, 2, 3, 98, 4, 1, 98, 4, 0, 99, 2, 1, 104, 4, 5, 109, 0, 3, 110, 3, 4, 111, 5, 3, 113, 0, 4, 113, 5, 3, 118, 4, 4, 120, 2, 2, 121, 3, 4, 127, 0, 4, 127, 0, 1, 131, 2, 5, 131, 4, 0, 132, 1, 0, 136, 1, 4, 138, 0, 0, 143, 0, 5, 151, 3, 5, 154, 5, 1, 158, 0, 5, 165, 5, 0, 166, 5, 3, 170, 3, 3, 175, 1, 3, 180, 0, 4, 183, 5, 0, 184, 3, 1, 190, 2, 2, 191, 1, 4]);
