n_res = 4;
rc = [ 36, 28, 27, 27 ];
n_tasks = 62;
d = [0, 6, 9, 10, 10, 7, 9, 3, 10, 10, 6, 5, 7, 6, 6, 10, 6, 4, 4, 4, 7, 10, 4, 4, 9, 9, 10, 7, 9, 2, 3, 8, 5, 9, 4, 9, 7, 7, 2, 2, 5, 5, 1, 9, 4, 9, 4, 8, 1, 7, 3, 10, 10, 7, 8, 3, 6, 10, 6, 8, 3, 0];
rr = array2d(1..4, 1..62, [0, 0, 7, 1, 2, 0, 0, 6, 0, 0, 10, 1, 4, 6, 0, 1, 0, 7, 0, 2, 10, 7, 0, 0, 0, 0, 6, 9, 9, 0, 2, 0, 7, 5, 0, 0, 0, 0, 0, 6, 0, 3, 0, 7, 2, 7, 1, 0, 0, 0, 0, 0, 2, 0, 1, 7, 3, 0, 0, 3, 0, 0, 0, 1, 0, 0, 0, 6, 0, 0, 0, 8, 2, 0, 0, 0, 3, 0, 0, 0, 0, 0, 7, 0, 0, 8, 0, 0, 9, 7, 0, 8, 0, 0, 4, 2, 5, 2, 7, 7, 0, 0, 9, 0, 10, 1, 0, 0, 7, 2, 0, 0, 7, 0, 0, 1, 6, 0, 8, 0, 8, 10, 2, 0, 0, 8, 0, 9, 2, 0, 0, 10, 3, 8, 0, 0, 0, 0, 0, 0, 7, 0, 3, 0, 0, 0, 1, 0, 2, 5, 0, 0, 2, 9, 2, 4, 0, 8, 0, 3, 0, 4, 8, 0, 3, 0, 0, 7, 0, 2, 9, 0, 0, 6, 2, 0, 7, 0, 1, 1, 0, 1, 9, 0, 0, 0, 0, 0, 1, 6, 0, 0, 2, 0, 0, 1, 0, 3, 9, 0, 7, 7, 1, 6, 1, 7, 0, 0, 2, 0, 1, 1, 7, 0, 0, 0, 9, 5, 0, 0, 10, 3, 8, 4, 0, 8, 0, 0, 0, 0, 0, 0, 4, 3, 8, 3, 7, 9, 0, 10, 0, 0, 0, 10, 2, 0, 4, 0]);

suc = [
   {2, 3, 4},
   {41, 11, 5},
   {13, 6, 14},
   {35, 27, 7},
   {9, 34, 17},
   {24, 10},
   {8, 18, 44},
   {30},
   {42, 20},
   {12},
   {47},
   {25, 19, 20},
   {29, 54},
   {16, 36, 15},
   {37, 22, 23},
   {49},
   {26, 28, 21},
   {32, 26, 53},
   {53, 37},
   {58, 35},
   {42, 43, 39},
   {56},
   {27},
   {31},
   {42, 52, 47},
   {40, 45, 37},
   {40, 51},
   {29},
   {38},
   {57, 34, 46},
   {33},
   {41, 34, 50},
   {41, 47},
   {56, 38, 39},
   {57, 38},
   {44, 45},
   {48},
   {59},
   {60},
   {48, 52},
   {46, 55},
   {56},
   {58, 46},
   {54},
   {49, 50, 55},
   {48},
   {51},
   {49},
   {54},
   {59, 52},
   {53, 55},
   {57},
   {58},
   {61},
   {59},
   {60, 61},
   {61},
   {60},
   {62},
   {62},
   {62},
   {  } ];

deadline = array2d(1..62, 1..3, [3, 0, 4, 3, 0, 0, 8, 1, 1, 11, 4, 1, 13, 1, 1, 13, 5, 5, 14, 0, 3, 17, 3, 4, 17, 5, 1, 20, 0, 1, 20, 1, 0, 21, 0, 4, 27, 4, 5, 29, 1, 3, 31, 0, 2, 38, 4, 3, 40, 4, 3, 41, 2, 4, 47, 5, 5, 47, 3, 3, 52, 1, 0, 57, 1, 4, 60, 0, 1, 60, 2, 3, 61, 2, 0, 64, 4, 3, 65, 0, 4, 66, 3, 0, 67, 3, 1, 73, 4, 4, 73, 5, 2, 76, 1, 1, 84, 5, 2, 90, 1, 0, 94, 0, 4, 95, 1, 5, 103, 3, 0, 105, 4, 2, 111, 3, 2, 119, 2, 4, 121, 2, 4, 122, 5, 2, 126, 0, 0, 128, 2, 1, 132, 5, 3, 132, 5, 2, 133, 5, 1, 138, 5, 0, 138, 4, 5, 139, 2, 4, 144, 0, 1, 147, 3, 3, 148, 0, 0, 150, 4, 4, 158, 2, 1, 160, 4, 1, 162, 2, 3, 166, 5, 1, 172, 5, 3, 175, 2, 5, 176, 1, 2, 184, 3, 3]);
