n_res = 4;
rc = [ 43, 30, 39, 39 ];
n_tasks = 62;
d = [0, 1, 10, 7, 1, 3, 4, 8, 7, 4, 3, 1, 4, 5, 9, 6, 4, 1, 6, 2, 7, 5, 1, 10, 9, 6, 10, 9, 7, 10, 4, 2, 10, 8, 7, 7, 4, 4, 1, 5, 1, 6, 9, 8, 9, 2, 1, 6, 4, 2, 2, 5, 9, 8, 7, 1, 2, 1, 5, 6, 8, 0];
rr = array2d(1..4, 1..62, [0, 1, 9, 7, 2, 8, 1, 3, 4, 6, 4, 9, 8, 3, 3, 7, 3, 1, 9, 8, 6, 9, 10, 8, 4, 3, 6, 3, 10, 6, 9, 9, 7, 4, 9, 8, 9, 6, 4, 10, 7, 3, 5, 7, 5, 1, 4, 2, 6, 3, 1, 9, 6, 8, 8, 10, 10, 5, 1, 9, 3, 0, 0, 1, 2, 10, 7, 7, 8, 3, 10, 10, 1, 8, 3, 8, 5, 2, 9, 7, 3, 6, 5, 8, 6, 3, 2, 6, 1, 3, 8, 2, 1, 3, 5, 1, 6, 7, 3, 10, 9, 2, 8, 2, 9, 5, 3, 3, 4, 5, 1, 3, 8, 9, 9, 1, 7, 4, 10, 10, 5, 6, 9, 0, 0, 6, 7, 2, 5, 4, 3, 9, 5, 8, 4, 2, 9, 1, 8, 6, 6, 3, 3, 3, 1, 6, 3, 6, 6, 7, 3, 4, 6, 8, 3, 9, 6, 9, 7, 10, 2, 9, 8, 7, 7, 1, 3, 7, 10, 4, 1, 7, 6, 6, 8, 1, 9, 2, 3, 1, 2, 6, 5, 6, 5, 0, 0, 2, 6, 8, 10, 6, 3, 4, 4, 7, 3, 9, 10, 1, 9, 10, 8, 5, 4, 3, 3, 3, 1, 1, 9, 10, 2, 8, 4, 1, 1, 8, 5, 3, 6, 1, 6, 2, 2, 9, 8, 8, 3, 6, 6, 4, 10, 2, 1, 4, 1, 10, 4, 2, 10, 7, 9, 6, 4, 9, 7, 0]);

suc = [
   {2, 3, 4},
   {8, 19, 7},
   {9, 5, 6},
   {10, 59},
   {25, 11, 7},
   {18, 14, 15},
   {16, 22, 31},
   {56, 20},
   {24, 32, 47},
   {12},
   {13},
   {44},
   {34, 35, 23},
   {61},
   {26, 46},
   {17},
   {41, 43, 21},
   {44},
   {22},
   {36},
   {29},
   {27},
   {40, 49},
   {33},
   {51, 38},
   {42, 30, 39},
   {28},
   {50, 52},
   {57},
   {33, 34, 53},
   {37},
   {34, 54},
   {50},
   {36, 37},
   {36},
   {48},
   {61},
   {45},
   {45},
   {56},
   {60, 55},
   {45},
   {52},
   {52},
   {57},
   {60},
   {54},
   {58},
   {50},
   {54, 55},
   {58},
   {56},
   {61},
   {58},
   {57},
   {60},
   {59},
   {59},
   {62},
   {62},
   {62},
   {  } ];

deadline = array2d(1..62, 1..3, [3, 0, 1, 5, 3, 0, 5, 4, 2, 9, 4, 0, 14, 0, 4, 17, 0, 1, 18, 4, 0, 19, 5, 2, 21, 0, 1, 28, 5, 2, 29, 2, 1, 32, 3, 3, 33, 4, 0, 40, 4, 0, 46, 2, 2, 47, 2, 2, 56, 2, 3, 60, 1, 5, 61, 3, 4, 61, 2, 5, 62, 1, 3, 65, 2, 3, 67, 2, 1, 71, 2, 2, 72, 4, 4, 73, 0, 1, 73, 2, 1, 75, 2, 4, 81, 3, 5, 81, 0, 1, 85, 5, 3, 88, 3, 2, 90, 5, 1, 94, 4, 5, 96, 3, 4, 98, 0, 3, 99, 3, 3, 101, 5, 3, 101, 0, 0, 101, 3, 3, 103, 5, 2, 104, 5, 5, 105, 4, 3, 105, 1, 3, 109, 3, 3, 110, 1, 1, 116, 5, 1, 117, 3, 3, 119, 2, 0, 128, 5, 1, 128, 2, 0, 130, 4, 4, 131, 3, 5, 133, 4, 5, 135, 5, 0, 135, 4, 3, 136, 5, 3, 142, 4, 2, 150, 3, 3, 157, 0, 0, 158, 1, 1, 162, 2, 2]);
