n_res = 4;
rc = [ 30, 37, 45, 35 ];
n_tasks = 62;
d = [0, 9, 10, 9, 4, 6, 2, 6, 10, 3, 7, 2, 1, 10, 9, 7, 3, 3, 7, 5, 6, 7, 2, 4, 8, 2, 3, 10, 6, 4, 5, 1, 1, 2, 2, 1, 9, 3, 7, 4, 9, 5, 9, 4, 2, 9, 3, 9, 6, 10, 4, 8, 8, 8, 2, 5, 9, 10, 10, 8, 7, 0];
rr = array2d(1..4, 1..62, [0, 0, 6, 1, 1, 0, 0, 0, 4, 7, 2, 0, 7, 0, 8, 0, 0, 8, 4, 0, 7, 5, 7, 8, 5, 10, 9, 8, 0, 0, 10, 0, 1, 0, 1, 0, 0, 0, 0, 5, 10, 0, 0, 1, 10, 0, 0, 0, 0, 0, 0, 0, 2, 7, 5, 0, 3, 7, 10, 10, 0, 0, 0, 0, 0, 0, 2, 0, 7, 0, 0, 0, 0, 0, 8, 0, 8, 4, 0, 1, 0, 1, 1, 3, 0, 6, 10, 6, 0, 0, 3, 4, 0, 4, 10, 2, 2, 5, 0, 4, 7, 0, 0, 0, 0, 10, 1, 2, 0, 0, 0, 4, 0, 8, 0, 0, 0, 1, 0, 10, 7, 0, 0, 0, 0, 7, 7, 0, 0, 6, 0, 0, 6, 0, 0, 5, 0, 1, 10, 4, 0, 9, 0, 0, 1, 0, 0, 2, 0, 7, 4, 5, 0, 6, 0, 8, 0, 5, 5, 3, 10, 0, 0, 0, 0, 6, 5, 0, 5, 10, 3, 0, 0, 6, 0, 0, 9, 6, 0, 0, 8, 0, 0, 4, 3, 0, 0, 2, 0, 0, 0, 6, 0, 4, 0, 1, 0, 9, 10, 8, 0, 0, 5, 2, 7, 6, 3, 0, 0, 0, 0, 0, 0, 3, 0, 0, 0, 0, 4, 0, 6, 0, 0, 9, 0, 0, 0, 3, 5, 0, 0, 7, 0, 5, 4, 7, 9, 3, 7, 8, 4, 0, 0, 0, 4, 0, 1, 0]);

suc = [
   {2, 3, 4},
   {18, 43, 12},
   {20, 5, 6},
   {34, 22, 7},
   {8, 21},
   {50},
   {9, 42, 11},
   {32, 42},
   {25, 10, 13},
   {53, 19, 37},
   {16, 24, 27},
   {51, 35},
   {28, 14, 15},
   {30},
   {17, 29},
   {37},
   {51},
   {60},
   {49},
   {33, 45, 23},
   {28, 61, 39},
   {26, 53},
   {58},
   {28},
   {57},
   {54},
   {37},
   {50},
   {32, 31},
   {51},
   {36},
   {40, 47},
   {39},
   {43},
   {48},
   {41, 44, 38},
   {56},
   {48},
   {49, 47},
   {55},
   {52},
   {56},
   {46},
   {45},
   {48},
   {50},
   {52},
   {54},
   {59},
   {59},
   {60},
   {59},
   {56},
   {58},
   {58},
   {60},
   {61},
   {61},
   {62},
   {62},
   {62},
   {  } ];

deadline = array2d(1..62, 1..3, [8, 5, 5, 11, 1, 0, 13, 2, 2, 16, 4, 1, 18, 0, 0, 19, 3, 1, 26, 2, 4, 33, 3, 3, 34, 1, 0, 35, 1, 4, 39, 1, 2, 39, 5, 5, 40, 5, 3, 42, 2, 3, 42, 3, 4, 51, 1, 2, 53, 4, 5, 63, 4, 2, 71, 0, 3, 72, 0, 0, 73, 5, 0, 73, 0, 3, 73, 0, 5, 74, 3, 1, 74, 4, 3, 76, 1, 0, 82, 0, 2, 83, 0, 1, 84, 4, 4, 87, 5, 3, 90, 2, 4, 91, 2, 2, 97, 0, 4, 99, 1, 0, 101, 4, 1, 103, 5, 4, 103, 1, 1, 103, 5, 3, 109, 1, 1, 109, 4, 5, 110, 1, 4, 110, 3, 5, 112, 4, 4, 117, 4, 0, 122, 1, 0, 137, 5, 4, 144, 1, 0, 149, 2, 1, 151, 2, 3, 162, 0, 1, 165, 2, 4, 171, 2, 0, 173, 0, 4, 183, 5, 4, 190, 5, 4, 191, 5, 4, 192, 5, 4, 198, 4, 3, 199, 4, 3, 199, 5, 3, 200, 0, 3, 206, 4, 5]);
