n_res = 4;
rc = [ 21, 21, 20, 21 ];
n_tasks = 62;
d = [0, 5, 3, 8, 4, 2, 9, 3, 2, 4, 10, 6, 4, 9, 1, 4, 6, 2, 2, 1, 7, 4, 10, 7, 8, 9, 6, 9, 8, 10, 9, 3, 4, 7, 4, 8, 7, 5, 5, 6, 7, 9, 8, 2, 3, 7, 10, 2, 5, 6, 5, 4, 6, 4, 2, 7, 1, 8, 4, 9, 6, 0];
rr = array2d(1..4, 1..62, [0, 5, 3, 5, 9, 9, 0, 0, 9, 0, 2, 5, 2, 5, 0, 0, 2, 2, 0, 0, 0, 0, 0, 0, 0, 0, 7, 5, 1, 7, 0, 5, 7, 0, 0, 0, 2, 0, 0, 6, 0, 0, 5, 0, 10, 1, 0, 7, 2, 0, 0, 0, 5, 0, 0, 0, 0, 0, 0, 0, 0, 0, 0, 7, 0, 3, 8, 0, 3, 0, 4, 8, 5, 3, 0, 0, 0, 6, 0, 0, 7, 0, 0, 0, 1, 0, 0, 3, 10, 0, 4, 2, 1, 0, 0, 3, 9, 1, 7, 0, 6, 4, 1, 6, 10, 0, 9, 0, 0, 9, 1, 5, 6, 3, 0, 7, 0, 0, 0, 0, 8, 0, 0, 0, 0, 1, 0, 6, 1, 3, 0, 6, 9, 0, 0, 3, 3, 0, 9, 6, 0, 0, 3, 0, 0, 8, 6, 6, 0, 2, 0, 0, 0, 0, 1, 4, 5, 0, 6, 0, 0, 7, 0, 3, 3, 5, 2, 6, 6, 0, 7, 0, 8, 5, 3, 0, 4, 0, 0, 8, 0, 6, 5, 0, 3, 0, 0, 0, 1, 0, 3, 2, 0, 0, 0, 0, 0, 0, 3, 0, 1, 8, 0, 0, 0, 6, 3, 1, 2, 3, 7, 0, 9, 0, 9, 0, 8, 6, 0, 8, 0, 0, 0, 0, 0, 6, 0, 0, 0, 0, 0, 8, 8, 1, 0, 0, 4, 0, 0, 4, 2, 0, 4, 0, 0, 5, 5, 0]);

suc = [
   {2, 3, 4},
   {10, 5, 6},
   {16, 61},
   {48, 18, 7},
   {49, 19, 20},
   {8, 9, 39},
   {12, 13, 14},
   {11, 22, 23},
   {24},
   {33},
   {35},
   {17},
   {27},
   {35, 28, 15},
   {33, 29},
   {32, 43, 60},
   {56, 25, 38},
   {58},
   {21, 30},
   {23},
   {26},
   {50, 27},
   {53},
   {27, 46},
   {40},
   {41, 34},
   {43},
   {47},
   {54},
   {31},
   {37},
   {38},
   {39},
   {40, 45, 39},
   {36},
   {44},
   {42},
   {42},
   {43},
   {44, 47},
   {52, 45},
   {52},
   {59},
   {51},
   {56},
   {50, 55},
   {53},
   {54},
   {52},
   {59},
   {57},
   {58},
   {54},
   {60},
   {56, 60},
   {57},
   {58},
   {59},
   {62},
   {62},
   {62},
   {  } ];

deadline = array2d(1..62, 1..3, [7, 5, 3, 10, 1, 4, 13, 0, 4, 18, 5, 5, 20, 4, 3, 24, 2, 1, 32, 5, 4, 35, 0, 3, 35, 4, 5, 42, 3, 1, 53, 2, 1, 54, 4, 0, 54, 3, 3, 58, 4, 5, 60, 3, 2, 64, 1, 1, 66, 0, 1, 69, 5, 3, 70, 5, 4, 71, 5, 5, 73, 3, 0, 82, 4, 1, 83, 4, 0, 86, 1, 3, 88, 0, 0, 91, 0, 3, 93, 5, 5, 95, 0, 2, 104, 3, 3, 107, 5, 1, 111, 1, 5, 112, 4, 4, 116, 4, 4, 116, 0, 1, 119, 4, 2, 119, 2, 2, 120, 4, 2, 121, 5, 0, 121, 2, 4, 123, 0, 2, 130, 0, 5, 130, 1, 5, 130, 5, 1, 136, 4, 5, 142, 5, 3, 142, 0, 4, 144, 4, 2, 146, 0, 1, 149, 0, 5, 151, 0, 3, 153, 5, 4, 154, 2, 5, 156, 1, 0, 159, 0, 4, 161, 4, 4, 163, 3, 4, 164, 1, 1, 167, 0, 2, 170, 4, 4, 170, 3, 5, 172, 5, 2, 177, 1, 4]);
