n_res = 4;
rc = [ 29, 34, 32, 24 ];
n_tasks = 62;
d = [0, 1, 4, 10, 7, 8, 5, 7, 5, 5, 8, 9, 3, 2, 10, 9, 3, 6, 10, 2, 5, 6, 2, 9, 10, 9, 10, 4, 10, 1, 5, 2, 4, 9, 3, 6, 4, 7, 7, 6, 3, 1, 5, 7, 7, 3, 2, 3, 10, 10, 2, 8, 6, 6, 4, 7, 9, 7, 3, 9, 5, 0];
rr = array2d(1..4, 1..62, [0, 6, 10, 5, 10, 6, 2, 6, 3, 5, 5, 8, 10, 4, 9, 8, 1, 7, 10, 6, 5, 2, 1, 9, 10, 1, 1, 2, 4, 7, 3, 5, 10, 3, 9, 6, 8, 5, 4, 9, 4, 7, 7, 10, 9, 1, 5, 5, 5, 10, 7, 1, 2, 5, 10, 8, 4, 9, 1, 5, 3, 0, 0, 2, 7, 1, 2, 8, 10, 7, 4, 3, 10, 2, 9, 1, 9, 7, 1, 10, 4, 5, 6, 6, 6, 4, 4, 5, 8, 6, 3, 1, 1, 2, 2, 7, 6, 8, 1, 7, 8, 2, 8, 9, 2, 5, 4, 3, 3, 7, 7, 8, 9, 4, 7, 7, 1, 2, 9, 5, 7, 10, 3, 0, 0, 9, 5, 10, 2, 1, 3, 1, 4, 10, 4, 5, 3, 7, 6, 8, 4, 2, 5, 1, 5, 6, 3, 6, 9, 6, 3, 8, 3, 1, 8, 5, 6, 7, 1, 5, 10, 7, 2, 8, 7, 9, 9, 8, 9, 3, 1, 4, 1, 2, 9, 3, 4, 7, 1, 7, 6, 9, 4, 2, 10, 0, 0, 8, 1, 4, 4, 8, 7, 1, 8, 5, 5, 4, 3, 2, 4, 9, 2, 5, 10, 5, 5, 5, 3, 3, 6, 1, 4, 4, 7, 7, 4, 1, 6, 4, 5, 7, 1, 4, 6, 8, 7, 8, 6, 4, 9, 2, 6, 8, 4, 6, 1, 3, 6, 5, 9, 8, 5, 3, 6, 8, 5, 0]);

suc = [
   {2, 3, 4},
   {25, 10, 5},
   {8, 11, 12},
   {11, 23, 7},
   {41, 21, 6},
   {16, 42, 13},
   {9, 10, 42},
   {29, 34, 21},
   {40, 28, 30},
   {19, 29, 14},
   {42, 51, 30},
   {44, 29},
   {26, 20, 15},
   {24, 18, 15},
   {17, 27},
   {32, 40, 58},
   {46, 28, 44},
   {32, 20, 38},
   {33, 22, 31},
   {46},
   {58, 22},
   {48, 26},
   {59, 36},
   {32, 30, 31},
   {57, 51},
   {53, 52, 45},
   {55, 47},
   {34, 36, 55},
   {33, 35, 43},
   {56, 43, 35},
   {50, 37, 38},
   {34},
   {50, 39},
   {52, 53},
   {36, 38, 39},
   {58},
   {51, 39},
   {41},
   {41},
   {43, 44},
   {47},
   {49, 46},
   {49, 45},
   {56, 45, 47},
   {50, 54},
   {48, 60},
   {48, 49, 52},
   {59},
   {60, 54},
   {55},
   {61, 53},
   {54},
   {56},
   {57},
   {57},
   {60},
   {59, 61},
   {61},
   {62},
   {62},
   {62},
   {  } ];

deadline = array2d(1..62, 1..3, [1, 1, 1, 5, 2, 1, 11, 3, 2, 14, 1, 5, 15, 1, 4, 15, 3, 3, 16, 5, 3, 17, 2, 2, 18, 2, 2, 23, 5, 2, 23, 1, 4, 26, 4, 1, 27, 1, 2, 29, 5, 4, 30, 3, 5, 32, 4, 1, 49, 3, 5, 56, 1, 1, 59, 0, 2, 61, 0, 0, 63, 0, 1, 65, 0, 3, 68, 4, 2, 71, 5, 4, 73, 3, 1, 78, 3, 0, 79, 5, 4, 82, 5, 1, 83, 2, 1, 83, 0, 1, 85, 1, 0, 98, 1, 4, 111, 0, 5, 112, 3, 4, 115, 4, 1, 117, 5, 0, 122, 0, 1, 123, 1, 0, 123, 2, 5, 130, 1, 2, 136, 5, 4, 139, 0, 0, 147, 2, 2, 154, 0, 5, 155, 5, 5, 155, 4, 4, 159, 4, 4, 163, 3, 0, 164, 0, 5, 165, 4, 1, 165, 4, 4, 170, 5, 2, 175, 2, 2, 177, 2, 3, 178, 0, 1, 179, 4, 5, 180, 5, 2, 183, 4, 4, 190, 1, 2, 196, 0, 1, 197, 1, 3, 202, 0, 0]);
