n_res = 4;
rc = [ 15, 15, 14, 16 ];
n_tasks = 62;
d = [0, 7, 6, 5, 2, 4, 7, 5, 4, 5, 7, 6, 3, 6, 8, 3, 3, 5, 8, 7, 6, 6, 10, 5, 5, 2, 4, 5, 7, 8, 2, 8, 5, 2, 4, 1, 4, 6, 8, 6, 7, 9, 3, 1, 6, 2, 4, 7, 2, 3, 9, 1, 1, 10, 4, 2, 3, 2, 5, 1, 7, 0];
rr = array2d(1..4, 1..62, [0, 7, 1, 0, 8, 0, 4, 0, 10, 0, 10, 10, 0, 0, 7, 0, 4, 0, 0, 0, 0, 7, 0, 9, 0, 0, 2, 5, 0, 0, 9, 0, 1, 6, 0, 0, 4, 4, 7, 8, 0, 0, 8, 0, 7, 0, 0, 10, 0, 4, 0, 9, 3, 4, 4, 0, 9, 4, 0, 0, 0, 0, 0, 0, 3, 10, 5, 10, 6, 1, 4, 4, 0, 9, 9, 0, 0, 8, 0, 6, 0, 0, 0, 9, 0, 0, 4, 10, 0, 10, 0, 3, 0, 0, 0, 0, 6, 4, 0, 6, 5, 0, 2, 0, 0, 0, 0, 0, 0, 0, 5, 0, 7, 0, 2, 0, 0, 0, 0, 0, 10, 3, 0, 0, 0, 0, 8, 0, 6, 0, 0, 0, 0, 8, 1, 0, 3, 0, 5, 0, 9, 1, 2, 4, 7, 0, 7, 0, 0, 0, 0, 0, 6, 0, 5, 3, 0, 10, 6, 1, 0, 0, 0, 0, 3, 0, 5, 0, 2, 3, 0, 0, 10, 8, 1, 0, 8, 4, 5, 5, 10, 10, 8, 0, 0, 0, 0, 0, 6, 5, 4, 0, 10, 2, 0, 3, 0, 0, 10, 8, 0, 0, 0, 10, 10, 2, 0, 1, 7, 7, 9, 0, 0, 0, 1, 0, 0, 2, 0, 0, 0, 0, 0, 0, 5, 0, 3, 8, 0, 7, 4, 5, 10, 5, 3, 7, 0, 0, 0, 0, 9, 4, 0, 10, 0, 3, 1, 0]);

suc = [
   {2, 3, 4},
   {29, 30},
   {25, 5, 7},
   {31, 6, 15},
   {8, 9, 13},
   {19, 20},
   {10},
   {49, 11},
   {10, 51, 39},
   {12, 14, 23},
   {18, 28, 37},
   {16, 21},
   {32, 19, 29},
   {47},
   {33, 44},
   {17},
   {48},
   {24, 58, 22},
   {57, 35},
   {34, 50},
   {49},
   {26, 38},
   {31},
   {40, 27},
   {46},
   {59},
   {47},
   {41},
   {42, 43, 61},
   {36},
   {53},
   {52, 45},
   {38},
   {46},
   {58},
   {56},
   {54, 47},
   {52},
   {56, 41},
   {44},
   {52},
   {51},
   {57},
   {45},
   {46},
   {60},
   {61},
   {58},
   {50},
   {55},
   {53},
   {59},
   {54},
   {57},
   {61},
   {60},
   {60},
   {59},
   {62},
   {62},
   {62},
   {  } ];

deadline = array2d(1..62, 1..3, [2, 4, 4, 3, 1, 4, 5, 1, 0, 9, 1, 2, 9, 1, 0, 9, 2, 2, 14, 3, 5, 15, 2, 0, 18, 3, 4, 22, 4, 2, 27, 5, 4, 29, 3, 5, 29, 1, 3, 31, 3, 2, 31, 0, 5, 32, 1, 1, 34, 3, 1, 34, 5, 4, 36, 4, 3, 40, 0, 1, 46, 0, 4, 48, 2, 2, 48, 5, 1, 52, 4, 2, 53, 4, 4, 55, 0, 5, 57, 5, 5, 60, 4, 1, 60, 1, 2, 60, 2, 0, 64, 3, 5, 66, 5, 3, 66, 3, 3, 68, 1, 4, 69, 3, 1, 71, 4, 5, 71, 2, 2, 73, 0, 3, 75, 5, 4, 79, 3, 0, 81, 5, 1, 82, 1, 5, 83, 1, 1, 83, 4, 5, 83, 5, 5, 83, 4, 4, 85, 4, 3, 87, 1, 5, 88, 3, 2, 93, 5, 5, 94, 1, 4, 94, 4, 5, 96, 5, 5, 96, 1, 1, 103, 1, 5, 104, 0, 0, 111, 2, 1, 112, 4, 5, 112, 5, 2, 113, 4, 0, 119, 2, 1, 120, 5, 0]);
