n_res = 4;
rc = [ 13, 13, 10, 14 ];
n_tasks = 62;
d = [0, 6, 2, 5, 10, 10, 5, 9, 1, 8, 6, 1, 1, 3, 2, 4, 8, 7, 5, 6, 7, 2, 10, 9, 8, 4, 5, 10, 2, 9, 8, 8, 9, 6, 4, 2, 2, 7, 8, 6, 3, 4, 8, 4, 5, 7, 1, 7, 2, 1, 7, 10, 7, 10, 4, 10, 2, 5, 9, 4, 8, 0];
rr = array2d(1..4, 1..62, [0, 0, 0, 0, 0, 6, 2, 0, 7, 0, 0, 0, 0, 1, 5, 0, 0, 0, 0, 5, 0, 0, 0, 8, 0, 0, 0, 0, 0, 3, 0, 9, 8, 0, 0, 0, 3, 8, 2, 3, 0, 1, 0, 5, 0, 0, 10, 0, 0, 0, 9, 0, 7, 0, 5, 0, 3, 0, 0, 0, 0, 0, 0, 0, 2, 1, 10, 0, 0, 0, 0, 6, 0, 7, 0, 0, 0, 0, 0, 0, 0, 0, 6, 0, 6, 0, 6, 7, 0, 3, 9, 0, 0, 0, 0, 5, 0, 2, 0, 0, 0, 0, 0, 0, 0, 0, 7, 0, 0, 0, 0, 0, 0, 0, 0, 4, 0, 0, 0, 0, 0, 9, 0, 0, 0, 0, 0, 0, 0, 0, 0, 5, 0, 0, 4, 0, 4, 0, 0, 9, 0, 0, 0, 0, 0, 0, 0, 0, 0, 0, 0, 0, 0, 0, 3, 0, 0, 0, 5, 0, 0, 0, 0, 0, 0, 0, 0, 0, 0, 8, 0, 8, 3, 5, 0, 4, 0, 0, 0, 9, 0, 3, 0, 0, 7, 0, 0, 7, 0, 0, 0, 0, 0, 0, 0, 0, 0, 0, 0, 0, 0, 0, 3, 6, 6, 0, 0, 8, 0, 0, 0, 0, 10, 0, 0, 0, 0, 0, 0, 0, 0, 0, 0, 0, 0, 0, 4, 0, 9, 0, 0, 0, 0, 0, 0, 0, 0, 0, 0, 0, 0, 0, 0, 0, 4, 0, 0, 0]);

suc = [
   {2, 3, 4},
   {10, 46},
   {11, 5, 6},
   {48, 52, 7},
   {17, 27, 14},
   {8, 9, 13},
   {34, 12, 30},
   {17, 34, 23},
   {50, 37, 29},
   {37, 20, 28},
   {16, 37, 31},
   {18, 19, 45},
   {21, 15},
   {41, 26, 22},
   {36, 31},
   {25, 35, 28},
   {33, 45, 49},
   {59, 36},
   {40, 41},
   {40, 21},
   {42, 39, 23},
   {44, 29, 38},
   {24, 50, 29},
   {26, 35},
   {32, 26, 38},
   {33, 43, 45},
   {32, 51, 47},
   {43, 30, 39},
   {33, 60, 30},
   {56},
   {35, 38},
   {36, 55},
   {54, 47},
   {40, 42},
   {51, 44, 55},
   {41},
   {51, 43, 39},
   {48, 58, 46},
   {56},
   {49, 53},
   {46},
   {49, 53},
   {44, 52},
   {57, 47},
   {58, 53},
   {61},
   {48},
   {61},
   {50, 54, 55},
   {57},
   {52},
   {57, 54},
   {61},
   {56},
   {60},
   {58},
   {59, 60},
   {59},
   {62},
   {62},
   {62},
   {  } ];

deadline = array2d(1..62, 1..3, [4, 3, 2, 10, 0, 2, 11, 0, 4, 13, 3, 4, 19, 1, 4, 21, 5, 1, 25, 3, 2, 27, 0, 5, 29, 0, 5, 30, 0, 4, 37, 2, 5, 40, 4, 1, 52, 3, 4, 54, 3, 0, 64, 4, 4, 66, 4, 4, 79, 4, 5, 82, 2, 2, 92, 0, 2, 93, 5, 1, 98, 3, 3, 99, 3, 3, 100, 1, 1, 106, 3, 4, 107, 3, 2, 109, 2, 1, 112, 3, 5, 125, 1, 4, 131, 1, 2, 131, 4, 2, 132, 3, 1, 142, 0, 4, 146, 1, 0, 149, 1, 2, 149, 4, 1, 157, 2, 5, 163, 2, 4, 166, 4, 2, 173, 5, 4, 174, 3, 0, 179, 5, 0, 181, 1, 0, 181, 0, 3, 183, 1, 2, 186, 4, 4, 192, 0, 1, 194, 3, 5, 197, 4, 3, 197, 1, 1, 199, 5, 0, 200, 5, 5, 212, 0, 2, 220, 3, 1, 220, 3, 4, 221, 4, 3, 229, 0, 4, 230, 5, 2, 237, 1, 1, 240, 1, 1, 245, 2, 5, 245, 3, 0, 251, 3, 0]);
