n_res = 4;
rc = [ 40, 40, 38, 42 ];
n_tasks = 62;
d = [0, 5, 8, 6, 2, 8, 1, 7, 9, 3, 1, 5, 6, 6, 9, 9, 7, 1, 4, 10, 7, 1, 10, 1, 3, 5, 4, 1, 9, 8, 4, 8, 10, 6, 3, 8, 1, 9, 7, 6, 10, 4, 10, 5, 2, 10, 10, 2, 8, 3, 7, 3, 8, 4, 4, 3, 2, 9, 1, 2, 10, 0];
rr = array2d(1..4, 1..62, [0, 8, 10, 1, 1, 3, 1, 9, 3, 5, 4, 2, 9, 1, 9, 8, 8, 1, 4, 6, 8, 3, 7, 9, 8, 5, 1, 9, 2, 1, 6, 6, 9, 3, 9, 5, 8, 2, 10, 5, 3, 8, 5, 5, 8, 8, 5, 8, 7, 5, 1, 10, 7, 10, 10, 6, 6, 9, 3, 5, 4, 0, 0, 9, 2, 9, 1, 1, 6, 10, 5, 9, 4, 7, 8, 5, 10, 8, 8, 5, 5, 7, 3, 8, 1, 4, 7, 2, 4, 10, 9, 7, 3, 5, 8, 4, 7, 9, 4, 4, 6, 8, 6, 4, 7, 6, 7, 5, 2, 10, 10, 8, 2, 2, 6, 8, 9, 6, 10, 8, 1, 3, 8, 0, 0, 3, 7, 7, 9, 2, 10, 9, 10, 2, 4, 6, 9, 7, 3, 5, 4, 1, 8, 7, 1, 6, 9, 2, 10, 1, 10, 9, 8, 3, 8, 8, 5, 2, 2, 2, 1, 5, 5, 4, 10, 4, 6, 3, 1, 10, 6, 9, 10, 8, 1, 7, 2, 1, 2, 1, 7, 8, 5, 3, 8, 0, 0, 1, 3, 4, 1, 10, 7, 3, 1, 9, 8, 1, 9, 1, 9, 4, 5, 1, 9, 9, 8, 1, 9, 6, 4, 6, 5, 6, 9, 9, 7, 4, 2, 3, 10, 7, 5, 1, 5, 3, 10, 7, 2, 6, 6, 7, 1, 8, 2, 3, 7, 3, 7, 5, 3, 1, 4, 8, 4, 3, 6, 0]);

suc = [
   {2, 3, 4},
   {8, 6, 7},
   {27, 12, 5},
   {32, 34, 11},
   {19},
   {9, 13},
   {10, 14},
   {37, 15},
   {29},
   {38},
   {25, 23},
   {16},
   {53},
   {15},
   {17, 18, 20},
   {26, 50, 47},
   {30},
   {24, 44, 30},
   {61, 35, 21},
   {23},
   {33, 22, 39},
   {28, 31},
   {51},
   {46},
   {58},
   {42},
   {57, 45},
   {36, 29},
   {40},
   {43, 52},
   {38},
   {41},
   {56, 53, 37},
   {48, 55},
   {59},
   {47},
   {45, 47},
   {42},
   {60},
   {53},
   {42},
   {56, 58},
   {50},
   {48},
   {51, 55},
   {50},
   {58},
   {49},
   {56},
   {54},
   {60},
   {57},
   {55},
   {57},
   {60},
   {59},
   {61},
   {59},
   {62},
   {62},
   {62},
   {  } ];

deadline = array2d(1..62, 1..3, [8, 4, 1, 9, 4, 5, 11, 1, 3, 14, 0, 4, 19, 3, 5, 23, 5, 5, 29, 3, 1, 42, 3, 5, 42, 2, 0, 42, 2, 0, 43, 5, 0, 44, 3, 2, 44, 1, 2, 45, 3, 1, 46, 4, 1, 47, 0, 0, 47, 4, 4, 51, 1, 5, 51, 3, 4, 53, 0, 2, 55, 4, 1, 57, 5, 5, 59, 4, 0, 59, 0, 0, 60, 0, 5, 65, 2, 2, 71, 5, 0, 71, 0, 3, 73, 5, 3, 74, 5, 5, 82, 0, 2, 86, 3, 0, 86, 2, 5, 87, 2, 5, 90, 2, 4, 90, 0, 5, 94, 4, 1, 96, 0, 3, 98, 2, 3, 99, 2, 2, 104, 2, 4, 106, 0, 1, 108, 2, 0, 109, 2, 3, 109, 4, 4, 110, 0, 4, 120, 3, 2, 124, 2, 1, 126, 2, 2, 128, 3, 3, 130, 5, 1, 132, 0, 2, 133, 0, 4, 137, 1, 2, 138, 2, 5, 144, 5, 0, 150, 2, 3, 150, 0, 2, 151, 4, 2, 154, 5, 4, 155, 3, 3, 159, 2, 1]);
