n_res = 4;
rc = [ 17, 17, 18, 17 ];
n_tasks = 62;
d = [0, 9, 1, 7, 9, 2, 5, 3, 4, 5, 2, 5, 3, 7, 2, 2, 5, 6, 7, 10, 3, 1, 1, 4, 2, 1, 2, 1, 3, 3, 10, 7, 6, 3, 4, 3, 8, 2, 4, 1, 9, 7, 6, 6, 6, 9, 2, 8, 7, 4, 5, 6, 7, 4, 3, 5, 10, 2, 2, 3, 9, 0];
rr = array2d(1..4, 1..62, [0, 0, 4, 5, 5, 1, 0, 9, 1, 10, 4, 5, 7, 10, 2, 3, 0, 10, 8, 1, 5, 1, 8, 5, 3, 0, 5, 0, 0, 0, 1, 2, 1, 0, 10, 8, 8, 10, 8, 4, 2, 0, 10, 5, 5, 3, 6, 9, 8, 7, 0, 5, 0, 7, 0, 5, 10, 8, 4, 1, 8, 0, 0, 0, 10, 5, 3, 6, 7, 1, 0, 2, 3, 5, 0, 2, 0, 6, 0, 0, 4, 0, 0, 10, 3, 2, 8, 6, 0, 4, 4, 6, 10, 0, 0, 10, 6, 5, 7, 0, 6, 7, 7, 1, 0, 7, 10, 0, 2, 5, 4, 5, 0, 0, 3, 9, 9, 3, 1, 0, 6, 1, 0, 0, 0, 8, 1, 7, 4, 0, 0, 10, 1, 6, 1, 3, 6, 8, 0, 10, 9, 0, 0, 0, 0, 9, 7, 0, 9, 2, 5, 10, 0, 0, 8, 1, 0, 7, 2, 0, 1, 8, 8, 9, 3, 8, 0, 9, 3, 8, 6, 3, 2, 10, 0, 0, 9, 8, 0, 2, 2, 5, 5, 5, 10, 0, 0, 1, 3, 3, 0, 7, 4, 2, 2, 8, 0, 10, 4, 6, 0, 0, 3, 1, 10, 8, 8, 5, 3, 1, 3, 9, 0, 2, 3, 0, 6, 3, 1, 7, 3, 8, 10, 8, 1, 4, 10, 3, 2, 0, 0, 10, 4, 5, 7, 6, 6, 0, 3, 0, 0, 10, 6, 0, 0, 8, 8, 0]);

suc = [
   {2, 3, 4},
   {10, 18, 5},
   {12, 54},
   {8, 11, 6},
   {23, 14, 7},
   {9, 31},
   {48, 13, 15},
   {42, 19, 37},
   {46},
   {49, 28},
   {17, 44},
   {35, 29, 38},
   {46, 39},
   {17, 19, 38},
   {16},
   {49, 21},
   {34},
   {24, 20, 22},
   {25, 27, 33},
   {32},
   {26},
   {32, 41, 40},
   {41},
   {48, 36, 30},
   {57},
   {27},
   {30, 31},
   {59, 30},
   {41, 39},
   {55, 54, 39},
   {58},
   {50},
   {51, 45},
   {40},
   {40, 53, 47},
   {50, 51, 61},
   {57, 52},
   {44, 46, 47},
   {56},
   {49, 58},
   {55, 45, 47},
   {50, 43},
   {44, 45},
   {48, 52},
   {56},
   {61},
   {58},
   {51, 55},
   {59},
   {52},
   {59, 53},
   {53},
   {56},
   {60},
   {57},
   {60},
   {60},
   {61},
   {62},
   {62},
   {62},
   {  } ];

deadline = array2d(1..62, 1..3, [1, 0, 2, 1, 2, 5, 6, 0, 2, 7, 1, 2, 7, 3, 1, 14, 5, 2, 17, 4, 2, 21, 5, 4, 24, 2, 2, 24, 5, 3, 24, 4, 5, 26, 0, 1, 26, 5, 2, 26, 4, 3, 29, 2, 0, 31, 1, 2, 37, 3, 5, 43, 5, 2, 49, 3, 2, 50, 1, 3, 52, 0, 5, 55, 3, 5, 59, 1, 4, 60, 5, 4, 63, 5, 5, 64, 1, 5, 66, 3, 0, 66, 3, 0, 68, 2, 1, 75, 5, 5, 76, 2, 0, 90, 1, 2, 92, 2, 0, 93, 5, 3, 97, 4, 5, 104, 2, 1, 104, 4, 4, 106, 5, 5, 106, 1, 4, 106, 5, 5, 114, 5, 5, 114, 5, 2, 115, 0, 4, 115, 3, 2, 116, 4, 4, 117, 1, 1, 122, 4, 4, 123, 1, 0, 123, 2, 3, 126, 2, 4, 128, 2, 0, 129, 2, 5, 129, 3, 2, 133, 3, 4, 135, 5, 4, 135, 3, 0, 138, 5, 5, 143, 4, 3, 146, 4, 4, 149, 3, 2, 151, 2, 4, 152, 4, 3]);
