n_res = 4;
rc = [ 65, 76, 55, 64 ];
n_tasks = 62;
d = [0, 7, 8, 6, 2, 10, 8, 4, 3, 1, 7, 7, 5, 6, 2, 4, 8, 7, 6, 4, 10, 7, 4, 3, 10, 5, 5, 5, 4, 4, 2, 10, 5, 5, 10, 8, 9, 3, 9, 10, 1, 10, 6, 1, 3, 4, 9, 4, 10, 9, 10, 2, 1, 5, 7, 4, 8, 8, 7, 9, 10, 0];
rr = array2d(1..4, 1..62, [0, 2, 7, 6, 3, 8, 10, 5, 5, 3, 9, 9, 10, 3, 10, 7, 1, 9, 3, 7, 10, 1, 6, 7, 7, 6, 8, 4, 3, 2, 4, 5, 1, 3, 4, 7, 9, 8, 7, 1, 5, 2, 2, 3, 7, 7, 4, 10, 4, 5, 10, 10, 6, 6, 3, 1, 10, 7, 3, 6, 8, 0, 0, 8, 6, 3, 5, 9, 8, 10, 6, 10, 2, 7, 1, 5, 1, 9, 3, 7, 6, 10, 7, 5, 4, 1, 5, 8, 3, 9, 7, 6, 10, 9, 3, 8, 8, 6, 5, 2, 9, 6, 10, 1, 2, 9, 5, 10, 1, 4, 1, 10, 7, 3, 1, 9, 4, 6, 3, 7, 6, 4, 6, 0, 0, 7, 8, 8, 8, 6, 7, 3, 1, 8, 5, 1, 3, 2, 8, 10, 4, 8, 10, 7, 7, 2, 5, 9, 4, 2, 4, 3, 10, 9, 7, 3, 2, 2, 3, 10, 9, 3, 4, 1, 5, 5, 4, 4, 1, 5, 3, 5, 5, 7, 10, 7, 6, 7, 6, 2, 8, 5, 8, 4, 4, 0, 0, 7, 7, 3, 8, 2, 8, 10, 1, 1, 3, 10, 7, 3, 2, 9, 10, 5, 1, 9, 1, 4, 5, 10, 1, 8, 6, 2, 3, 4, 5, 10, 6, 5, 6, 7, 9, 8, 3, 1, 7, 3, 6, 9, 1, 1, 5, 2, 8, 8, 4, 2, 8, 2, 3, 6, 5, 10, 6, 9, 1, 0]);

suc = [
   {2, 3, 4},
   {10, 34, 6},
   {8, 9, 19},
   {41, 5},
   {27, 21},
   {16, 14, 7},
   {12, 13},
   {18, 11, 38},
   {15},
   {39},
   {40, 29},
   {42, 53},
   {36},
   {33, 20},
   {17, 57},
   {24, 25, 23},
   {49, 26},
   {59},
   {32, 43},
   {22, 31},
   {32, 29},
   {41, 45},
   {35, 28},
   {36},
   {30},
   {44},
   {54},
   {56},
   {50, 39},
   {58, 59},
   {36},
   {45, 37},
   {55},
   {61},
   {51},
   {49},
   {42},
   {42},
   {47},
   {46},
   {55},
   {50},
   {51, 46},
   {50},
   {48},
   {47},
   {48, 56, 54},
   {52, 53},
   {56},
   {61},
   {58},
   {60},
   {58},
   {55},
   {59},
   {61},
   {60},
   {60},
   {62},
   {62},
   {62},
   {  } ];

deadline = array2d(1..62, 1..3, [2, 4, 2, 6, 1, 3, 6, 4, 4, 11, 2, 1, 13, 0, 4, 14, 2, 2, 16, 1, 4, 18, 5, 4, 21, 3, 5, 30, 4, 0, 31, 1, 4, 32, 1, 4, 32, 0, 2, 33, 0, 3, 34, 1, 5, 39, 5, 3, 49, 5, 2, 49, 2, 3, 51, 3, 0, 51, 3, 4, 53, 2, 4, 54, 3, 1, 54, 0, 2, 61, 5, 0, 61, 1, 5, 64, 2, 5, 70, 2, 4, 72, 3, 5, 73, 0, 0, 74, 2, 3, 77, 0, 0, 79, 2, 2, 81, 3, 0, 85, 4, 5, 88, 0, 4, 92, 5, 3, 97, 4, 0, 99, 5, 2, 103, 5, 5, 103, 2, 2, 105, 0, 1, 110, 1, 0, 111, 3, 1, 115, 4, 1, 118, 0, 2, 123, 4, 5, 125, 4, 4, 131, 2, 1, 132, 5, 1, 133, 1, 4, 138, 1, 5, 138, 4, 1, 138, 2, 5, 139, 1, 5, 141, 5, 1, 145, 3, 3, 149, 4, 4, 153, 3, 0, 157, 2, 2, 161, 1, 4, 161, 2, 0, 164, 0, 2]);
