n_res = 4;
rc = [ 18, 17, 17, 16 ];
n_tasks = 62;
d = [0, 6, 8, 8, 3, 9, 6, 9, 3, 9, 3, 7, 4, 3, 2, 1, 4, 5, 1, 8, 3, 9, 8, 1, 9, 1, 6, 2, 4, 1, 2, 7, 4, 4, 7, 2, 8, 10, 10, 10, 2, 4, 9, 8, 9, 5, 5, 3, 2, 1, 4, 8, 8, 6, 2, 2, 4, 7, 10, 4, 7, 0];
rr = array2d(1..4, 1..62, [0, 1, 2, 3, 5, 10, 2, 1, 9, 2, 7, 9, 7, 2, 10, 9, 7, 7, 2, 7, 4, 3, 10, 6, 4, 7, 10, 6, 10, 7, 3, 5, 3, 9, 1, 9, 4, 1, 7, 6, 6, 9, 3, 1, 10, 10, 6, 1, 10, 6, 8, 6, 1, 5, 9, 9, 2, 4, 6, 6, 8, 0, 0, 2, 4, 5, 7, 5, 7, 6, 5, 4, 4, 9, 3, 2, 8, 5, 1, 3, 10, 9, 2, 7, 6, 9, 5, 4, 9, 7, 9, 10, 6, 2, 4, 9, 7, 9, 10, 3, 4, 8, 9, 1, 7, 2, 8, 1, 4, 2, 5, 10, 4, 10, 4, 10, 10, 3, 4, 5, 4, 8, 2, 0, 0, 1, 1, 6, 8, 7, 10, 5, 8, 5, 6, 5, 5, 7, 1, 4, 8, 5, 1, 9, 3, 1, 9, 10, 2, 9, 9, 2, 2, 1, 6, 7, 1, 10, 6, 5, 2, 9, 5, 9, 2, 1, 7, 3, 1, 10, 7, 2, 8, 7, 8, 6, 9, 7, 3, 7, 5, 5, 4, 7, 2, 0, 0, 9, 5, 4, 2, 6, 2, 6, 2, 5, 5, 2, 6, 5, 10, 4, 5, 1, 2, 2, 8, 10, 6, 4, 2, 1, 5, 6, 2, 6, 10, 2, 9, 2, 8, 3, 4, 1, 3, 4, 5, 4, 8, 7, 4, 10, 8, 10, 4, 6, 10, 8, 6, 7, 7, 1, 6, 10, 6, 1, 4, 0]);

suc = [
   {2, 3, 4},
   {51, 14},
   {9, 25},
   {9, 5, 17},
   {10, 21, 6},
   {16, 12, 7},
   {8, 34},
   {38, 18, 22},
   {11, 20, 13},
   {57},
   {19},
   {51, 27, 59},
   {45, 30, 15},
   {40, 17, 30},
   {18, 52},
   {18},
   {23},
   {26, 29, 54},
   {49},
   {46},
   {37, 31},
   {24, 28, 47},
   {33, 34},
   {26, 31},
   {41, 36, 29},
   {40, 44},
   {32, 50},
   {48},
   {51, 44},
   {32, 37},
   {60, 39},
   {60},
   {43, 35, 55},
   {36, 45},
   {50, 53},
   {56, 52},
   {55, 54, 39},
   {45},
   {41, 46, 57},
   {57},
   {42},
   {44},
   {48},
   {58},
   {48, 49, 46},
   {53},
   {56, 49},
   {50, 52},
   {54},
   {56, 61},
   {55},
   {58, 53},
   {61},
   {58},
   {61},
   {60},
   {59},
   {59},
   {62},
   {62},
   {62},
   {  } ];

deadline = array2d(1..62, 1..3, [5, 0, 4, 6, 1, 3, 7, 0, 5, 11, 5, 1, 16, 1, 3, 17, 2, 5, 18, 3, 1, 18, 0, 4, 19, 4, 0, 23, 3, 5, 24, 4, 2, 29, 3, 5, 31, 1, 0, 34, 4, 5, 45, 5, 2, 51, 3, 5, 53, 3, 5, 60, 3, 1, 67, 4, 3, 69, 3, 1, 73, 4, 1, 77, 2, 0, 79, 5, 5, 82, 5, 5, 84, 3, 3, 87, 0, 5, 89, 0, 2, 90, 3, 2, 91, 5, 0, 94, 5, 3, 97, 5, 5, 100, 1, 3, 101, 1, 0, 101, 2, 2, 111, 1, 0, 128, 5, 3, 129, 2, 5, 131, 0, 4, 142, 1, 5, 151, 2, 0, 153, 0, 4, 153, 2, 4, 154, 4, 3, 158, 4, 2, 160, 2, 1, 161, 3, 5, 163, 4, 3, 170, 4, 0, 177, 1, 3, 179, 2, 3, 180, 5, 2, 187, 0, 5, 191, 5, 3, 198, 3, 3, 199, 2, 4, 200, 0, 3, 203, 3, 5, 204, 4, 3, 207, 5, 3, 209, 2, 0, 216, 2, 0, 218, 5, 0]);
