n_res = 4;
rc = [ 27, 32, 28, 26 ];
n_tasks = 62;
d = [0, 7, 4, 3, 10, 8, 8, 7, 8, 5, 5, 5, 6, 1, 5, 10, 10, 1, 5, 9, 7, 4, 3, 5, 6, 9, 4, 1, 8, 3, 1, 6, 4, 10, 9, 10, 2, 6, 7, 4, 1, 2, 2, 8, 8, 6, 9, 6, 2, 7, 8, 7, 9, 3, 6, 1, 9, 6, 9, 8, 2, 0];
rr = array2d(1..4, 1..62, [0, 7, 5, 6, 4, 2, 7, 5, 2, 6, 9, 4, 3, 4, 10, 1, 2, 2, 1, 8, 8, 3, 8, 2, 4, 5, 2, 5, 6, 7, 7, 9, 9, 8, 6, 2, 10, 9, 6, 10, 10, 10, 2, 1, 10, 1, 1, 9, 6, 10, 1, 8, 8, 6, 2, 2, 4, 1, 4, 5, 8, 0, 0, 1, 3, 7, 8, 1, 10, 6, 7, 9, 10, 9, 2, 4, 6, 10, 2, 3, 5, 1, 8, 9, 8, 10, 8, 5, 1, 5, 10, 7, 10, 9, 8, 4, 7, 5, 5, 6, 10, 7, 4, 3, 3, 9, 1, 9, 4, 6, 7, 5, 7, 5, 2, 4, 8, 4, 3, 8, 4, 9, 5, 0, 0, 6, 3, 7, 10, 5, 2, 4, 4, 5, 2, 3, 9, 4, 2, 4, 7, 8, 2, 8, 10, 7, 5, 1, 8, 5, 8, 8, 3, 5, 8, 6, 1, 2, 9, 1, 6, 1, 6, 1, 8, 10, 6, 9, 9, 10, 2, 8, 7, 4, 8, 8, 5, 2, 4, 5, 6, 5, 10, 5, 9, 0, 0, 3, 10, 6, 9, 8, 3, 9, 9, 8, 3, 8, 3, 2, 2, 9, 4, 7, 2, 5, 4, 4, 4, 6, 1, 7, 5, 4, 6, 10, 6, 10, 4, 9, 9, 6, 9, 4, 4, 2, 2, 4, 6, 4, 10, 10, 2, 2, 5, 7, 5, 7, 2, 2, 10, 2, 9, 1, 2, 2, 3, 0]);

suc = [
   {2, 3, 4},
   {17, 11, 6},
   {26, 20, 14},
   {8, 24, 5},
   {17, 50, 13},
   {9, 13, 7},
   {25},
   {10, 21, 13},
   {10, 35, 22},
   {12, 39, 31},
   {26, 37, 14},
   {27, 36, 15},
   {16, 42, 35},
   {32, 19, 23},
   {34, 29, 23},
   {48, 49, 58},
   {18, 44, 30},
   {31},
   {25, 30, 33},
   {33, 45, 46},
   {43, 52, 55},
   {36, 52},
   {42, 59},
   {26, 27},
   {40, 34, 54},
   {32, 47},
   {32, 43, 28},
   {40, 44, 29},
   {37, 30},
   {49, 45, 38},
   {34},
   {57, 42},
   {35, 38, 39},
   {60, 45, 38},
   {59},
   {49, 43, 44},
   {41, 52, 47},
   {48},
   {50, 47},
   {41, 51},
   {46},
   {58, 55},
   {48, 46},
   {53},
   {53},
   {50},
   {51, 53},
   {56},
   {51, 61, 54},
   {56},
   {55},
   {57, 60, 54},
   {56, 58},
   {59},
   {60},
   {57},
   {61},
   {61},
   {62},
   {62},
   {62},
   {  } ];

deadline = array2d(1..62, 1..3, [2, 5, 1, 6, 5, 0, 16, 5, 1, 17, 3, 2, 25, 0, 4, 26, 2, 0, 31, 3, 1, 35, 0, 1, 36, 3, 1, 37, 5, 2, 43, 5, 0, 48, 4, 2, 52, 4, 0, 52, 2, 5, 56, 5, 5, 59, 2, 5, 64, 0, 3, 67, 3, 0, 69, 1, 1, 70, 1, 1, 70, 0, 2, 71, 1, 5, 74, 0, 3, 75, 3, 4, 76, 0, 3, 83, 1, 2, 84, 4, 0, 87, 0, 3, 89, 5, 2, 91, 4, 4, 91, 3, 2, 92, 3, 4, 93, 2, 1, 103, 3, 5, 104, 0, 5, 105, 1, 1, 108, 5, 0, 109, 0, 2, 109, 4, 3, 111, 2, 0, 121, 5, 0, 121, 0, 3, 123, 4, 3, 126, 5, 4, 128, 5, 5, 135, 3, 2, 137, 4, 1, 145, 0, 5, 145, 4, 2, 145, 2, 3, 151, 3, 0, 152, 2, 0, 152, 5, 5, 153, 1, 0, 155, 2, 0, 170, 5, 3, 181, 4, 3, 182, 1, 0, 187, 0, 2, 188, 1, 2, 189, 4, 1, 197, 0, 0]);
