n_res = 4;
rc = [ 26, 26, 24, 21 ];
n_tasks = 62;
d = [0, 10, 8, 4, 6, 5, 1, 6, 8, 8, 8, 9, 4, 1, 7, 7, 7, 5, 1, 1, 8, 9, 2, 4, 3, 7, 7, 1, 6, 5, 4, 10, 3, 6, 10, 9, 3, 4, 3, 6, 4, 1, 8, 5, 6, 9, 1, 10, 7, 4, 10, 7, 7, 1, 1, 2, 3, 10, 6, 9, 5, 0];
rr = array2d(1..4, 1..62, [0, 0, 7, 7, 9, 0, 0, 0, 0, 0, 10, 0, 7, 9, 0, 0, 0, 0, 4, 0, 4, 0, 0, 5, 1, 9, 6, 0, 7, 6, 0, 2, 0, 5, 8, 0, 0, 0, 6, 0, 0, 0, 0, 0, 10, 4, 0, 0, 5, 6, 7, 4, 10, 10, 2, 6, 9, 10, 3, 0, 1, 0, 0, 10, 0, 7, 7, 3, 0, 0, 2, 0, 7, 0, 2, 0, 4, 0, 0, 0, 0, 0, 6, 0, 0, 0, 0, 0, 0, 10, 0, 3, 8, 0, 0, 0, 0, 0, 0, 0, 0, 0, 3, 6, 1, 1, 3, 10, 10, 9, 0, 10, 1, 0, 10, 9, 4, 0, 1, 0, 0, 5, 0, 0, 0, 0, 0, 0, 0, 0, 8, 5, 2, 0, 0, 7, 0, 5, 0, 0, 8, 8, 0, 0, 0, 0, 0, 5, 0, 0, 0, 3, 0, 0, 0, 0, 2, 0, 4, 4, 8, 5, 1, 0, 1, 2, 7, 0, 4, 10, 10, 9, 0, 6, 0, 4, 0, 8, 8, 1, 6, 0, 0, 0, 0, 0, 0, 0, 5, 6, 1, 2, 0, 0, 0, 2, 8, 6, 5, 1, 0, 10, 0, 0, 0, 8, 0, 5, 6, 0, 3, 0, 9, 9, 0, 8, 2, 0, 1, 0, 7, 0, 0, 10, 9, 5, 0, 1, 0, 0, 1, 0, 0, 9, 10, 1, 6, 6, 0, 0, 6, 0, 0, 3, 10, 7, 0, 0]);

suc = [
   {2, 3, 4},
   {11, 20, 21},
   {50, 52, 5},
   {25, 10, 6},
   {9, 18, 15},
   {7},
   {8, 24, 14},
   {57, 50, 52},
   {17, 44, 22},
   {61, 12, 13},
   {16, 51, 38},
   {19, 38, 39},
   {18, 28, 30},
   {17, 26, 22},
   {17, 22, 31},
   {24, 44, 23},
   {42, 45},
   {48, 34, 54},
   {48, 36, 37},
   {33, 43, 29},
   {32, 25, 41},
   {34, 42, 30},
   {61, 29, 47},
   {34, 37},
   {26, 27},
   {33, 31},
   {42, 35, 36},
   {32, 37, 31},
   {32, 57},
   {40, 33, 39},
   {35, 53, 38},
   {56, 36},
   {45, 55},
   {47},
   {43, 44, 39},
   {52, 46},
   {50, 54},
   {45},
   {48},
   {41, 53, 49},
   {51, 43},
   {49, 61, 46},
   {59},
   {46, 55},
   {47},
   {58},
   {56, 57},
   {49},
   {56, 51},
   {53},
   {55},
   {54},
   {60},
   {59, 60},
   {58},
   {58},
   {59},
   {60},
   {62},
   {62},
   {62},
   {  } ];

deadline = array2d(1..62, 1..3, [3, 2, 2, 4, 5, 0, 11, 2, 3, 13, 0, 1, 17, 0, 5, 18, 3, 4, 21, 4, 5, 24, 5, 0, 34, 1, 2, 34, 5, 2, 41, 0, 4, 57, 1, 3, 62, 2, 4, 63, 2, 1, 63, 1, 4, 63, 2, 5, 70, 2, 4, 77, 5, 3, 78, 5, 3, 78, 5, 5, 78, 1, 3, 79, 2, 2, 81, 0, 3, 83, 2, 4, 84, 2, 0, 95, 3, 4, 110, 0, 1, 113, 3, 1, 115, 4, 1, 120, 2, 0, 123, 5, 3, 124, 2, 5, 125, 2, 4, 128, 1, 0, 128, 1, 5, 130, 3, 3, 134, 3, 4, 135, 0, 4, 140, 0, 1, 145, 2, 5, 146, 1, 1, 147, 1, 5, 158, 3, 1, 160, 0, 0, 163, 5, 4, 167, 4, 2, 172, 1, 4, 175, 0, 0, 175, 5, 3, 175, 1, 2, 176, 2, 0, 179, 2, 5, 180, 4, 4, 181, 1, 4, 192, 3, 0, 201, 4, 1, 207, 5, 5, 212, 5, 1, 212, 3, 5, 218, 5, 2, 229, 4, 4, 230, 1, 2]);
