n_res = 4;
rc = [ 25, 28, 23, 24 ];
n_tasks = 62;
d = [0, 7, 2, 6, 1, 7, 9, 2, 9, 2, 4, 2, 6, 9, 6, 5, 6, 2, 2, 2, 2, 2, 1, 3, 8, 8, 3, 4, 6, 7, 6, 8, 2, 3, 7, 4, 1, 3, 5, 9, 2, 9, 8, 3, 3, 3, 8, 9, 6, 1, 10, 10, 4, 10, 2, 8, 5, 7, 2, 5, 9, 0];
rr = array2d(1..4, 1..62, [0, 0, 0, 5, 0, 0, 1, 0, 4, 0, 0, 0, 0, 9, 8, 9, 5, 10, 8, 5, 0, 0, 2, 6, 0, 1, 0, 3, 0, 0, 7, 0, 0, 9, 10, 1, 0, 6, 0, 0, 6, 1, 0, 0, 0, 10, 6, 7, 9, 0, 0, 0, 8, 0, 0, 0, 0, 0, 0, 8, 2, 0, 0, 0, 7, 0, 0, 6, 0, 0, 3, 1, 0, 1, 0, 0, 0, 0, 0, 0, 9, 10, 7, 0, 6, 0, 0, 0, 0, 2, 0, 0, 9, 6, 0, 8, 0, 0, 0, 0, 0, 10, 0, 6, 0, 3, 4, 10, 0, 3, 2, 8, 4, 6, 10, 0, 0, 1, 0, 0, 2, 9, 3, 0, 0, 4, 0, 2, 0, 0, 9, 9, 3, 0, 2, 0, 3, 2, 4, 2, 0, 8, 0, 0, 0, 0, 0, 0, 0, 0, 9, 7, 0, 3, 7, 0, 9, 0, 7, 0, 1, 9, 3, 8, 10, 0, 3, 5, 1, 0, 0, 0, 3, 8, 5, 0, 0, 9, 1, 5, 6, 7, 1, 8, 0, 0, 0, 4, 0, 2, 5, 4, 2, 0, 0, 5, 6, 4, 0, 0, 0, 3, 10, 8, 3, 0, 6, 9, 0, 0, 6, 0, 4, 7, 7, 6, 0, 2, 9, 0, 0, 0, 0, 0, 9, 0, 0, 0, 6, 0, 0, 0, 5, 0, 2, 0, 0, 7, 0, 8, 0, 0, 5, 8, 0, 0, 5, 0]);

suc = [
   {2, 3, 4},
   {50, 36, 58},
   {33, 6, 7},
   {34, 19, 5},
   {24, 15},
   {17, 31},
   {8, 9, 16},
   {11, 14, 47},
   {10, 13, 23},
   {48, 25},
   {12},
   {35},
   {18},
   {26, 27, 20},
   {45, 38},
   {18},
   {27},
   {28, 45, 47},
   {51, 36, 21},
   {21, 22, 30},
   {35},
   {32, 39},
   {29},
   {41, 29},
   {42, 43, 52},
   {40, 34, 37},
   {42, 43, 28},
   {44},
   {36, 37, 47},
   {41, 34},
   {49, 57},
   {48},
   {57, 37},
   {54, 55},
   {40, 41, 50},
   {53},
   {42},
   {44},
   {50},
   {56, 43},
   {57},
   {46},
   {61},
   {49, 52},
   {49, 51, 46},
   {58},
   {55},
   {55},
   {61},
   {52, 53},
   {60, 54},
   {56},
   {54},
   {59},
   {56, 58, 59},
   {61},
   {59, 60},
   {60},
   {62},
   {62},
   {62},
   {  } ];

deadline = array2d(1..62, 1..3, [7, 2, 1, 8, 0, 5, 11, 1, 0, 11, 4, 2, 17, 3, 2, 21, 4, 5, 23, 1, 2, 24, 4, 0, 26, 4, 1, 31, 3, 2, 36, 3, 4, 39, 5, 1, 39, 0, 4, 43, 3, 2, 43, 4, 2, 48, 2, 2, 55, 2, 2, 57, 5, 4, 60, 5, 5, 65, 4, 3, 66, 5, 5, 66, 5, 0, 75, 5, 5, 76, 2, 1, 78, 2, 0, 79, 0, 4, 80, 0, 3, 82, 5, 2, 85, 4, 3, 86, 4, 0, 89, 1, 3, 94, 5, 5, 99, 0, 4, 99, 3, 0, 106, 0, 3, 106, 4, 2, 106, 0, 5, 111, 5, 2, 111, 0, 4, 111, 4, 5, 115, 4, 4, 117, 3, 2, 120, 4, 4, 121, 0, 3, 124, 1, 1, 125, 4, 0, 125, 1, 2, 127, 3, 5, 127, 1, 1, 128, 1, 1, 129, 0, 0, 133, 0, 4, 137, 0, 4, 138, 1, 4, 139, 4, 4, 139, 3, 4, 142, 4, 2, 145, 4, 3, 148, 1, 2, 150, 5, 5, 152, 3, 5, 155, 1, 0]);
