n_res = 4;
rc = [ 16, 21, 19, 19 ];
n_tasks = 62;
d = [0, 10, 1, 8, 10, 10, 7, 9, 7, 9, 9, 8, 7, 6, 1, 5, 7, 4, 6, 10, 9, 8, 8, 3, 9, 9, 6, 10, 8, 9, 5, 8, 7, 5, 7, 3, 8, 7, 7, 4, 7, 10, 5, 9, 10, 6, 8, 9, 4, 1, 6, 5, 9, 6, 5, 5, 5, 8, 4, 4, 8, 0];
rr = array2d(1..4, 1..62, [0, 7, 4, 2, 5, 9, 1, 2, 9, 3, 10, 3, 10, 3, 8, 3, 6, 4, 3, 2, 7, 5, 8, 7, 9, 1, 7, 4, 2, 9, 8, 3, 1, 2, 2, 6, 7, 3, 9, 7, 2, 8, 1, 7, 9, 2, 8, 6, 2, 7, 2, 9, 9, 10, 8, 6, 2, 4, 5, 4, 10, 0, 0, 3, 9, 8, 1, 8, 5, 3, 10, 2, 4, 10, 2, 6, 6, 4, 4, 7, 7, 10, 2, 9, 10, 4, 7, 5, 2, 2, 4, 4, 8, 9, 9, 2, 8, 10, 5, 8, 7, 5, 6, 9, 10, 5, 10, 9, 5, 10, 10, 3, 7, 10, 1, 2, 2, 6, 7, 1, 9, 7, 3, 0, 0, 9, 7, 4, 9, 7, 6, 2, 2, 1, 4, 9, 10, 7, 5, 8, 4, 3, 1, 5, 9, 10, 4, 2, 1, 1, 3, 4, 3, 2, 9, 10, 3, 5, 10, 9, 6, 7, 5, 3, 1, 7, 5, 3, 5, 2, 6, 4, 7, 3, 5, 6, 10, 5, 5, 3, 9, 8, 9, 6, 8, 0, 0, 9, 8, 10, 8, 8, 7, 10, 2, 6, 4, 8, 1, 8, 4, 7, 1, 6, 5, 8, 1, 5, 7, 2, 5, 3, 9, 5, 2, 1, 5, 6, 6, 9, 6, 5, 2, 1, 7, 8, 5, 7, 8, 4, 2, 3, 10, 2, 4, 1, 10, 4, 6, 5, 7, 3, 7, 1, 4, 1, 3, 0]);

suc = [
   {2, 3, 4},
   {18, 6, 7},
   {9, 11, 5},
   {49, 45},
   {10, 20},
   {8, 39},
   {41, 37},
   {26, 12, 15},
   {43, 13, 31},
   {21, 14, 22},
   {17, 19, 22},
   {16},
   {25, 34, 28},
   {18, 27, 42},
   {52, 45},
   {24, 20, 53},
   {33, 46},
   {23},
   {40, 61},
   {52},
   {48},
   {24, 26},
   {48, 43, 29},
   {58, 30},
   {29, 54},
   {32, 31},
   {35},
   {29, 30},
   {52},
   {48, 37},
   {61, 37},
   {38},
   {34, 51, 36},
   {38},
   {44, 55, 47},
   {60, 47},
   {57},
   {44, 55},
   {40, 41},
   {59, 44},
   {42, 54},
   {56, 58, 51},
   {50},
   {58},
   {46},
   {50, 47},
   {53},
   {55},
   {50, 51},
   {57, 53},
   {59},
   {56},
   {54},
   {61},
   {56, 57},
   {59},
   {60},
   {60},
   {62},
   {62},
   {62},
   {  } ];

deadline = array2d(1..62, 1..3, [3, 3, 4, 9, 2, 3, 10, 0, 4, 10, 3, 3, 22, 3, 0, 23, 1, 2, 26, 0, 4, 37, 2, 4, 45, 5, 5, 46, 1, 0, 49, 5, 2, 49, 0, 1, 51, 3, 0, 53, 0, 5, 57, 2, 2, 61, 3, 2, 63, 2, 1, 70, 3, 0, 72, 2, 5, 75, 4, 0, 76, 3, 3, 78, 2, 3, 82, 1, 5, 87, 4, 4, 93, 4, 1, 102, 2, 3, 104, 2, 4, 110, 2, 3, 110, 0, 4, 113, 4, 0, 124, 3, 1, 124, 4, 4, 124, 0, 2, 125, 1, 5, 129, 1, 4, 134, 2, 4, 138, 5, 5, 140, 4, 0, 140, 0, 5, 146, 1, 3, 147, 3, 2, 150, 5, 3, 153, 2, 0, 159, 5, 1, 166, 2, 5, 169, 0, 5, 170, 0, 3, 171, 2, 4, 172, 1, 3, 172, 1, 1, 174, 1, 3, 176, 0, 2, 177, 1, 3, 179, 1, 2, 180, 2, 4, 183, 0, 1, 184, 2, 3, 185, 1, 3, 189, 2, 4, 190, 4, 5, 191, 1, 3, 191, 1, 3]);
