n_res = 4;
rc = [ 12, 12, 11, 14 ];
n_tasks = 62;
d = [0, 3, 2, 8, 7, 2, 9, 4, 10, 4, 9, 2, 2, 1, 3, 5, 4, 7, 9, 4, 4, 6, 4, 4, 10, 6, 5, 10, 9, 6, 10, 9, 7, 10, 3, 4, 2, 6, 3, 8, 2, 9, 9, 6, 3, 4, 2, 8, 9, 10, 6, 7, 10, 8, 5, 7, 10, 6, 2, 10, 10, 0];
rr = array2d(1..4, 1..62, [0, 2, 0, 1, 0, 0, 0, 0, 0, 0, 0, 0, 0, 0, 0, 10, 0, 0, 0, 0, 0, 0, 0, 9, 0, 1, 0, 0, 0, 6, 0, 10, 5, 0, 0, 0, 4, 0, 2, 1, 0, 0, 0, 0, 0, 0, 0, 0, 0, 7, 0, 0, 0, 2, 7, 0, 1, 0, 10, 9, 0, 0, 0, 0, 0, 0, 0, 0, 0, 5, 0, 0, 0, 0, 0, 0, 0, 0, 0, 0, 2, 3, 3, 0, 0, 0, 0, 0, 0, 0, 8, 0, 0, 0, 0, 0, 10, 3, 0, 4, 0, 0, 1, 9, 0, 4, 4, 0, 7, 0, 1, 0, 6, 3, 0, 0, 0, 0, 0, 0, 0, 0, 0, 0, 0, 0, 8, 0, 0, 0, 0, 0, 0, 0, 0, 0, 3, 1, 10, 0, 6, 0, 0, 0, 0, 0, 0, 0, 0, 0, 0, 6, 0, 0, 0, 0, 0, 6, 0, 0, 0, 0, 0, 0, 0, 0, 0, 0, 0, 10, 0, 0, 0, 0, 0, 0, 0, 0, 0, 6, 0, 7, 0, 0, 0, 0, 0, 0, 0, 0, 9, 8, 4, 0, 6, 3, 4, 2, 0, 0, 0, 0, 0, 3, 0, 0, 0, 3, 7, 0, 1, 0, 10, 0, 0, 0, 8, 0, 0, 0, 0, 0, 0, 0, 0, 0, 0, 0, 5, 0, 0, 0, 0, 3, 0, 0, 0, 0, 10, 0, 0, 0, 0, 0, 0, 0, 5, 0]);

suc = [
   {2, 3, 4},
   {9, 18, 5},
   {14, 6, 7},
   {8, 52, 29},
   {32, 33, 21},
   {25, 22},
   {48, 11, 28},
   {54, 46},
   {16, 10, 19},
   {35, 12, 13},
   {33, 37, 55},
   {48, 57},
   {40, 47},
   {20, 15},
   {17, 30},
   {32, 26, 39},
   {56, 29, 21},
   {24},
   {40},
   {34},
   {24, 27, 23},
   {41, 34, 53},
   {39},
   {49, 58},
   {31},
   {33, 34},
   {43},
   {57},
   {43, 35},
   {42, 51},
   {53},
   {41, 45, 46},
   {50, 36},
   {56, 49},
   {58, 44},
   {41},
   {42, 38, 39},
   {40, 50},
   {45, 46},
   {54},
   {49, 51},
   {45},
   {44, 53},
   {55},
   {52, 60},
   {47},
   {50},
   {60, 54},
   {52, 61},
   {59, 51},
   {61},
   {57},
   {61},
   {56},
   {60},
   {58},
   {59},
   {59},
   {62},
   {62},
   {62},
   {  } ];

deadline = array2d(1..62, 1..3, [1, 5, 1, 3, 2, 1, 6, 5, 1, 8, 0, 4, 11, 3, 3, 12, 2, 3, 14, 2, 4, 15, 0, 0, 17, 4, 4, 21, 2, 2, 26, 4, 1, 26, 0, 5, 27, 0, 3, 34, 2, 3, 34, 2, 5, 35, 2, 2, 35, 0, 4, 43, 5, 4, 44, 1, 5, 46, 1, 2, 48, 1, 1, 48, 1, 5, 55, 0, 0, 57, 3, 5, 60, 2, 5, 64, 2, 1, 64, 3, 3, 65, 1, 0, 73, 1, 4, 77, 4, 2, 81, 4, 5, 86, 1, 0, 87, 5, 5, 94, 3, 3, 95, 2, 2, 98, 0, 1, 98, 2, 3, 99, 5, 5, 101, 1, 2, 101, 0, 3, 105, 3, 3, 107, 5, 5, 114, 2, 4, 114, 4, 4, 115, 0, 1, 116, 3, 1, 118, 0, 4, 120, 1, 4, 121, 1, 0, 121, 0, 2, 125, 1, 1, 129, 5, 2, 134, 2, 2, 135, 4, 1, 136, 5, 5, 141, 1, 3, 142, 1, 5, 142, 5, 5, 144, 0, 1, 148, 0, 4, 151, 1, 4, 159, 3, 3]);
