n_res = 4;
rc = [ 14, 18, 14, 13 ];
n_tasks = 62;
d = [0, 4, 7, 2, 7, 3, 3, 2, 9, 1, 1, 9, 2, 6, 7, 10, 5, 4, 7, 4, 4, 1, 9, 4, 3, 9, 8, 10, 10, 2, 3, 5, 3, 5, 8, 1, 8, 8, 5, 2, 1, 3, 2, 6, 7, 1, 4, 7, 7, 9, 8, 6, 1, 3, 10, 10, 6, 2, 2, 10, 3, 0];
rr = array2d(1..4, 1..62, [0, 6, 0, 10, 5, 0, 0, 0, 5, 0, 4, 0, 0, 0, 8, 9, 0, 10, 6, 0, 9, 0, 0, 1, 6, 0, 0, 1, 0, 0, 7, 5, 10, 0, 10, 6, 4, 0, 0, 6, 5, 8, 10, 0, 0, 0, 5, 3, 0, 0, 6, 4, 5, 1, 4, 0, 0, 0, 7, 0, 1, 0, 0, 4, 2, 0, 0, 0, 0, 0, 0, 0, 0, 0, 0, 2, 0, 0, 8, 8, 10, 0, 2, 2, 1, 0, 8, 2, 1, 9, 10, 0, 5, 6, 2, 10, 6, 7, 4, 10, 0, 9, 0, 6, 0, 0, 8, 8, 0, 0, 0, 0, 3, 0, 0, 0, 0, 9, 0, 0, 8, 5, 0, 0, 0, 6, 7, 8, 0, 7, 0, 4, 0, 0, 10, 1, 0, 0, 6, 0, 0, 0, 0, 0, 5, 4, 3, 10, 1, 0, 4, 0, 0, 4, 0, 4, 0, 5, 6, 10, 0, 0, 0, 5, 5, 0, 8, 9, 0, 10, 0, 6, 0, 5, 0, 5, 0, 9, 0, 0, 0, 2, 0, 0, 0, 0, 0, 0, 5, 0, 0, 0, 6, 0, 0, 7, 0, 0, 1, 1, 6, 7, 5, 0, 1, 1, 6, 0, 8, 0, 0, 4, 0, 6, 0, 1, 0, 0, 0, 0, 6, 0, 0, 1, 2, 9, 0, 0, 0, 9, 0, 5, 3, 1, 1, 0, 10, 2, 4, 1, 0, 0, 2, 0, 7, 0, 0, 0]);

suc = [
   {2, 3, 4},
   {8, 9, 16},
   {7},
   {52, 5, 6},
   {8, 45, 14},
   {36, 30, 15},
   {10, 11, 13},
   {24},
   {57, 37, 22},
   {35, 26, 27},
   {59, 12},
   {17, 34},
   {25},
   {20, 39},
   {40, 31},
   {17, 18, 30},
   {28},
   {32, 19, 37},
   {48, 33, 21},
   {24, 32, 23},
   {25, 42},
   {53, 29},
   {40, 58},
   {42, 29},
   {50},
   {50},
   {33, 51, 37},
   {61, 51, 53},
   {36},
   {43, 44},
   {34, 35},
   {33},
   {43, 36},
   {44, 55},
   {48, 38, 47},
   {54},
   {42, 38, 55},
   {41, 43},
   {56, 47},
   {57},
   {49},
   {44},
   {60, 46},
   {58},
   {49, 47},
   {49, 54},
   {57},
   {59, 50, 51},
   {56},
   {58},
   {55},
   {53},
   {60},
   {56},
   {60},
   {59},
   {61},
   {61},
   {62},
   {62},
   {62},
   {  } ];

deadline = array2d(1..62, 1..3, [1, 1, 3, 2, 3, 2, 2, 0, 1, 3, 5, 1, 5, 3, 4, 7, 2, 5, 11, 5, 1, 14, 1, 1, 14, 1, 4, 16, 4, 4, 20, 1, 0, 21, 2, 0, 24, 4, 1, 28, 0, 2, 30, 4, 0, 31, 2, 5, 35, 0, 4, 36, 1, 4, 37, 3, 5, 37, 5, 5, 40, 4, 3, 40, 0, 4, 41, 0, 2, 45, 0, 4, 45, 1, 4, 51, 5, 2, 57, 3, 4, 63, 1, 5, 66, 3, 1, 70, 3, 2, 71, 1, 3, 75, 4, 1, 76, 3, 1, 77, 0, 3, 80, 3, 4, 80, 5, 3, 81, 3, 4, 88, 0, 2, 94, 3, 5, 95, 4, 2, 101, 5, 2, 102, 5, 5, 108, 3, 4, 109, 4, 1, 110, 2, 4, 114, 4, 4, 121, 1, 5, 122, 1, 3, 124, 0, 1, 125, 4, 5, 126, 2, 0, 129, 5, 5, 132, 0, 3, 138, 3, 3, 140, 3, 5, 143, 3, 4, 147, 5, 4, 149, 1, 0, 150, 1, 3, 150, 2, 2, 151, 5, 0, 154, 0, 3]);
