n_res = 4;
rc = [ 35, 36, 30, 35 ];
n_tasks = 62;
d = [0, 2, 10, 5, 4, 2, 7, 1, 9, 5, 7, 1, 8, 4, 4, 2, 9, 4, 8, 1, 7, 10, 6, 6, 9, 4, 1, 3, 7, 1, 1, 3, 8, 3, 10, 2, 9, 9, 7, 8, 8, 2, 2, 5, 3, 1, 5, 8, 9, 1, 2, 6, 3, 2, 1, 5, 6, 5, 9, 10, 1, 0];
rr = array2d(1..4, 1..62, [0, 7, 1, 9, 4, 5, 7, 7, 10, 9, 10, 1, 8, 1, 5, 1, 7, 3, 2, 6, 6, 8, 2, 5, 9, 4, 7, 5, 1, 9, 5, 7, 4, 9, 2, 8, 6, 3, 10, 4, 3, 8, 5, 8, 5, 4, 2, 3, 9, 10, 5, 5, 2, 2, 6, 8, 1, 5, 9, 5, 7, 0, 0, 5, 10, 1, 8, 3, 1, 3, 8, 7, 3, 10, 8, 4, 6, 8, 10, 2, 8, 4, 5, 2, 10, 4, 3, 6, 1, 10, 2, 9, 7, 10, 3, 1, 8, 2, 6, 2, 4, 7, 6, 3, 6, 5, 9, 1, 1, 4, 9, 1, 2, 6, 9, 5, 10, 3, 8, 2, 7, 3, 6, 0, 0, 1, 5, 7, 6, 1, 7, 1, 7, 9, 5, 2, 5, 9, 9, 7, 2, 1, 4, 2, 7, 3, 7, 6, 9, 10, 9, 8, 8, 2, 3, 7, 3, 9, 6, 2, 5, 4, 5, 10, 6, 7, 10, 2, 1, 5, 7, 5, 4, 6, 10, 4, 2, 9, 3, 8, 5, 6, 1, 6, 10, 0, 0, 3, 10, 5, 4, 2, 6, 3, 10, 10, 1, 9, 6, 8, 3, 6, 9, 2, 9, 4, 7, 10, 3, 1, 6, 3, 4, 10, 7, 10, 9, 1, 10, 9, 9, 7, 3, 6, 9, 5, 4, 6, 1, 7, 7, 10, 3, 3, 3, 6, 4, 3, 1, 7, 10, 8, 3, 8, 10, 1, 4, 0]);

suc = [
   {2, 3, 4},
   {5},
   {40, 34, 7},
   {9, 6, 14},
   {17, 11, 54},
   {16, 31, 15},
   {8, 19},
   {33, 31},
   {49, 10, 12},
   {26, 28},
   {27, 46},
   {13},
   {40, 20},
   {17, 18, 39},
   {35, 61, 46},
   {19, 22, 30},
   {51, 29},
   {33, 60, 49},
   {24, 25, 23},
   {25, 21},
   {58, 43, 36},
   {32, 33, 43},
   {37},
   {59, 44},
   {50, 38},
   {29},
   {29, 31},
   {42, 44, 55},
   {42, 38},
   {46},
   {55, 37, 47},
   {41},
   {48, 41},
   {35},
   {48},
   {52, 54, 39},
   {39},
   {41, 47},
   {61},
   {43, 52},
   {53},
   {52, 45},
   {50, 47},
   {57},
   {60},
   {58},
   {48},
   {56},
   {53, 54},
   {56, 51},
   {55},
   {57},
   {58},
   {56, 61},
   {57},
   {59},
   {60},
   {59},
   {62},
   {62},
   {62},
   {  } ];

deadline = array2d(1..62, 1..3, [2, 1, 2, 4, 2, 3, 5, 4, 5, 12, 1, 3, 14, 1, 2, 16, 3, 0, 20, 4, 5, 21, 2, 4, 23, 2, 5, 28, 0, 2, 32, 1, 3, 35, 2, 4, 35, 0, 5, 35, 0, 4, 37, 2, 3, 42, 2, 3, 42, 2, 3, 59, 0, 4, 63, 2, 5, 64, 0, 4, 64, 4, 1, 64, 1, 4, 67, 1, 1, 70, 2, 3, 70, 4, 4, 79, 0, 0, 79, 4, 5, 80, 3, 0, 89, 2, 0, 90, 3, 4, 92, 5, 4, 94, 2, 0, 96, 5, 0, 99, 3, 2, 99, 1, 4, 100, 0, 4, 103, 4, 2, 107, 4, 0, 107, 1, 2, 114, 3, 5, 117, 3, 0, 119, 3, 5, 119, 1, 3, 120, 0, 3, 126, 4, 3, 128, 0, 4, 129, 2, 0, 129, 5, 4, 145, 0, 3, 145, 0, 2, 154, 2, 3, 157, 3, 2, 159, 5, 5, 164, 0, 4, 167, 1, 3, 170, 4, 5, 170, 2, 1, 173, 5, 0, 173, 2, 5, 174, 2, 4, 174, 5, 0, 175, 2, 2]);
