n_res = 4;
rc = [ 37, 37, 41, 31 ];
n_tasks = 62;
d = [0, 2, 4, 2, 9, 5, 2, 5, 7, 10, 1, 5, 4, 5, 10, 2, 10, 2, 6, 10, 10, 10, 8, 1, 10, 10, 3, 10, 7, 3, 2, 9, 4, 7, 2, 3, 9, 5, 7, 8, 4, 8, 4, 10, 1, 3, 3, 1, 6, 6, 1, 1, 6, 8, 7, 1, 5, 1, 9, 5, 10, 0];
rr = array2d(1..4, 1..62, [0, 1, 7, 2, 9, 7, 2, 3, 4, 3, 7, 1, 4, 6, 6, 8, 3, 4, 3, 9, 4, 9, 8, 2, 9, 2, 7, 6, 10, 5, 6, 7, 4, 10, 5, 6, 6, 9, 4, 6, 7, 4, 2, 3, 5, 8, 5, 8, 9, 10, 5, 5, 9, 9, 6, 5, 8, 5, 9, 10, 3, 0, 0, 10, 9, 7, 4, 2, 3, 8, 8, 3, 5, 6, 8, 2, 8, 1, 10, 9, 10, 9, 7, 5, 6, 8, 3, 5, 6, 8, 3, 1, 3, 5, 7, 1, 8, 1, 3, 2, 5, 7, 7, 7, 2, 1, 10, 8, 6, 1, 7, 3, 3, 10, 8, 1, 1, 2, 8, 1, 5, 7, 7, 0, 0, 4, 4, 6, 5, 10, 4, 2, 5, 4, 10, 1, 4, 2, 3, 7, 9, 5, 4, 8, 1, 9, 5, 1, 10, 4, 6, 6, 9, 9, 4, 6, 1, 8, 10, 5, 7, 2, 7, 9, 6, 10, 10, 8, 7, 2, 4, 8, 4, 10, 5, 8, 1, 4, 10, 3, 2, 7, 1, 7, 10, 0, 0, 1, 6, 9, 7, 5, 4, 8, 2, 9, 3, 3, 8, 1, 1, 1, 7, 8, 2, 7, 8, 8, 7, 8, 3, 5, 6, 9, 6, 2, 6, 6, 8, 1, 8, 4, 1, 4, 3, 3, 7, 10, 7, 3, 8, 4, 6, 10, 9, 5, 6, 2, 9, 2, 5, 7, 4, 8, 7, 8, 1, 0]);

suc = [
   {2, 3, 4},
   {10, 21, 7},
   {5, 7},
   {34, 12, 29},
   {11, 13, 6},
   {18, 29, 14},
   {8, 34, 12},
   {16, 9, 52},
   {49, 13},
   {41, 30, 47},
   {18, 39, 15},
   {17, 26, 31},
   {35, 31, 23},
   {24, 32, 22},
   {35, 30, 31},
   {33, 19, 20},
   {25, 18, 37},
   {24, 40, 42},
   {43, 46, 23},
   {24, 54, 46},
   {29, 38},
   {43, 36, 44},
   {37},
   {48, 41, 47},
   {49, 58, 54},
   {27, 52, 45},
   {56, 35, 28},
   {48},
   {32, 55},
   {34, 36, 58},
   {38, 55},
   {50, 43, 44},
   {40, 42, 36},
   {57},
   {42, 37},
   {45, 38},
   {41, 51, 47},
   {51},
   {40, 51, 44},
   {50, 45, 46},
   {50},
   {57},
   {48, 56},
   {56, 52},
   {55},
   {57, 53},
   {61},
   {49},
   {53},
   {58, 53},
   {54},
   {59, 61},
   {60},
   {61},
   {59},
   {59},
   {60},
   {60},
   {62},
   {62},
   {62},
   {  } ];

deadline = array2d(1..62, 1..3, [2, 2, 2, 7, 0, 2, 9, 5, 0, 10, 0, 1, 11, 5, 4, 13, 3, 5, 14, 4, 3, 17, 5, 5, 18, 1, 3, 18, 0, 2, 20, 1, 5, 22, 1, 4, 27, 0, 3, 28, 1, 4, 28, 1, 2, 31, 3, 5, 37, 4, 3, 37, 2, 4, 41, 4, 4, 41, 1, 4, 41, 0, 1, 44, 5, 0, 49, 3, 2, 50, 4, 0, 55, 3, 2, 63, 4, 3, 63, 4, 0, 63, 1, 5, 64, 0, 1, 64, 2, 2, 65, 2, 5, 68, 0, 5, 71, 2, 1, 79, 1, 5, 80, 4, 3, 81, 0, 0, 86, 3, 1, 90, 2, 0, 91, 3, 1, 92, 5, 5, 97, 0, 3, 101, 0, 3, 109, 2, 4, 110, 3, 3, 113, 1, 5, 122, 1, 5, 126, 1, 1, 127, 5, 0, 128, 4, 0, 128, 0, 0, 129, 2, 1, 130, 0, 0, 130, 2, 3, 130, 5, 3, 131, 2, 1, 133, 4, 5, 136, 5, 2, 137, 0, 5, 138, 3, 5, 142, 2, 3, 146, 5, 4, 149, 5, 5]);
