n_res = 4;
rc = [ 35, 35, 41, 35 ];
n_tasks = 62;
d = [0, 4, 2, 9, 9, 9, 5, 6, 2, 4, 8, 4, 4, 8, 6, 7, 3, 2, 3, 2, 4, 10, 4, 3, 5, 2, 5, 9, 4, 4, 8, 5, 5, 9, 5, 1, 3, 3, 4, 8, 6, 1, 10, 4, 3, 2, 6, 2, 9, 5, 5, 2, 1, 4, 6, 10, 6, 7, 1, 9, 10, 0];
rr = array2d(1..4, 1..62, [0, 8, 8, 9, 1, 6, 6, 9, 3, 9, 6, 8, 6, 2, 7, 8, 10, 9, 3, 4, 4, 5, 1, 8, 3, 1, 3, 8, 2, 2, 6, 4, 2, 5, 10, 6, 5, 4, 6, 9, 9, 5, 9, 5, 8, 4, 7, 9, 9, 2, 4, 8, 6, 9, 3, 2, 6, 5, 4, 4, 1, 0, 0, 6, 5, 8, 4, 10, 9, 6, 4, 2, 8, 6, 4, 7, 6, 2, 1, 8, 1, 1, 3, 4, 8, 9, 3, 9, 10, 6, 6, 9, 10, 2, 4, 6, 4, 8, 8, 5, 10, 3, 5, 8, 5, 7, 1, 5, 1, 9, 8, 5, 1, 1, 10, 2, 10, 7, 9, 8, 9, 10, 6, 0, 0, 10, 1, 10, 10, 7, 8, 9, 1, 9, 5, 4, 2, 8, 10, 3, 5, 7, 7, 4, 10, 8, 2, 4, 9, 5, 1, 9, 4, 9, 3, 4, 2, 2, 1, 2, 8, 5, 3, 10, 7, 5, 5, 7, 5, 2, 3, 8, 2, 10, 10, 8, 2, 5, 1, 10, 8, 7, 6, 8, 5, 0, 0, 5, 6, 4, 6, 10, 4, 1, 8, 1, 2, 9, 2, 4, 2, 3, 6, 8, 4, 8, 8, 5, 5, 2, 1, 2, 1, 9, 7, 7, 5, 7, 10, 9, 9, 5, 6, 2, 10, 6, 7, 4, 2, 6, 9, 6, 3, 8, 2, 5, 3, 4, 2, 10, 7, 5, 2, 5, 9, 1, 8, 0]);

suc = [
   {2, 3, 4},
   {39, 6, 22},
   {11, 20, 5},
   {18, 45, 31},
   {9, 12, 7},
   {8, 19, 13},
   {16, 21, 14},
   {10, 26},
   {26, 19, 15},
   {18, 27, 12},
   {26, 21, 46},
   {48},
   {24, 49, 30},
   {40, 18, 53},
   {30, 22, 23},
   {17, 35, 31},
   {40, 49, 58},
   {56, 25, 44},
   {32, 42, 28},
   {48, 45, 39},
   {33, 44, 52},
   {24},
   {32, 29},
   {25, 28, 37},
   {36, 54, 55},
   {34, 29},
   {41, 37, 30},
   {34, 36},
   {35, 31},
   {32},
   {40, 50, 43},
   {34, 36, 52},
   {59, 54, 39},
   {43, 60},
   {37, 38},
   {46},
   {43, 44, 54},
   {42, 45},
   {57, 53},
   {51, 47},
   {50, 46, 47},
   {50, 47},
   {53},
   {48, 55},
   {49},
   {51},
   {55},
   {57, 61},
   {56, 51},
   {56, 52},
   {59, 61},
   {58},
   {61},
   {58},
   {57},
   {59},
   {60},
   {60},
   {62},
   {62},
   {62},
   {  } ];

deadline = array2d(1..62, 1..3, [4, 2, 3, 8, 0, 4, 10, 2, 1, 13, 4, 2, 15, 1, 5, 19, 5, 1, 21, 4, 3, 25, 5, 3, 35, 4, 1, 39, 4, 0, 41, 2, 0, 45, 2, 1, 45, 1, 4, 47, 2, 5, 47, 4, 3, 48, 5, 0, 48, 5, 5, 63, 4, 2, 68, 2, 3, 69, 4, 0, 70, 5, 1, 74, 5, 4, 78, 1, 4, 80, 3, 4, 83, 5, 3, 83, 3, 3, 87, 0, 0, 90, 3, 1, 96, 4, 2, 98, 0, 1, 98, 0, 3, 100, 1, 1, 100, 5, 1, 108, 0, 5, 110, 2, 1, 112, 4, 4, 113, 3, 2, 118, 4, 5, 121, 0, 1, 123, 1, 4, 123, 2, 5, 124, 0, 0, 125, 2, 5, 125, 2, 2, 126, 4, 0, 130, 4, 4, 136, 3, 1, 140, 5, 3, 140, 4, 4, 144, 2, 2, 145, 1, 2, 148, 4, 3, 152, 4, 5, 154, 0, 0, 160, 1, 3, 162, 3, 2, 162, 0, 5, 167, 2, 3, 170, 1, 4, 170, 0, 2, 171, 1, 1, 174, 4, 0]);
