n_res = 4;
rc = [ 45, 32, 52, 53 ];
n_tasks = 62;
d = [0, 4, 1, 1, 3, 9, 4, 4, 9, 9, 9, 4, 6, 7, 6, 2, 1, 1, 9, 6, 3, 6, 9, 2, 1, 2, 7, 5, 2, 2, 4, 3, 7, 6, 2, 4, 5, 4, 5, 6, 10, 9, 8, 7, 10, 6, 3, 7, 2, 3, 7, 10, 2, 8, 1, 5, 8, 3, 7, 7, 4, 0];
rr = array2d(1..4, 1..62, [0, 4, 1, 8, 4, 4, 4, 9, 8, 0, 2, 4, 3, 10, 0, 7, 5, 6, 6, 8, 10, 0, 0, 10, 8, 0, 0, 0, 10, 8, 9, 8, 5, 3, 0, 0, 6, 0, 8, 4, 0, 10, 8, 4, 2, 7, 0, 3, 0, 2, 5, 1, 10, 2, 5, 10, 10, 4, 3, 8, 2, 0, 0, 7, 0, 9, 1, 10, 6, 3, 4, 6, 7, 8, 3, 0, 3, 8, 7, 4, 2, 0, 0, 2, 3, 10, 4, 8, 0, 0, 0, 0, 0, 7, 0, 2, 3, 0, 1, 1, 0, 0, 3, 2, 0, 7, 4, 10, 3, 1, 0, 5, 2, 1, 8, 2, 0, 7, 3, 4, 3, 6, 0, 0, 0, 10, 0, 7, 3, 5, 8, 0, 8, 4, 0, 1, 6, 6, 6, 1, 0, 3, 6, 3, 6, 3, 7, 0, 4, 8, 9, 0, 10, 0, 9, 8, 2, 1, 3, 9, 8, 9, 1, 0, 0, 9, 4, 0, 3, 0, 8, 4, 0, 1, 4, 7, 10, 0, 10, 10, 4, 2, 3, 0, 0, 0, 0, 0, 1, 0, 6, 7, 6, 0, 8, 3, 7, 0, 0, 0, 9, 1, 3, 0, 6, 0, 10, 8, 1, 1, 4, 7, 2, 5, 3, 1, 4, 1, 3, 10, 6, 9, 8, 0, 7, 0, 7, 1, 6, 7, 10, 8, 3, 0, 3, 0, 5, 4, 9, 7, 8, 2, 6, 2, 0, 0, 3, 0]);

suc = [
   {2, 3, 4},
   {5, 14, 7},
   {11, 36, 39},
   {18, 27, 12},
   {6},
   {8, 59},
   {9, 34, 13},
   {44, 30},
   {17, 10, 15},
   {28, 36, 39},
   {16, 40, 23},
   {43, 15},
   {24, 20, 39},
   {21},
   {42},
   {25, 19, 22},
   {60},
   {58, 45, 38},
   {26, 28, 47},
   {51, 29, 22},
   {28, 30, 36},
   {54},
   {27, 55, 31},
   {48, 61},
   {33},
   {49, 53},
   {57, 50, 37},
   {48},
   {32, 42, 53},
   {34},
   {41, 38},
   {58},
   {34, 35, 44},
   {60},
   {46},
   {41, 44, 47},
   {56},
   {42, 46},
   {50},
   {51},
   {50, 43},
   {54},
   {56, 52},
   {55},
   {46, 47},
   {57, 52},
   {48, 52},
   {57},
   {51, 55},
   {61},
   {54},
   {53},
   {61},
   {59},
   {56},
   {58},
   {59},
   {60},
   {62},
   {62},
   {62},
   {  } ];

deadline = array2d(1..62, 1..3, [9, 2, 5, 22, 4, 4, 23, 3, 1, 28, 2, 1, 29, 2, 3, 31, 1, 3, 32, 0, 2, 32, 1, 2, 33, 0, 3, 34, 0, 4, 35, 3, 1, 37, 4, 4, 45, 4, 4, 45, 4, 2, 45, 2, 4, 49, 1, 2, 52, 4, 0, 53, 5, 4, 53, 0, 0, 53, 0, 4, 54, 4, 5, 57, 2, 0, 63, 5, 2, 64, 3, 0, 69, 5, 4, 71, 5, 0, 75, 0, 5, 76, 2, 4, 84, 1, 1, 85, 1, 3, 89, 4, 5, 90, 3, 3, 97, 2, 0, 98, 0, 4, 100, 1, 0, 103, 4, 3, 107, 2, 1, 109, 2, 2, 110, 2, 2, 112, 3, 2, 118, 5, 5, 119, 2, 5, 121, 0, 5, 122, 1, 3, 127, 1, 1, 128, 5, 5, 128, 1, 4, 129, 0, 0, 130, 4, 1, 134, 3, 3, 135, 2, 0, 143, 5, 3, 144, 5, 4, 145, 1, 4, 149, 4, 1, 150, 1, 2, 150, 0, 3, 150, 3, 3, 156, 2, 5, 157, 0, 3, 158, 1, 3, 160, 1, 2]);
