n_res = 4;
rc = [ 27, 32, 35, 27 ];
n_tasks = 62;
d = [0, 9, 10, 1, 4, 1, 6, 2, 7, 4, 1, 3, 10, 4, 7, 9, 2, 3, 9, 5, 1, 8, 5, 10, 10, 4, 7, 5, 4, 9, 8, 4, 10, 3, 8, 7, 7, 5, 10, 7, 4, 6, 3, 1, 7, 8, 1, 8, 4, 10, 1, 6, 4, 1, 2, 6, 3, 2, 9, 5, 1, 0];
rr = array2d(1..4, 1..62, [0, 10, 4, 2, 6, 7, 7, 6, 8, 9, 8, 3, 6, 6, 5, 9, 9, 6, 2, 2, 2, 4, 3, 2, 6, 7, 2, 5, 2, 2, 2, 8, 1, 4, 1, 8, 9, 9, 5, 8, 9, 8, 10, 1, 2, 4, 7, 10, 10, 1, 10, 3, 5, 2, 3, 1, 6, 3, 1, 5, 10, 0, 0, 7, 6, 6, 6, 9, 7, 1, 10, 7, 4, 3, 8, 2, 5, 1, 8, 1, 10, 3, 7, 7, 10, 3, 4, 4, 4, 6, 10, 10, 7, 10, 1, 5, 4, 10, 1, 8, 9, 8, 10, 5, 1, 6, 10, 8, 10, 8, 1, 8, 10, 5, 8, 10, 2, 9, 8, 4, 4, 10, 2, 0, 0, 2, 1, 3, 9, 6, 2, 2, 1, 2, 2, 6, 8, 9, 9, 1, 6, 10, 9, 8, 10, 5, 8, 2, 8, 10, 10, 2, 10, 2, 4, 6, 8, 3, 6, 10, 1, 1, 3, 7, 6, 9, 3, 6, 5, 2, 3, 2, 8, 4, 8, 1, 8, 2, 9, 6, 4, 6, 4, 5, 2, 0, 0, 6, 2, 9, 5, 3, 8, 10, 4, 9, 3, 8, 2, 8, 6, 1, 9, 10, 6, 6, 10, 6, 4, 5, 2, 8, 9, 4, 4, 4, 7, 2, 3, 2, 10, 2, 1, 2, 1, 9, 6, 7, 3, 1, 1, 7, 6, 4, 1, 1, 3, 6, 1, 3, 4, 7, 10, 8, 7, 5, 10, 0]);

suc = [
   {2, 3, 4},
   {10, 5, 6},
   {9, 18, 25},
   {8, 11, 7},
   {17, 13, 49},
   {8, 43, 12},
   {18, 35, 28},
   {33, 53, 15},
   {12, 28},
   {56, 22, 47},
   {16, 32, 15},
   {60, 14},
   {24, 20, 21},
   {50},
   {17, 30},
   {27, 19, 31},
   {48, 34, 46},
   {56, 49, 23},
   {50, 45, 46},
   {35, 27, 23},
   {42, 29, 23},
   {32, 26, 50},
   {34, 36, 37},
   {25, 47, 39},
   {36, 37, 31},
   {33, 36, 38},
   {33, 51, 41},
   {49, 30},
   {34},
   {40, 51, 46},
   {56, 44, 53},
   {43, 35, 37},
   {57, 52, 39},
   {59, 51, 38},
   {40, 45, 38},
   {43, 55},
   {41, 61},
   {39},
   {44},
   {41, 44, 57},
   {54},
   {54, 47},
   {45},
   {55},
   {48},
   {55},
   {48, 53},
   {58},
   {52},
   {58},
   {52, 61},
   {54},
   {58},
   {60},
   {60},
   {57},
   {59, 61},
   {59},
   {62},
   {62},
   {62},
   {  } ];

deadline = array2d(1..62, 1..3, [3, 1, 3, 10, 0, 0, 14, 3, 5, 16, 1, 5, 20, 1, 2, 30, 2, 4, 30, 5, 2, 33, 5, 2, 33, 1, 0, 43, 0, 0, 44, 4, 2, 44, 2, 0, 46, 5, 0, 49, 1, 3, 49, 0, 1, 51, 4, 0, 52, 3, 1, 52, 5, 5, 60, 5, 0, 62, 3, 3, 64, 5, 2, 67, 0, 4, 71, 5, 5, 76, 3, 3, 76, 1, 2, 78, 2, 5, 79, 5, 2, 80, 0, 2, 81, 0, 5, 84, 4, 5, 87, 2, 1, 88, 5, 3, 90, 3, 4, 93, 4, 0, 95, 4, 5, 104, 2, 1, 106, 4, 4, 107, 2, 0, 111, 5, 1, 113, 0, 2, 115, 1, 5, 116, 5, 3, 123, 0, 0, 123, 4, 5, 128, 5, 3, 134, 2, 5, 135, 3, 1, 136, 2, 1, 137, 1, 0, 138, 5, 2, 145, 4, 0, 149, 2, 2, 151, 3, 0, 156, 0, 0, 169, 3, 2, 171, 4, 3, 175, 0, 1, 185, 3, 3, 187, 3, 5, 189, 1, 1, 189, 3, 4, 196, 3, 1]);
