n_res = 4;
rc = [ 15, 15, 13, 16 ];
n_tasks = 62;
d = [0, 8, 2, 3, 8, 1, 3, 2, 9, 4, 1, 1, 7, 4, 8, 8, 3, 7, 2, 3, 1, 1, 3, 2, 9, 6, 6, 3, 1, 8, 2, 6, 8, 4, 6, 10, 3, 5, 9, 8, 2, 9, 9, 9, 1, 2, 2, 7, 10, 3, 4, 1, 2, 7, 6, 3, 1, 8, 8, 6, 4, 0];
rr = array2d(1..4, 1..62, [0, 7, 0, 0, 0, 0, 3, 0, 0, 0, 5, 0, 0, 0, 0, 0, 8, 0, 0, 0, 0, 0, 0, 5, 0, 0, 1, 0, 9, 0, 0, 0, 7, 3, 0, 0, 0, 2, 0, 0, 0, 0, 0, 0, 0, 0, 0, 4, 0, 0, 0, 0, 0, 0, 0, 0, 0, 0, 8, 4, 0, 0, 0, 0, 0, 4, 0, 1, 0, 0, 1, 6, 0, 1, 5, 0, 0, 0, 0, 0, 0, 0, 0, 0, 0, 0, 0, 9, 0, 0, 0, 0, 0, 4, 0, 0, 0, 0, 0, 0, 0, 0, 0, 7, 9, 0, 0, 0, 0, 0, 0, 1, 0, 0, 3, 4, 0, 0, 8, 0, 0, 0, 10, 0, 0, 0, 10, 0, 0, 0, 0, 2, 0, 0, 0, 0, 0, 0, 0, 3, 0, 0, 0, 0, 10, 1, 0, 0, 0, 0, 0, 4, 0, 0, 0, 0, 0, 0, 3, 0, 0, 0, 6, 8, 0, 0, 0, 0, 0, 4, 9, 0, 0, 0, 6, 10, 0, 0, 0, 0, 0, 0, 0, 0, 0, 0, 0, 0, 0, 0, 5, 0, 0, 0, 0, 0, 0, 0, 0, 4, 3, 0, 0, 5, 2, 3, 0, 0, 4, 0, 4, 0, 0, 0, 0, 8, 1, 0, 0, 0, 0, 6, 4, 0, 0, 0, 9, 0, 0, 5, 1, 0, 0, 0, 5, 0, 0, 0, 0, 0, 2, 7, 0, 7, 0, 0, 0, 0]);

suc = [
   {2, 3, 4},
   {11, 5, 7},
   {8, 16, 10},
   {38, 40, 14},
   {33, 21, 6},
   {32, 58, 52},
   {9, 18, 20},
   {24, 11, 22},
   {12, 15},
   {44, 22, 39},
   {32, 28, 13},
   {61, 47},
   {57, 26, 31},
   {45, 21, 22},
   {17, 34, 33},
   {41, 36, 44},
   {35, 21},
   {27, 19, 38},
   {34, 45, 46},
   {52, 39, 23},
   {48, 51, 47},
   {27, 53, 46},
   {32, 30, 31},
   {25, 36, 33},
   {27, 60, 29},
   {43, 29, 30},
   {56, 34},
   {37, 29, 31},
   {59},
   {44},
   {49, 35, 36},
   {43, 55},
   {41, 35, 60},
   {57, 51},
   {54},
   {38},
   {40, 45, 47},
   {43, 46},
   {40, 41, 48},
   {42, 54},
   {42, 50},
   {53},
   {60},
   {55},
   {48, 49, 52},
   {50, 51},
   {49, 50},
   {53},
   {55},
   {54},
   {58},
   {56},
   {57, 58},
   {56},
   {59},
   {59},
   {61},
   {61},
   {62},
   {62},
   {62},
   {  } ];

deadline = array2d(1..62, 1..3, [1, 2, 4, 1, 1, 1, 20, 0, 3, 21, 3, 5, 22, 2, 5, 22, 0, 0, 27, 3, 2, 27, 3, 1, 28, 3, 0, 29, 5, 5, 30, 5, 2, 33, 4, 1, 33, 0, 2, 33, 3, 5, 40, 2, 1, 43, 5, 0, 43, 4, 5, 43, 1, 2, 52, 0, 0, 53, 0, 1, 55, 4, 4, 57, 2, 3, 63, 2, 3, 65, 2, 5, 65, 0, 5, 66, 5, 4, 67, 3, 2, 76, 0, 0, 79, 1, 2, 80, 2, 5, 82, 1, 1, 83, 0, 4, 89, 2, 1, 93, 4, 1, 99, 3, 2, 104, 1, 1, 104, 5, 0, 105, 3, 3, 106, 3, 5, 107, 0, 1, 107, 0, 5, 111, 5, 3, 114, 3, 2, 115, 2, 2, 118, 4, 1, 119, 0, 5, 121, 2, 4, 121, 1, 2, 123, 1, 4, 127, 1, 4, 129, 1, 4, 130, 4, 2, 132, 4, 3, 134, 2, 3, 135, 0, 5, 135, 2, 0, 136, 2, 1, 139, 0, 3, 139, 5, 2, 143, 1, 5, 143, 2, 5, 145, 2, 0]);
