n_res = 4;
rc = [ 14, 16, 13, 14 ];
n_tasks = 62;
d = [0, 3, 6, 1, 8, 8, 10, 7, 3, 10, 9, 10, 5, 9, 7, 10, 7, 9, 2, 5, 9, 4, 9, 10, 8, 1, 10, 10, 7, 4, 10, 5, 5, 9, 1, 5, 3, 5, 4, 5, 3, 10, 8, 4, 4, 9, 4, 10, 10, 2, 3, 6, 10, 10, 2, 2, 6, 8, 8, 10, 9, 0];
rr = array2d(1..4, 1..62, [0, 8, 1, 0, 9, 0, 7, 2, 10, 1, 0, 10, 10, 0, 0, 4, 4, 0, 0, 0, 6, 0, 0, 0, 7, 0, 2, 7, 0, 0, 7, 1, 0, 0, 0, 2, 0, 0, 0, 0, 1, 0, 6, 1, 0, 0, 0, 0, 8, 8, 9, 0, 10, 2, 0, 0, 8, 0, 9, 0, 0, 0, 0, 0, 0, 1, 2, 0, 0, 5, 1, 7, 8, 6, 0, 7, 8, 0, 0, 0, 4, 10, 9, 0, 0, 0, 10, 0, 9, 0, 0, 0, 2, 0, 5, 3, 10, 8, 6, 0, 7, 0, 0, 9, 0, 6, 0, 0, 8, 0, 4, 5, 0, 0, 0, 0, 2, 1, 0, 0, 7, 5, 3, 0, 0, 0, 4, 4, 0, 0, 0, 8, 0, 0, 4, 0, 9, 0, 0, 0, 7, 6, 0, 0, 1, 5, 2, 2, 0, 3, 0, 0, 10, 0, 3, 0, 3, 8, 0, 4, 0, 0, 8, 0, 0, 10, 0, 0, 8, 0, 0, 0, 9, 8, 0, 0, 7, 7, 0, 8, 1, 4, 0, 10, 0, 0, 0, 0, 0, 8, 10, 2, 0, 0, 7, 0, 9, 0, 0, 9, 6, 0, 0, 3, 6, 0, 7, 0, 9, 5, 0, 3, 1, 9, 8, 2, 0, 0, 0, 5, 0, 0, 5, 8, 1, 10, 1, 7, 0, 0, 8, 3, 0, 10, 2, 5, 0, 4, 0, 10, 0, 0, 7, 8, 9, 0, 0, 0]);

suc = [
   {2, 3, 4},
   {11, 12, 23},
   {19, 5, 15},
   {8, 6, 7},
   {18, 14},
   {18, 20, 21},
   {16, 9, 30},
   {9, 10, 20},
   {26, 44, 15},
   {17, 13, 33},
   {41, 26},
   {25, 50, 27},
   {28, 47, 15},
   {16, 35, 29},
   {32, 37},
   {21, 22, 23},
   {60, 31},
   {30, 39},
   {25, 27, 51},
   {24, 44, 22},
   {48, 36},
   {58, 31},
   {34, 37, 38},
   {42, 45, 30},
   {35, 39, 31},
   {50, 29, 39},
   {40, 43},
   {40, 34, 51},
   {32, 55, 47},
   {35, 37, 46},
   {41},
   {45},
   {41, 49},
   {49, 42, 53},
   {52},
   {44, 61},
   {53},
   {48, 49, 45},
   {40, 43, 46},
   {53, 55},
   {59},
   {48, 43},
   {56},
   {54, 46},
   {51, 54},
   {55, 47},
   {57},
   {56, 50},
   {56, 54},
   {52},
   {52},
   {58, 59},
   {57, 61},
   {57},
   {60},
   {61},
   {58, 59},
   {60},
   {62},
   {62},
   {62},
   {  } ];

deadline = array2d(1..62, 1..3, [2, 5, 3, 3, 2, 1, 3, 4, 4, 5, 1, 1, 11, 0, 3, 13, 2, 2, 16, 2, 4, 23, 1, 5, 25, 5, 5, 36, 0, 3, 42, 1, 5, 42, 3, 5, 47, 0, 2, 50, 1, 4, 57, 2, 2, 62, 0, 0, 64, 3, 0, 65, 1, 4, 68, 4, 2, 71, 2, 0, 71, 5, 4, 74, 4, 2, 76, 4, 1, 76, 0, 5, 76, 2, 5, 89, 4, 5, 97, 4, 0, 102, 5, 2, 106, 4, 3, 115, 1, 4, 122, 1, 5, 122, 1, 3, 129, 4, 2, 132, 0, 5, 140, 1, 3, 142, 5, 4, 145, 1, 5, 145, 0, 0, 154, 2, 3, 154, 5, 1, 157, 0, 2, 162, 3, 1, 162, 1, 5, 163, 0, 4, 163, 1, 5, 172, 2, 2, 176, 5, 3, 180, 0, 2, 183, 5, 4, 184, 3, 2, 185, 2, 4, 194, 1, 4, 201, 3, 4, 202, 1, 4, 204, 4, 3, 205, 5, 3, 210, 1, 5, 221, 4, 2, 227, 1, 5, 227, 0, 3, 230, 2, 4, 240, 2, 1]);
