n_res = 4;
rc = [ 28, 18, 32, 33 ];
n_tasks = 62;
d = [0, 7, 5, 10, 5, 7, 3, 6, 9, 5, 10, 1, 10, 5, 6, 9, 5, 8, 6, 3, 1, 3, 3, 7, 8, 9, 5, 2, 10, 4, 9, 7, 5, 6, 1, 3, 7, 4, 1, 7, 1, 9, 9, 6, 6, 6, 7, 9, 8, 9, 5, 3, 10, 5, 5, 9, 1, 7, 3, 7, 10, 0];
rr = array2d(1..4, 1..62, [0, 0, 4, 0, 10, 3, 10, 5, 0, 4, 2, 7, 1, 6, 8, 0, 10, 0, 0, 7, 3, 9, 9, 0, 2, 1, 0, 2, 0, 4, 8, 10, 0, 10, 0, 0, 0, 2, 4, 3, 0, 9, 6, 6, 6, 2, 0, 9, 0, 10, 0, 7, 9, 7, 1, 0, 0, 10, 0, 3, 0, 0, 0, 2, 0, 8, 9, 0, 0, 8, 6, 0, 8, 2, 10, 0, 0, 4, 0, 0, 0, 0, 0, 0, 5, 0, 1, 0, 0, 0, 0, 0, 2, 0, 0, 0, 0, 0, 9, 0, 9, 7, 0, 0, 0, 0, 1, 8, 0, 2, 9, 0, 0, 0, 0, 4, 0, 10, 0, 1, 0, 0, 0, 0, 0, 0, 0, 0, 0, 9, 1, 0, 9, 0, 6, 0, 5, 0, 9, 3, 0, 9, 4, 0, 0, 0, 0, 9, 10, 9, 0, 10, 6, 0, 5, 0, 7, 4, 5, 10, 0, 0, 8, 7, 0, 0, 0, 0, 4, 0, 5, 4, 0, 0, 0, 7, 7, 3, 5, 0, 3, 4, 0, 10, 9, 0, 0, 0, 6, 1, 9, 7, 9, 2, 0, 0, 0, 6, 0, 7, 6, 7, 10, 0, 7, 0, 3, 10, 0, 7, 0, 0, 9, 4, 0, 0, 0, 2, 2, 0, 0, 7, 0, 0, 0, 0, 6, 7, 7, 9, 0, 0, 0, 0, 7, 0, 4, 0, 0, 0, 0, 0, 7, 0, 9, 0, 0, 0]);

suc = [
   {2, 3, 4},
   {16, 32, 7},
   {48, 9, 23},
   {17, 5, 15},
   {8, 11, 6},
   {42, 39},
   {51, 19, 31},
   {50, 44},
   {10, 27, 14},
   {26, 12},
   {18, 28, 13},
   {46, 20, 36},
   {34, 21, 30},
   {25, 44},
   {36, 30},
   {22},
   {24, 40, 35},
   {58, 59},
   {21},
   {33, 51},
   {29},
   {44, 38},
   {45},
   {32, 37},
   {34, 43},
   {52},
   {42, 47},
   {49, 43},
   {48, 54, 39},
   {50},
   {37},
   {51, 53},
   {40, 34},
   {56, 41, 47},
   {48, 61},
   {47},
   {45},
   {40},
   {49, 43},
   {56, 58},
   {50, 54},
   {61, 46},
   {46, 55},
   {45, 54},
   {49, 52, 60},
   {59},
   {52, 60},
   {56, 59},
   {55},
   {53},
   {57},
   {53},
   {55},
   {57},
   {58},
   {57},
   {60},
   {61},
   {62},
   {62},
   {62},
   {  } ];

deadline = array2d(1..62, 1..3, [5, 1, 2, 7, 1, 5, 8, 1, 2, 9, 5, 0, 19, 2, 4, 20, 4, 5, 22, 4, 3, 23, 3, 0, 23, 3, 5, 34, 0, 2, 36, 5, 0, 37, 3, 0, 38, 1, 5, 48, 4, 3, 49, 5, 5, 51, 2, 5, 53, 2, 1, 54, 2, 3, 64, 1, 3, 69, 0, 1, 71, 4, 5, 72, 5, 4, 73, 3, 5, 78, 1, 0, 79, 5, 1, 80, 0, 1, 83, 0, 2, 83, 3, 1, 84, 1, 1, 94, 1, 3, 95, 2, 2, 97, 0, 0, 104, 2, 1, 108, 3, 0, 111, 5, 4, 113, 1, 1, 114, 4, 0, 124, 5, 5, 130, 1, 3, 131, 5, 2, 131, 5, 5, 140, 2, 1, 144, 3, 4, 152, 0, 5, 154, 2, 3, 159, 2, 4, 161, 0, 3, 162, 5, 3, 174, 0, 2, 175, 0, 5, 180, 5, 1, 180, 0, 5, 183, 3, 0, 185, 1, 4, 185, 5, 4, 188, 3, 3, 200, 5, 4, 202, 5, 5, 203, 0, 2, 203, 2, 2, 204, 3, 0, 206, 4, 0]);
