n_res = 4;
rc = [ 33, 31, 35, 37 ];
n_tasks = 62;
d = [0, 5, 4, 4, 7, 10, 3, 7, 10, 6, 5, 2, 7, 5, 2, 6, 10, 10, 7, 1, 1, 6, 1, 6, 1, 4, 2, 4, 3, 5, 1, 9, 7, 5, 4, 6, 10, 6, 4, 3, 7, 2, 10, 4, 10, 2, 9, 5, 3, 5, 10, 3, 7, 1, 8, 4, 2, 10, 3, 2, 9, 0];
rr = array2d(1..4, 1..62, [0, 5, 1, 9, 2, 6, 8, 2, 7, 4, 9, 9, 8, 1, 5, 1, 9, 4, 7, 5, 2, 10, 7, 3, 6, 7, 5, 10, 9, 7, 8, 7, 3, 8, 1, 4, 9, 10, 6, 4, 4, 4, 2, 2, 1, 3, 1, 1, 6, 10, 7, 2, 4, 8, 1, 3, 6, 9, 8, 6, 1, 0, 0, 2, 2, 1, 8, 1, 1, 7, 3, 6, 4, 1, 10, 5, 3, 4, 4, 6, 3, 10, 10, 3, 10, 4, 4, 10, 6, 4, 3, 4, 2, 1, 3, 1, 6, 10, 7, 4, 7, 4, 1, 5, 1, 4, 4, 7, 4, 7, 9, 2, 2, 6, 1, 6, 10, 4, 3, 1, 9, 4, 9, 0, 0, 10, 6, 6, 2, 6, 4, 6, 10, 10, 1, 4, 3, 3, 10, 7, 4, 9, 5, 6, 8, 7, 7, 2, 7, 3, 7, 10, 10, 8, 5, 8, 1, 8, 5, 5, 7, 9, 6, 1, 4, 10, 4, 2, 3, 6, 1, 4, 3, 1, 7, 8, 3, 9, 9, 1, 3, 1, 7, 2, 3, 0, 0, 10, 5, 3, 1, 8, 7, 4, 10, 6, 1, 3, 1, 6, 8, 8, 10, 8, 10, 2, 5, 4, 2, 10, 7, 8, 10, 6, 4, 7, 2, 10, 10, 3, 3, 10, 3, 8, 4, 7, 4, 6, 2, 6, 7, 6, 4, 8, 10, 5, 8, 9, 9, 3, 5, 7, 10, 3, 9, 5, 7, 0]);

suc = [
   {2, 3, 4},
   {27, 5, 6},
   {32, 33, 12},
   {41, 11, 13},
   {43, 7},
   {8, 28, 22},
   {10, 15},
   {9, 18, 20},
   {49, 30},
   {38},
   {23},
   {26, 20},
   {16, 14, 31},
   {17},
   {37, 29},
   {17},
   {25},
   {19},
   {42, 46},
   {21},
   {24, 52},
   {35, 53, 30},
   {40},
   {41},
   {38},
   {41},
   {56},
   {36},
   {49, 34},
   {60},
   {45},
   {59},
   {58},
   {57},
   {50},
   {42, 39},
   {52},
   {46},
   {57},
   {44, 54, 47},
   {48, 61},
   {45},
   {44},
   {59},
   {61},
   {50, 51, 58},
   {52},
   {57, 55},
   {55},
   {56},
   {56, 53},
   {53},
   {55},
   {58},
   {59},
   {61},
   {60},
   {60},
   {62},
   {62},
   {62},
   {  } ];

deadline = array2d(1..62, 1..3, [7, 5, 4, 8, 4, 1, 9, 5, 4, 9, 4, 1, 15, 1, 2, 18, 2, 2, 21, 5, 0, 23, 0, 1, 25, 3, 5, 30, 2, 2, 42, 4, 4, 43, 5, 0, 44, 1, 5, 45, 0, 2, 49, 2, 4, 50, 5, 0, 51, 1, 0, 52, 0, 5, 57, 5, 0, 60, 0, 0, 64, 2, 0, 65, 1, 4, 70, 5, 5, 76, 3, 1, 79, 1, 0, 79, 5, 1, 82, 5, 1, 84, 5, 5, 89, 2, 4, 100, 5, 3, 100, 2, 4, 101, 5, 1, 101, 5, 3, 104, 4, 3, 106, 4, 1, 107, 3, 0, 110, 0, 3, 114, 2, 0, 115, 4, 2, 119, 3, 3, 120, 5, 3, 121, 4, 1, 130, 5, 5, 136, 4, 3, 141, 4, 3, 142, 4, 1, 142, 3, 1, 144, 4, 4, 146, 4, 4, 149, 3, 0, 152, 1, 2, 153, 4, 5, 157, 2, 0, 159, 0, 4, 159, 1, 1, 160, 2, 2, 161, 1, 5, 166, 0, 5, 167, 2, 2, 167, 2, 4, 167, 3, 1, 172, 4, 4]);
