n_res = 4;
rc = [ 20, 24, 19, 22 ];
n_tasks = 62;
d = [0, 4, 9, 2, 6, 3, 4, 7, 9, 5, 2, 9, 1, 9, 7, 6, 3, 8, 5, 10, 1, 4, 3, 3, 9, 8, 6, 2, 8, 5, 4, 5, 10, 7, 1, 3, 10, 3, 1, 3, 8, 4, 6, 2, 8, 4, 3, 6, 6, 1, 3, 3, 3, 10, 5, 9, 3, 6, 3, 4, 1, 0];
rr = array2d(1..4, 1..62, [0, 8, 4, 0, 8, 2, 8, 3, 7, 0, 6, 9, 10, 0, 0, 3, 0, 0, 2, 0, 0, 0, 0, 0, 0, 8, 8, 10, 8, 0, 7, 0, 9, 0, 0, 0, 0, 0, 1, 9, 4, 0, 0, 0, 0, 6, 8, 4, 0, 8, 2, 0, 0, 0, 0, 8, 5, 6, 0, 0, 4, 0, 0, 0, 2, 8, 0, 0, 0, 0, 3, 2, 10, 8, 0, 3, 0, 1, 9, 7, 6, 0, 4, 2, 0, 0, 10, 7, 0, 4, 0, 4, 2, 0, 1, 0, 8, 0, 5, 2, 0, 0, 4, 5, 8, 0, 0, 6, 0, 6, 4, 0, 9, 6, 10, 8, 10, 0, 10, 0, 0, 2, 3, 0, 0, 0, 0, 0, 0, 0, 0, 6, 10, 1, 0, 2, 0, 8, 0, 4, 0, 0, 0, 0, 6, 1, 0, 0, 8, 2, 10, 1, 0, 0, 0, 9, 0, 2, 0, 3, 0, 10, 0, 0, 0, 0, 2, 1, 2, 0, 0, 7, 2, 0, 1, 10, 10, 2, 6, 0, 0, 0, 5, 2, 0, 0, 0, 4, 0, 0, 0, 3, 8, 0, 0, 0, 0, 0, 1, 10, 1, 0, 5, 0, 0, 8, 0, 9, 7, 8, 0, 0, 5, 0, 6, 0, 0, 7, 0, 0, 10, 0, 0, 0, 10, 7, 9, 0, 8, 0, 4, 3, 0, 0, 0, 8, 0, 0, 9, 4, 7, 0, 2, 0, 2, 0, 0, 0]);

suc = [
   {2, 3, 4},
   {8, 6, 14},
   {24, 5, 23},
   {24, 45, 37},
   {11, 21, 7},
   {35, 19, 30},
   {9, 10, 15},
   {28, 22, 31},
   {17, 12, 30},
   {50, 20, 22},
   {40, 42, 27},
   {16, 18, 13},
   {31},
   {51, 27, 46},
   {40, 56, 38},
   {41, 28, 38},
   {25, 20, 29},
   {33, 45, 29},
   {50, 27, 55},
   {42, 37, 39},
   {25, 53, 45},
   {34, 39},
   {56, 41, 37},
   {32, 26, 52},
   {35},
   {47, 39},
   {59},
   {32, 55},
   {44, 54},
   {32, 36, 38},
   {33, 35, 36},
   {33, 43, 47},
   {49, 34},
   {40, 53},
   {43, 44},
   {41},
   {58, 52},
   {46},
   {57, 43, 44},
   {51},
   {42, 51, 46},
   {48},
   {49},
   {48, 55},
   {61, 47},
   {48, 52},
   {50},
   {49, 59, 60},
   {58},
   {57, 54},
   {60},
   {53},
   {57, 61, 54},
   {59},
   {56},
   {58},
   {60},
   {61},
   {62},
   {62},
   {62},
   {  } ];

deadline = array2d(1..62, 1..3, [1, 4, 0, 3, 4, 1, 16, 1, 5, 20, 4, 2, 21, 3, 5, 24, 0, 3, 24, 0, 2, 29, 4, 0, 37, 5, 2, 44, 1, 5, 47, 4, 0, 48, 4, 4, 49, 3, 3, 57, 4, 3, 60, 4, 0, 62, 3, 4, 64, 3, 4, 65, 5, 1, 66, 1, 2, 72, 4, 0, 75, 2, 4, 75, 1, 0, 77, 3, 2, 84, 2, 2, 85, 5, 4, 86, 0, 1, 87, 5, 1, 92, 0, 4, 94, 0, 5, 94, 3, 4, 98, 0, 3, 98, 5, 0, 100, 5, 3, 104, 2, 5, 106, 3, 2, 107, 1, 4, 108, 1, 2, 119, 1, 4, 121, 4, 4, 132, 5, 4, 135, 4, 2, 136, 1, 4, 138, 1, 0, 140, 5, 3, 141, 2, 1, 143, 5, 0, 148, 1, 5, 149, 5, 4, 150, 0, 4, 150, 2, 0, 151, 4, 5, 159, 3, 3, 161, 2, 1, 174, 5, 1, 182, 1, 0, 183, 2, 1, 185, 0, 3, 190, 1, 4, 190, 1, 2, 192, 4, 1, 204, 0, 2, 205, 0, 4]);
