n_res = 4;
rc = [ 13, 15, 20, 19 ];
n_tasks = 62;
d = [0, 9, 6, 2, 8, 1, 3, 2, 9, 6, 4, 2, 7, 8, 3, 6, 6, 9, 9, 7, 2, 8, 2, 9, 4, 5, 10, 5, 10, 1, 9, 7, 10, 6, 3, 6, 2, 8, 10, 6, 1, 7, 2, 10, 2, 1, 6, 5, 7, 7, 6, 1, 6, 6, 1, 8, 1, 2, 1, 1, 8, 0];
rr = array2d(1..4, 1..62, [0, 5, 0, 0, 0, 0, 0, 3, 0, 0, 0, 0, 0, 10, 0, 0, 0, 0, 0, 0, 9, 0, 0, 0, 1, 0, 0, 0, 0, 5, 0, 0, 0, 0, 0, 0, 0, 2, 9, 0, 0, 0, 0, 1, 0, 0, 0, 0, 0, 0, 1, 10, 0, 0, 0, 0, 0, 8, 0, 2, 1, 0, 0, 0, 3, 3, 0, 0, 0, 0, 0, 0, 10, 0, 4, 0, 0, 6, 0, 8, 6, 0, 0, 2, 0, 0, 0, 0, 6, 0, 0, 0, 0, 0, 8, 0, 0, 0, 4, 0, 0, 1, 0, 0, 0, 0, 0, 0, 0, 10, 0, 0, 0, 0, 8, 10, 0, 0, 0, 0, 0, 0, 0, 0, 0, 0, 0, 0, 2, 4, 1, 0, 0, 9, 0, 4, 0, 0, 6, 0, 7, 0, 0, 0, 0, 0, 6, 7, 0, 5, 0, 8, 9, 0, 0, 7, 0, 5, 0, 0, 0, 0, 0, 0, 0, 0, 7, 0, 0, 6, 0, 0, 0, 0, 0, 0, 0, 0, 9, 0, 2, 0, 0, 0, 0, 0, 0, 0, 0, 0, 0, 0, 0, 0, 6, 0, 0, 0, 0, 0, 0, 0, 0, 0, 0, 2, 0, 0, 0, 0, 0, 0, 0, 0, 0, 0, 10, 0, 0, 0, 4, 7, 0, 0, 0, 0, 9, 9, 0, 0, 4, 0, 9, 0, 2, 6, 0, 0, 0, 0, 0, 6, 0, 0, 9, 0, 0, 0]);

suc = [
   {2, 3, 4},
   {17, 13, 5},
   {51, 55},
   {15, 20, 7},
   {32, 9, 6},
   {24, 10, 14},
   {8, 42, 11},
   {38, 29, 22},
   {40, 34, 19},
   {42, 12, 53},
   {28, 29},
   {20, 36, 23},
   {18, 23, 15},
   {16, 25, 15},
   {49, 30},
   {41, 22, 31},
   {40, 21},
   {41, 28},
   {33, 46, 23},
   {44, 31},
   {48, 57, 45},
   {35, 46, 55},
   {38, 30},
   {25, 26, 27},
   {43, 47},
   {34, 29, 46},
   {28, 37, 31},
   {33, 44, 30},
   {36, 45, 39},
   {50},
   {48, 56},
   {40, 33, 35},
   {56, 52, 38},
   {41, 35, 36},
   {49, 52},
   {58, 54},
   {43, 44, 47},
   {60},
   {48, 52, 47},
   {42, 59},
   {50, 43, 45},
   {51},
   {61},
   {61},
   {60, 53},
   {49},
   {50, 51},
   {61},
   {54},
   {56, 55},
   {58},
   {53},
   {54},
   {59},
   {57},
   {57},
   {58, 59},
   {60},
   {62},
   {62},
   {62},
   {  } ];

deadline = array2d(1..62, 1..3, [7, 5, 4, 11, 0, 2, 12, 1, 3, 16, 5, 1, 19, 5, 4, 27, 3, 4, 28, 4, 3, 28, 3, 1, 31, 0, 4, 32, 1, 4, 34, 2, 3, 37, 4, 3, 38, 4, 3, 38, 0, 1, 41, 2, 3, 41, 1, 1, 42, 1, 5, 45, 4, 2, 50, 5, 5, 51, 0, 3, 51, 0, 2, 53, 0, 5, 68, 2, 3, 72, 4, 1, 77, 5, 4, 78, 5, 0, 83, 0, 5, 84, 5, 2, 88, 4, 2, 90, 5, 1, 100, 5, 3, 101, 5, 2, 101, 1, 5, 103, 1, 4, 103, 3, 1, 109, 2, 2, 111, 3, 0, 113, 5, 5, 117, 4, 1, 119, 1, 5, 125, 1, 1, 127, 4, 1, 128, 3, 1, 130, 4, 2, 135, 0, 3, 137, 0, 4, 139, 3, 4, 145, 3, 3, 146, 2, 1, 147, 0, 2, 151, 3, 3, 153, 4, 4, 153, 5, 2, 159, 1, 5, 164, 3, 3, 164, 0, 0, 168, 3, 0, 171, 3, 1, 174, 5, 2, 179, 4, 1, 181, 5, 5, 182, 2, 1]);
