n_res = 4;
rc = [ 31, 37, 39, 34 ];
n_tasks = 62;
d = [0, 7, 5, 10, 1, 3, 3, 5, 3, 3, 2, 3, 1, 3, 1, 1, 4, 2, 8, 10, 4, 5, 3, 9, 3, 10, 1, 7, 5, 4, 6, 4, 10, 1, 3, 4, 9, 7, 4, 7, 10, 3, 3, 3, 7, 7, 9, 6, 7, 10, 7, 1, 1, 6, 8, 1, 5, 10, 5, 4, 7, 0];
rr = array2d(1..4, 1..62, [0, 4, 0, 0, 4, 8, 9, 0, 3, 8, 0, 2, 0, 0, 1, 2, 0, 6, 2, 3, 9, 9, 3, 7, 1, 10, 0, 0, 1, 3, 4, 0, 5, 0, 1, 0, 2, 0, 3, 7, 0, 7, 10, 1, 9, 0, 3, 5, 0, 10, 4, 0, 3, 10, 0, 2, 0, 0, 4, 8, 0, 0, 0, 0, 8, 10, 0, 5, 10, 0, 2, 10, 7, 9, 4, 5, 6, 4, 6, 7, 10, 10, 7, 8, 6, 9, 0, 5, 0, 8, 7, 1, 1, 4, 0, 2, 3, 10, 1, 1, 0, 1, 4, 9, 7, 5, 0, 8, 0, 10, 3, 4, 5, 0, 1, 0, 1, 6, 6, 1, 0, 10, 10, 0, 0, 0, 6, 4, 4, 0, 6, 6, 0, 4, 1, 0, 0, 0, 8, 4, 8, 6, 7, 8, 10, 8, 0, 4, 1, 9, 10, 0, 0, 6, 8, 7, 3, 1, 10, 8, 3, 3, 0, 4, 2, 8, 4, 10, 4, 2, 6, 7, 10, 0, 1, 8, 3, 6, 0, 6, 7, 10, 0, 3, 8, 0, 0, 2, 1, 0, 0, 0, 0, 6, 9, 6, 0, 3, 9, 4, 2, 3, 0, 2, 10, 6, 0, 3, 3, 1, 0, 3, 2, 9, 6, 8, 0, 0, 3, 10, 8, 3, 2, 8, 2, 4, 1, 7, 7, 6, 0, 5, 0, 8, 5, 1, 3, 0, 4, 4, 2, 10, 7, 1, 1, 8, 8, 0]);

suc = [
   {2, 3, 4},
   {11, 5, 7},
   {28, 21, 6},
   {9, 22},
   {8, 39, 15},
   {42, 20, 22},
   {16, 10, 26},
   {27, 48, 19},
   {27, 14},
   {36, 45, 60},
   {18, 12, 13},
   {26, 35, 30},
   {40, 30, 31},
   {38, 55},
   {32, 47},
   {17, 22, 25},
   {20, 52, 47},
   {20, 30, 31},
   {25, 34},
   {24, 32, 51},
   {40, 29, 23},
   {24, 48, 23},
   {45, 54, 31},
   {41, 35, 53},
   {41, 44, 29},
   {42, 36, 38},
   {42, 37},
   {35, 52, 29},
   {50, 43},
   {33, 51, 44},
   {41, 37, 46},
   {49, 34, 37},
   {48, 34, 45},
   {59, 61},
   {36, 61},
   {49},
   {57},
   {44},
   {57, 47},
   {49, 43, 53},
   {55},
   {43, 46},
   {58, 51},
   {50, 46},
   {58},
   {52},
   {50},
   {54},
   {58},
   {53, 54},
   {55},
   {56},
   {56},
   {56},
   {57, 59},
   {60},
   {60, 61},
   {59},
   {62},
   {62},
   {62},
   {  } ];

deadline = array2d(1..62, 1..3, [6, 2, 3, 10, 4, 2, 10, 2, 3, 11, 4, 0, 11, 2, 4, 13, 4, 2, 17, 3, 1, 17, 4, 4, 19, 3, 5, 20, 1, 2, 21, 5, 5, 21, 0, 4, 22, 4, 4, 22, 1, 1, 25, 2, 3, 27, 1, 1, 28, 4, 4, 28, 4, 5, 29, 4, 3, 29, 1, 1, 37, 3, 4, 41, 2, 5, 43, 4, 1, 46, 2, 0, 48, 2, 5, 50, 5, 4, 53, 0, 0, 55, 4, 3, 55, 0, 2, 63, 4, 5, 64, 3, 0, 65, 4, 3, 65, 4, 2, 66, 2, 2, 73, 1, 2, 80, 2, 3, 81, 4, 4, 86, 0, 0, 88, 2, 5, 94, 4, 5, 97, 3, 2, 97, 4, 5, 100, 4, 1, 102, 3, 1, 104, 3, 2, 107, 0, 1, 110, 1, 2, 115, 3, 3, 119, 5, 5, 120, 2, 1, 122, 4, 4, 128, 0, 3, 135, 4, 3, 136, 2, 5, 137, 5, 5, 140, 1, 2, 142, 5, 4, 143, 3, 3, 144, 3, 3, 148, 2, 0, 151, 4, 5, 159, 3, 2]);
