n_res = 4;
rc = [ 36, 23, 26, 31 ];
n_tasks = 62;
d = [0, 3, 1, 3, 8, 8, 10, 5, 10, 4, 10, 8, 6, 6, 5, 10, 2, 1, 6, 10, 1, 2, 4, 3, 8, 9, 4, 7, 7, 5, 8, 5, 5, 5, 1, 10, 9, 5, 8, 2, 3, 8, 6, 2, 1, 4, 9, 10, 1, 8, 1, 1, 1, 1, 7, 4, 2, 4, 5, 2, 2, 0];
rr = array2d(1..4, 1..62, [0, 9, 0, 3, 10, 0, 5, 0, 4, 1, 4, 0, 0, 0, 0, 0, 9, 0, 4, 7, 0, 9, 6, 10, 0, 6, 0, 1, 0, 0, 5, 0, 0, 3, 6, 0, 4, 6, 7, 2, 6, 0, 6, 5, 0, 0, 1, 0, 0, 3, 4, 3, 0, 0, 1, 0, 8, 7, 5, 5, 0, 0, 0, 1, 0, 5, 4, 2, 0, 6, 8, 0, 0, 0, 4, 6, 7, 0, 0, 0, 0, 0, 6, 6, 0, 9, 0, 0, 10, 0, 7, 5, 0, 3, 3, 0, 0, 0, 7, 0, 8, 2, 1, 2, 6, 0, 3, 0, 0, 0, 3, 6, 0, 0, 7, 0, 10, 0, 0, 4, 0, 0, 0, 0, 0, 0, 2, 0, 9, 0, 6, 0, 0, 0, 1, 3, 0, 4, 3, 3, 0, 4, 3, 0, 0, 0, 0, 0, 5, 0, 8, 0, 6, 0, 0, 1, 0, 1, 5, 6, 10, 1, 8, 2, 0, 0, 3, 0, 3, 0, 10, 0, 1, 0, 8, 0, 3, 3, 0, 3, 0, 0, 2, 0, 8, 0, 0, 10, 0, 3, 0, 0, 0, 0, 0, 7, 9, 0, 1, 0, 0, 3, 0, 2, 0, 4, 0, 0, 0, 0, 0, 6, 1, 0, 0, 4, 0, 0, 9, 0, 7, 0, 0, 5, 3, 0, 10, 5, 0, 0, 3, 4, 9, 9, 0, 0, 0, 0, 10, 9, 0, 2, 0, 2, 2, 0, 10, 0]);

suc = [
   {2, 3, 4},
   {17, 20, 5},
   {8, 24, 6},
   {16, 10, 21},
   {12, 13, 7},
   {11},
   {18, 29, 14},
   {9, 26, 14},
   {10, 47, 15},
   {27, 57, 11},
   {32, 18, 28},
   {25, 26},
   {55, 45, 23},
   {25, 43, 33},
   {32, 19, 28},
   {40, 43, 22},
   {38, 22, 30},
   {54, 50, 30},
   {48, 53, 39},
   {54, 38, 23},
   {24, 25, 40},
   {41, 27, 47},
   {34, 43, 37},
   {34, 27, 37},
   {32},
   {33, 34, 45},
   {54},
   {56, 50, 29},
   {36, 60},
   {35, 52, 31},
   {51, 46, 39},
   {41, 44, 46},
   {57, 50, 35},
   {42, 58},
   {41, 39},
   {38},
   {48, 42, 59},
   {51, 44},
   {40, 44},
   {56},
   {56, 51},
   {47},
   {49, 46},
   {55},
   {48, 52},
   {58},
   {49, 52},
   {49},
   {57},
   {58, 53},
   {53},
   {61},
   {55},
   {60},
   {59},
   {59, 60},
   {61},
   {61},
   {62},
   {62},
   {62},
   {  } ];

deadline = array2d(1..62, 1..3, [2, 3, 0, 3, 2, 4, 3, 4, 0, 7, 0, 0, 11, 4, 0, 15, 4, 1, 16, 3, 1, 16, 0, 1, 17, 2, 3, 18, 2, 3, 19, 3, 0, 23, 1, 2, 30, 5, 3, 32, 5, 5, 34, 5, 0, 36, 4, 3, 37, 4, 4, 42, 5, 2, 45, 4, 5, 46, 4, 1, 47, 0, 0, 48, 5, 1, 51, 1, 3, 51, 4, 0, 52, 2, 0, 55, 2, 2, 56, 2, 4, 63, 1, 5, 64, 2, 3, 64, 0, 4, 65, 0, 3, 69, 3, 5, 69, 0, 5, 72, 2, 2, 73, 3, 3, 73, 4, 4, 74, 1, 2, 76, 4, 4, 76, 5, 4, 82, 1, 3, 96, 1, 0, 97, 2, 4, 99, 5, 3, 100, 3, 5, 103, 3, 0, 106, 0, 1, 107, 4, 0, 124, 0, 2, 128, 2, 4, 129, 2, 4, 131, 2, 0, 132, 2, 3, 134, 3, 0, 135, 5, 1, 138, 2, 0, 144, 4, 3, 147, 1, 4, 148, 2, 5, 162, 0, 1, 164, 0, 3, 178, 5, 3, 181, 4, 1]);
