n_res = 4;
rc = [ 52, 53, 44, 48 ];
n_tasks = 62;
d = [0, 9, 4, 5, 9, 5, 7, 2, 1, 1, 8, 3, 7, 4, 2, 2, 1, 7, 5, 6, 1, 4, 2, 3, 2, 4, 1, 8, 6, 2, 8, 9, 3, 3, 3, 9, 1, 5, 1, 5, 2, 7, 9, 7, 10, 2, 9, 5, 5, 1, 10, 3, 9, 8, 5, 6, 8, 9, 6, 9, 1, 0];
rr = array2d(1..4, 1..62, [0, 4, 5, 0, 9, 8, 2, 0, 0, 10, 0, 0, 7, 2, 0, 5, 0, 6, 9, 0, 0, 8, 0, 9, 4, 3, 4, 2, 9, 10, 10, 8, 6, 6, 10, 2, 4, 4, 0, 8, 7, 8, 9, 3, 0, 7, 9, 2, 7, 2, 4, 1, 2, 7, 9, 3, 8, 0, 5, 0, 0, 0, 0, 3, 4, 3, 8, 3, 9, 0, 2, 2, 10, 2, 1, 3, 8, 0, 5, 5, 0, 10, 9, 0, 1, 6, 9, 0, 10, 9, 1, 3, 8, 5, 0, 9, 10, 9, 7, 5, 0, 6, 1, 1, 6, 3, 9, 2, 2, 4, 10, 6, 9, 9, 4, 2, 3, 7, 1, 0, 0, 1, 5, 0, 0, 6, 2, 0, 10, 0, 0, 5, 5, 1, 3, 8, 8, 7, 7, 6, 1, 7, 6, 7, 3, 9, 3, 0, 0, 5, 5, 6, 1, 6, 0, 9, 0, 7, 3, 1, 1, 10, 5, 3, 0, 7, 5, 8, 6, 0, 0, 0, 8, 0, 10, 0, 7, 0, 1, 9, 0, 0, 3, 5, 4, 0, 0, 10, 2, 0, 0, 0, 2, 10, 0, 0, 2, 0, 10, 1, 5, 5, 0, 10, 0, 6, 7, 10, 3, 0, 9, 8, 0, 8, 8, 0, 0, 0, 8, 4, 4, 0, 0, 7, 8, 0, 1, 0, 8, 8, 4, 0, 7, 8, 3, 3, 0, 10, 10, 6, 2, 5, 2, 6, 3, 2, 4, 0]);

suc = [
   {2, 3, 4},
   {49, 10, 19},
   {5, 7},
   {11},
   {9, 12, 6},
   {24, 28},
   {8, 27, 31},
   {26, 35, 13},
   {21, 13, 14},
   {40, 17, 18},
   {31, 36, 15},
   {20, 28, 14},
   {32, 33, 34},
   {24, 57},
   {16, 28, 29},
   {17, 20, 23},
   {25, 46},
   {25, 42, 22},
   {48, 44, 31},
   {54, 45, 38},
   {35, 22, 23},
   {33, 43, 47},
   {59, 45, 30},
   {53, 29},
   {52, 47},
   {41, 36, 38},
   {41, 34},
   {49, 37, 54},
   {32, 33, 40},
   {42, 37, 39},
   {34, 53, 39},
   {50, 43, 54},
   {56, 59},
   {61},
   {40, 41, 39},
   {50, 37},
   {48, 43, 46},
   {44, 55},
   {46},
   {42, 61},
   {58, 45},
   {44},
   {51},
   {51, 52},
   {49},
   {57, 55},
   {48, 51, 53},
   {57, 55},
   {50},
   {52},
   {58},
   {56},
   {59, 60},
   {61},
   {56},
   {60},
   {58},
   {60},
   {62},
   {62},
   {62},
   {  } ];

deadline = array2d(1..62, 1..3, [4, 5, 2, 4, 1, 5, 4, 2, 5, 5, 1, 4, 6, 3, 5, 18, 4, 4, 21, 0, 4, 21, 2, 5, 22, 3, 2, 23, 0, 0, 24, 2, 1, 26, 3, 1, 30, 5, 2, 31, 1, 0, 33, 0, 1, 36, 4, 4, 36, 2, 0, 37, 0, 0, 41, 0, 2, 42, 0, 4, 47, 3, 5, 50, 5, 4, 54, 3, 0, 56, 0, 1, 58, 1, 5, 60, 4, 2, 64, 2, 0, 66, 5, 0, 68, 0, 4, 69, 1, 5, 70, 5, 5, 78, 5, 1, 78, 5, 1, 85, 3, 0, 88, 5, 0, 90, 2, 0, 96, 5, 2, 104, 0, 2, 105, 0, 1, 110, 4, 4, 114, 2, 1, 115, 0, 1, 115, 0, 4, 119, 4, 0, 119, 4, 0, 120, 2, 0, 121, 3, 3, 127, 5, 3, 127, 4, 1, 128, 0, 3, 128, 3, 2, 136, 1, 3, 139, 1, 0, 140, 0, 2, 148, 2, 0, 149, 4, 2, 159, 0, 3, 180, 3, 3, 185, 5, 1, 185, 1, 0, 185, 3, 4, 189, 4, 5]);
