n_res = 4;
rc = [ 55, 49, 44, 47 ];
n_tasks = 62;
d = [0, 4, 3, 3, 8, 6, 7, 7, 1, 6, 5, 8, 8, 7, 6, 10, 6, 3, 1, 8, 8, 8, 1, 8, 1, 8, 7, 2, 10, 3, 5, 2, 2, 6, 6, 7, 8, 8, 8, 1, 3, 8, 3, 1, 9, 7, 9, 1, 3, 3, 3, 3, 6, 5, 3, 4, 9, 6, 3, 5, 10, 0];
rr = array2d(1..4, 1..62, [0, 4, 10, 4, 9, 8, 10, 5, 1, 3, 7, 2, 10, 10, 7, 3, 10, 2, 8, 2, 3, 3, 4, 7, 9, 8, 4, 9, 2, 4, 7, 10, 1, 6, 7, 10, 9, 8, 4, 10, 3, 3, 5, 3, 4, 4, 6, 6, 5, 3, 5, 4, 3, 7, 5, 6, 3, 10, 2, 5, 8, 0, 0, 4, 1, 8, 7, 1, 9, 5, 8, 1, 10, 4, 8, 1, 7, 5, 1, 1, 2, 7, 3, 9, 8, 9, 7, 5, 9, 1, 2, 7, 6, 3, 9, 4, 2, 10, 7, 1, 4, 5, 10, 7, 3, 8, 5, 2, 4, 4, 4, 9, 10, 5, 6, 3, 2, 4, 10, 7, 10, 3, 9, 0, 0, 2, 8, 7, 3, 9, 7, 3, 6, 4, 1, 10, 9, 1, 5, 2, 9, 1, 5, 6, 3, 2, 9, 6, 3, 2, 4, 4, 10, 8, 10, 6, 1, 9, 4, 10, 5, 4, 9, 10, 8, 3, 3, 4, 5, 7, 3, 8, 4, 5, 10, 6, 10, 2, 10, 2, 7, 10, 4, 3, 1, 0, 0, 10, 8, 10, 2, 10, 5, 8, 3, 1, 5, 3, 4, 3, 3, 1, 7, 10, 1, 1, 8, 8, 6, 2, 7, 3, 7, 4, 1, 6, 6, 3, 10, 4, 8, 10, 10, 10, 6, 10, 9, 5, 3, 9, 10, 10, 1, 6, 7, 1, 4, 10, 6, 2, 3, 4, 2, 7, 5, 8, 5, 0]);

suc = [
   {2, 3, 4},
   {8, 18, 12},
   {44, 39, 15},
   {35, 5, 6},
   {8, 33, 21},
   {9, 20, 7},
   {16, 10, 36},
   {61, 13, 55},
   {24, 27, 11},
   {26, 42, 30},
   {41, 50, 30},
   {32, 17, 36},
   {41, 14, 31},
   {19, 37, 23},
   {34, 42, 47},
   {49, 58, 23},
   {24, 35, 28},
   {29, 22, 31},
   {54, 20, 44},
   {51, 27},
   {25, 27, 28},
   {52, 46},
   {45},
   {26, 46, 31},
   {32, 26, 58},
   {43, 39},
   {53},
   {38, 45, 30},
   {33, 35, 38},
   {46},
   {48, 44, 37},
   {37, 55},
   {40, 34, 60},
   {48, 36, 54},
   {40, 56, 47},
   {41},
   {45, 39},
   {40, 42, 43},
   {50, 51},
   {58},
   {59},
   {49},
   {55, 47},
   {56},
   {56, 51, 54},
   {49, 57},
   {48, 50},
   {52},
   {61},
   {57, 53},
   {52},
   {53},
   {59},
   {59},
   {57},
   {60},
   {60},
   {61},
   {62},
   {62},
   {62},
   {  } ];

deadline = array2d(1..62, 1..3, [2, 3, 3, 2, 5, 4, 5, 1, 4, 15, 3, 0, 17, 3, 0, 18, 2, 0, 24, 2, 1, 28, 5, 0, 32, 0, 0, 34, 0, 2, 35, 5, 1, 35, 2, 4, 38, 0, 4, 39, 0, 2, 42, 5, 5, 43, 0, 5, 45, 3, 3, 47, 2, 1, 47, 1, 3, 47, 3, 4, 48, 2, 2, 50, 1, 1, 50, 4, 4, 52, 3, 2, 52, 4, 3, 53, 0, 0, 55, 5, 2, 55, 4, 4, 59, 0, 3, 61, 1, 0, 65, 5, 5, 66, 0, 5, 70, 3, 4, 77, 0, 5, 89, 5, 4, 91, 1, 1, 92, 2, 3, 94, 3, 1, 95, 0, 5, 98, 2, 1, 100, 3, 1, 103, 5, 5, 105, 2, 2, 112, 3, 1, 115, 3, 3, 118, 1, 5, 122, 3, 2, 124, 0, 4, 129, 0, 3, 129, 1, 3, 130, 0, 5, 132, 1, 4, 135, 1, 1, 149, 3, 0, 150, 3, 5, 152, 3, 1, 154, 4, 0, 154, 0, 4, 160, 5, 2, 161, 1, 2, 161, 4, 4, 163, 1, 4]);
