n_res = 4;
rc = [ 30, 31, 35, 27 ];
n_tasks = 62;
d = [0, 8, 3, 6, 6, 5, 2, 1, 3, 1, 8, 8, 2, 3, 10, 4, 8, 8, 4, 3, 8, 10, 5, 3, 1, 1, 10, 7, 3, 1, 6, 1, 8, 5, 9, 5, 2, 2, 7, 7, 2, 3, 1, 5, 3, 1, 3, 7, 1, 2, 6, 7, 9, 6, 2, 1, 9, 2, 10, 10, 3, 0];
rr = array2d(1..4, 1..62, [0, 9, 4, 5, 8, 4, 9, 3, 2, 1, 1, 8, 7, 4, 7, 1, 4, 6, 6, 6, 1, 10, 7, 4, 1, 7, 3, 4, 8, 9, 10, 6, 4, 9, 10, 4, 9, 10, 4, 8, 9, 4, 10, 4, 3, 3, 10, 8, 10, 9, 9, 9, 3, 2, 8, 3, 5, 5, 3, 4, 7, 0, 0, 10, 4, 8, 6, 1, 7, 5, 9, 1, 2, 1, 1, 7, 9, 5, 3, 2, 3, 3, 10, 4, 5, 9, 8, 6, 10, 5, 8, 4, 4, 1, 8, 1, 1, 7, 6, 1, 2, 7, 6, 6, 3, 10, 8, 6, 6, 10, 9, 8, 3, 2, 1, 10, 4, 5, 6, 2, 4, 10, 8, 0, 0, 2, 2, 8, 1, 7, 4, 7, 6, 5, 10, 4, 5, 4, 6, 6, 9, 3, 4, 5, 2, 9, 4, 8, 9, 4, 5, 9, 7, 8, 6, 7, 1, 8, 1, 2, 8, 7, 6, 6, 7, 4, 5, 7, 3, 2, 6, 9, 4, 8, 4, 4, 5, 9, 7, 2, 4, 5, 10, 3, 10, 0, 0, 2, 3, 5, 3, 3, 7, 3, 6, 8, 2, 5, 4, 3, 7, 10, 4, 6, 3, 8, 5, 1, 8, 6, 2, 2, 6, 6, 2, 5, 8, 2, 6, 3, 2, 5, 7, 7, 5, 5, 7, 2, 2, 7, 8, 1, 5, 4, 9, 6, 3, 2, 1, 9, 3, 10, 3, 3, 1, 4, 5, 0]);

suc = [
   {2, 3, 4},
   {9, 28, 6},
   {8, 18, 5},
   {36, 37},
   {23, 21, 7},
   {10, 12, 22},
   {58, 27},
   {26, 54},
   {20},
   {40, 11, 13},
   {16, 45, 14},
   {34, 43},
   {32},
   {24, 15},
   {17, 19, 39},
   {43, 52},
   {34, 35},
   {59},
   {23},
   {49},
   {32},
   {47},
   {61, 29},
   {38, 25, 30},
   {26, 42},
   {39},
   {52},
   {41, 49},
   {53, 31},
   {51},
   {33, 57},
   {55},
   {38},
   {41},
   {56},
   {44},
   {48},
   {44},
   {58},
   {53},
   {56},
   {44},
   {46},
   {50},
   {47},
   {56},
   {53},
   {54},
   {51},
   {51},
   {55},
   {59},
   {57, 54, 55},
   {60},
   {60},
   {57},
   {60},
   {61},
   {62},
   {62},
   {62},
   {  } ];

deadline = array2d(1..62, 1..3, [5, 5, 0, 11, 4, 3, 14, 0, 1, 18, 0, 3, 34, 1, 1, 36, 4, 0, 37, 1, 1, 40, 2, 4, 46, 3, 3, 48, 4, 1, 50, 0, 1, 52, 4, 2, 55, 3, 5, 58, 0, 2, 60, 2, 5, 61, 1, 1, 61, 1, 3, 70, 2, 5, 72, 5, 1, 72, 2, 5, 73, 5, 0, 74, 2, 3, 77, 1, 4, 78, 3, 0, 78, 0, 2, 79, 4, 3, 87, 4, 2, 91, 0, 1, 102, 4, 5, 103, 0, 1, 107, 5, 0, 108, 2, 3, 115, 3, 4, 117, 1, 1, 124, 4, 4, 124, 0, 1, 125, 0, 1, 126, 2, 4, 132, 3, 2, 144, 3, 4, 147, 4, 5, 152, 5, 2, 170, 4, 1, 174, 4, 1, 177, 5, 5, 184, 3, 1, 185, 1, 4, 187, 5, 3, 187, 4, 4, 187, 4, 0, 191, 1, 1, 191, 3, 5, 192, 5, 5, 193, 2, 3, 194, 3, 2, 195, 5, 2, 202, 5, 3, 204, 4, 2, 206, 3, 0, 207, 4, 4, 207, 1, 3, 217, 0, 1]);
