n_res = 4;
rc = [ 31, 40, 31, 35 ];
n_tasks = 62;
d = [0, 3, 3, 10, 6, 6, 3, 10, 5, 9, 9, 4, 9, 1, 1, 8, 8, 2, 6, 10, 9, 8, 6, 1, 3, 1, 9, 5, 10, 4, 10, 5, 5, 5, 3, 3, 4, 2, 8, 9, 9, 9, 8, 1, 5, 9, 4, 7, 1, 8, 3, 9, 4, 5, 1, 6, 1, 3, 2, 10, 8, 0];
rr = array2d(1..4, 1..62, [0, 0, 0, 10, 2, 9, 9, 0, 5, 9, 0, 3, 2, 3, 0, 9, 0, 10, 0, 0, 0, 0, 6, 8, 5, 8, 0, 6, 0, 0, 0, 0, 10, 0, 0, 3, 2, 0, 0, 0, 7, 0, 0, 7, 0, 0, 0, 0, 0, 0, 0, 10, 7, 0, 0, 9, 7, 4, 1, 1, 8, 0, 0, 0, 8, 0, 6, 0, 8, 4, 0, 10, 7, 8, 10, 5, 3, 3, 0, 10, 2, 0, 5, 0, 1, 0, 0, 0, 0, 0, 0, 0, 4, 0, 0, 0, 0, 0, 0, 0, 9, 9, 2, 0, 2, 4, 1, 2, 0, 0, 1, 3, 3, 3, 0, 5, 0, 0, 0, 0, 6, 0, 0, 0, 0, 0, 8, 3, 9, 0, 8, 0, 6, 2, 0, 8, 4, 0, 10, 0, 1, 1, 8, 8, 0, 9, 0, 3, 0, 6, 10, 0, 6, 5, 0, 10, 3, 1, 8, 0, 0, 6, 0, 7, 2, 4, 0, 10, 0, 0, 0, 4, 0, 0, 0, 10, 0, 0, 1, 10, 9, 0, 0, 2, 2, 0, 0, 9, 0, 5, 10, 9, 4, 0, 4, 0, 9, 9, 1, 0, 0, 0, 4, 8, 5, 0, 0, 0, 3, 0, 0, 7, 0, 2, 7, 0, 0, 0, 0, 0, 0, 0, 2, 7, 0, 0, 0, 10, 5, 0, 0, 0, 7, 3, 10, 0, 1, 0, 0, 3, 3, 4, 0, 0, 4, 0, 0, 0]);

suc = [
   {2, 3, 4},
   {40, 18, 11},
   {5, 6, 7},
   {9, 51, 36},
   {8, 10, 22},
   {12},
   {19, 39},
   {24, 21},
   {50, 13},
   {16, 14, 15},
   {17, 20},
   {30},
   {54},
   {23},
   {41, 29, 47},
   {32, 27, 23},
   {46},
   {31},
   {25, 26},
   {47},
   {49},
   {28},
   {44, 52},
   {60},
   {42},
   {56, 35},
   {49},
   {45},
   {42},
   {41},
   {43, 46},
   {33, 34, 45},
   {37, 38},
   {61},
   {42},
   {53},
   {43},
   {51, 55},
   {59},
   {58},
   {55},
   {44},
   {49},
   {57},
   {48},
   {47},
   {48},
   {51, 55},
   {52},
   {57},
   {58, 54},
   {53},
   {54},
   {56, 60},
   {56, 57},
   {59},
   {58},
   {61},
   {62},
   {62},
   {62},
   {  } ];

deadline = array2d(1..62, 1..3, [1, 5, 0, 6, 4, 5, 7, 5, 1, 7, 5, 0, 11, 0, 4, 11, 4, 2, 11, 5, 0, 11, 2, 1, 11, 4, 1, 12, 3, 0, 14, 2, 2, 21, 3, 3, 22, 3, 2, 23, 2, 1, 24, 5, 4, 27, 5, 5, 29, 4, 1, 35, 3, 5, 36, 1, 3, 43, 2, 4, 50, 2, 2, 51, 5, 0, 57, 3, 3, 57, 2, 4, 62, 0, 3, 65, 3, 4, 70, 5, 4, 70, 2, 4, 75, 3, 4, 75, 3, 2, 87, 3, 0, 89, 2, 4, 92, 5, 3, 93, 4, 3, 98, 3, 1, 102, 2, 1, 104, 5, 4, 104, 4, 4, 110, 1, 5, 111, 5, 1, 112, 2, 3, 113, 0, 5, 114, 0, 4, 115, 2, 1, 124, 5, 3, 142, 2, 5, 142, 5, 5, 148, 1, 3, 153, 0, 4, 159, 5, 2, 160, 4, 4, 164, 5, 3, 170, 1, 3, 173, 4, 4, 177, 3, 1, 178, 5, 3, 178, 3, 5, 182, 5, 5, 188, 2, 5, 189, 5, 3, 189, 5, 4, 190, 1, 5]);
