n_res = 4;
rc = [ 28, 28, 50, 33 ];
n_tasks = 62;
d = [0, 2, 9, 9, 4, 2, 8, 9, 1, 4, 9, 4, 3, 6, 1, 3, 5, 2, 4, 7, 5, 7, 5, 5, 10, 2, 1, 4, 8, 3, 1, 9, 9, 7, 3, 6, 10, 6, 6, 9, 4, 7, 5, 4, 7, 6, 1, 7, 6, 3, 1, 2, 2, 5, 5, 1, 9, 2, 4, 1, 7, 0];
rr = array2d(1..4, 1..62, [0, 2, 8, 0, 7, 0, 0, 0, 2, 0, 0, 0, 4, 0, 0, 0, 7, 8, 0, 0, 0, 2, 0, 2, 0, 0, 1, 4, 0, 2, 0, 5, 0, 4, 0, 8, 0, 0, 0, 0, 0, 6, 3, 5, 10, 5, 2, 2, 10, 0, 0, 3, 0, 0, 0, 0, 0, 0, 2, 4, 3, 0, 0, 0, 4, 3, 0, 0, 10, 0, 4, 0, 0, 7, 8, 3, 3, 0, 0, 9, 0, 9, 0, 10, 0, 0, 0, 3, 0, 0, 0, 10, 0, 0, 0, 0, 0, 0, 0, 0, 1, 7, 0, 0, 0, 0, 1, 6, 2, 1, 0, 3, 4, 0, 0, 0, 1, 2, 7, 5, 0, 0, 3, 0, 0, 10, 0, 0, 10, 0, 5, 4, 10, 0, 8, 1, 0, 5, 0, 0, 6, 6, 5, 1, 7, 8, 0, 4, 7, 0, 1, 10, 6, 0, 0, 0, 10, 7, 9, 0, 9, 10, 0, 2, 5, 4, 6, 9, 0, 5, 5, 8, 8, 9, 0, 0, 7, 10, 0, 10, 0, 10, 10, 0, 6, 0, 0, 9, 0, 0, 0, 1, 8, 0, 3, 5, 0, 8, 0, 0, 0, 4, 0, 7, 0, 0, 5, 0, 7, 1, 2, 10, 0, 0, 0, 0, 5, 0, 9, 0, 8, 8, 9, 0, 9, 9, 7, 0, 0, 0, 0, 0, 6, 0, 0, 3, 5, 0, 0, 6, 0, 0, 2, 8, 0, 6, 0, 0]);

suc = [
   {2, 3, 4},
   {38, 5, 6},
   {33, 12},
   {24, 13, 23},
   {8},
   {11, 22, 7},
   {9},
   {17, 18, 28},
   {32, 10, 19},
   {56, 60, 39},
   {29},
   {14, 15},
   {26, 43, 29},
   {57, 37, 31},
   {16, 35, 30},
   {49},
   {44, 54},
   {20, 21},
   {52},
   {25},
   {27},
   {32},
   {41},
   {40, 42, 53},
   {59},
   {32},
   {40, 34, 46},
   {39},
   {41, 45},
   {51, 38},
   {61, 47},
   {41},
   {54},
   {48},
   {36},
   {53},
   {48},
   {55},
   {50},
   {44},
   {58},
   {58},
   {55},
   {50},
   {48, 58},
   {49},
   {50},
   {60},
   {51},
   {51},
   {59},
   {55},
   {61},
   {56},
   {57},
   {59},
   {61},
   {60},
   {62},
   {62},
   {62},
   {  } ];

deadline = array2d(1..62, 1..3, [5, 5, 4, 6, 4, 4, 6, 5, 2, 8, 2, 5, 9, 0, 5, 10, 5, 5, 12, 2, 1, 13, 3, 4, 17, 2, 5, 18, 3, 5, 20, 3, 3, 21, 2, 3, 23, 4, 3, 24, 3, 0, 24, 5, 0, 25, 3, 2, 26, 5, 2, 28, 4, 0, 29, 3, 4, 29, 2, 3, 29, 4, 5, 31, 2, 4, 31, 5, 2, 32, 1, 3, 32, 0, 3, 34, 2, 4, 35, 5, 4, 36, 4, 3, 38, 2, 0, 40, 5, 0, 42, 1, 5, 44, 3, 2, 46, 5, 1, 47, 2, 5, 53, 4, 3, 54, 4, 0, 57, 0, 5, 58, 0, 3, 58, 1, 5, 60, 5, 4, 66, 0, 0, 67, 5, 0, 70, 3, 3, 71, 4, 2, 75, 2, 2, 76, 5, 4, 82, 1, 4, 83, 4, 3, 83, 1, 1, 89, 5, 3, 91, 3, 2, 94, 2, 3, 94, 0, 2, 95, 3, 3, 97, 0, 1, 98, 1, 0, 99, 2, 3, 101, 2, 1, 103, 3, 3, 107, 1, 2, 110, 2, 2, 110, 1, 1]);
