n_res = 4;
rc = [ 44, 39, 40, 43 ];
n_tasks = 62;
d = [0, 1, 9, 5, 10, 4, 10, 2, 3, 4, 10, 3, 8, 2, 7, 1, 4, 10, 7, 4, 9, 6, 2, 1, 2, 1, 9, 8, 2, 4, 5, 8, 2, 9, 7, 4, 1, 8, 5, 6, 1, 1, 8, 4, 3, 6, 3, 2, 3, 4, 9, 9, 9, 8, 1, 10, 7, 10, 2, 8, 10, 0];
rr = array2d(1..4, 1..62, [0, 1, 6, 8, 1, 7, 9, 2, 4, 8, 4, 7, 4, 10, 6, 8, 9, 10, 7, 3, 5, 9, 9, 9, 8, 5, 1, 1, 7, 7, 8, 2, 5, 3, 10, 1, 7, 9, 8, 8, 10, 2, 7, 10, 10, 10, 10, 5, 3, 5, 6, 10, 9, 4, 2, 2, 3, 5, 6, 1, 7, 0, 0, 6, 7, 4, 2, 3, 8, 8, 4, 3, 10, 6, 4, 10, 1, 1, 9, 1, 4, 10, 2, 2, 7, 10, 1, 7, 9, 7, 8, 7, 5, 5, 4, 7, 9, 8, 6, 7, 9, 7, 2, 10, 5, 7, 3, 3, 7, 1, 1, 7, 9, 2, 3, 10, 4, 10, 8, 7, 4, 7, 10, 0, 0, 9, 2, 3, 6, 8, 7, 8, 10, 7, 9, 4, 1, 8, 3, 4, 2, 1, 7, 3, 7, 1, 4, 5, 1, 6, 1, 5, 8, 9, 4, 3, 4, 1, 3, 3, 5, 1, 3, 6, 8, 5, 10, 7, 5, 5, 9, 2, 3, 8, 10, 6, 10, 4, 1, 5, 6, 3, 8, 6, 6, 0, 0, 9, 8, 10, 6, 10, 4, 4, 5, 7, 9, 2, 4, 8, 8, 9, 3, 7, 5, 2, 2, 1, 2, 9, 9, 5, 9, 3, 5, 8, 8, 8, 6, 8, 1, 8, 2, 3, 5, 8, 2, 7, 10, 4, 10, 5, 1, 9, 6, 4, 5, 8, 8, 1, 2, 10, 1, 8, 3, 8, 2, 0]);

suc = [
   {2, 3, 4},
   {32, 5, 7},
   {8, 10, 32},
   {25, 34, 6},
   {35, 14, 15},
   {26, 22, 30},
   {19, 12, 29},
   {24, 9, 11},
   {42, 20, 21},
   {26, 19, 28},
   {43, 20, 61},
   {13, 38, 23},
   {16, 26, 51},
   {27, 19, 52},
   {17, 18, 31},
   {33, 58, 41},
   {49, 34, 50},
   {44, 45, 38},
   {23},
   {33, 35, 30},
   {25, 28, 55},
   {41, 43, 60},
   {41, 36, 37},
   {43, 27, 29},
   {40, 44, 38},
   {56, 42, 44},
   {42, 51, 30},
   {58, 59},
   {33},
   {36, 31},
   {40, 45, 46},
   {40, 34, 37},
   {50, 59, 36},
   {39},
   {53, 46},
   {55, 39},
   {47, 46, 39},
   {52, 47},
   {45},
   {48},
   {53},
   {58},
   {54},
   {48, 50},
   {56},
   {55},
   {48, 49, 56},
   {53},
   {51, 61},
   {52},
   {60, 54},
   {57},
   {54},
   {59},
   {57},
   {57},
   {60},
   {61},
   {62},
   {62},
   {62},
   {  } ];

deadline = array2d(1..62, 1..3, [3, 3, 5, 3, 5, 2, 13, 1, 5, 15, 5, 4, 17, 2, 5, 27, 3, 1, 30, 1, 5, 36, 0, 3, 41, 4, 0, 42, 0, 5, 44, 1, 5, 47, 3, 4, 50, 3, 5, 55, 4, 3, 55, 5, 5, 64, 4, 4, 67, 5, 1, 67, 5, 2, 70, 5, 1, 71, 5, 3, 75, 0, 1, 82, 5, 2, 83, 2, 3, 84, 2, 2, 88, 1, 2, 92, 4, 0, 94, 4, 0, 94, 4, 0, 94, 1, 3, 102, 0, 2, 102, 3, 2, 103, 1, 5, 104, 5, 5, 105, 1, 0, 108, 4, 2, 111, 2, 2, 116, 2, 2, 116, 4, 5, 117, 1, 4, 122, 1, 5, 123, 0, 5, 124, 3, 4, 124, 5, 5, 124, 4, 5, 128, 5, 3, 128, 3, 3, 134, 5, 1, 135, 2, 4, 136, 1, 1, 136, 4, 5, 137, 0, 0, 138, 5, 2, 139, 4, 3, 140, 4, 1, 145, 4, 5, 145, 2, 3, 146, 1, 5, 146, 4, 3, 150, 2, 0, 159, 2, 3, 165, 3, 1, 165, 2, 5]);
