n_res = 4;
rc = [ 44, 45, 53, 45 ];
n_tasks = 62;
d = [0, 9, 5, 5, 3, 2, 8, 8, 2, 8, 3, 1, 8, 9, 5, 3, 6, 3, 5, 2, 9, 4, 3, 9, 2, 6, 6, 7, 10, 6, 8, 8, 8, 5, 8, 4, 3, 4, 2, 3, 5, 5, 2, 2, 1, 5, 9, 3, 2, 10, 8, 5, 8, 3, 4, 8, 7, 9, 10, 1, 10, 0];
rr = array2d(1..4, 1..62, [0, 9, 5, 9, 4, 5, 4, 5, 4, 1, 2, 3, 10, 3, 8, 8, 4, 9, 1, 1, 4, 1, 5, 1, 10, 2, 1, 9, 1, 10, 5, 9, 4, 6, 2, 6, 7, 1, 8, 4, 6, 3, 1, 6, 10, 6, 8, 1, 6, 3, 7, 10, 7, 7, 1, 3, 6, 10, 6, 9, 3, 0, 0, 5, 10, 6, 10, 6, 2, 4, 1, 3, 5, 5, 5, 4, 2, 9, 1, 5, 5, 2, 3, 2, 8, 6, 4, 10, 6, 6, 10, 10, 10, 3, 1, 6, 10, 6, 10, 2, 3, 7, 3, 4, 5, 8, 10, 4, 9, 5, 8, 6, 10, 3, 7, 3, 8, 5, 3, 8, 6, 5, 9, 0, 0, 9, 2, 1, 7, 2, 5, 4, 8, 9, 10, 6, 5, 6, 9, 2, 9, 1, 9, 4, 2, 9, 3, 7, 4, 10, 8, 3, 9, 7, 2, 3, 3, 6, 6, 2, 7, 2, 10, 4, 9, 6, 3, 2, 1, 7, 10, 9, 4, 7, 6, 7, 8, 8, 8, 6, 8, 4, 10, 9, 4, 0, 0, 7, 7, 7, 3, 3, 8, 7, 5, 3, 1, 1, 9, 7, 3, 6, 2, 7, 5, 4, 5, 2, 3, 2, 9, 2, 3, 4, 7, 5, 8, 8, 5, 6, 8, 9, 8, 8, 2, 5, 8, 3, 9, 4, 10, 6, 4, 9, 2, 8, 7, 2, 9, 4, 9, 2, 2, 5, 1, 1, 3, 0]);

suc = [
   {2, 3, 4},
   {57, 23, 7},
   {42},
   {11, 5, 6},
   {9},
   {37},
   {8, 16, 13},
   {10, 12, 28},
   {20, 29, 14},
   {18, 30},
   {25, 28},
   {32, 36, 60},
   {18, 28, 45},
   {19, 38, 15},
   {43, 27, 57},
   {17, 21, 22},
   {24, 52},
   {26, 21},
   {31},
   {41, 34, 39},
   {37},
   {33},
   {34, 30},
   {58, 45},
   {40, 35, 38},
   {43, 46},
   {49},
   {42, 51},
   {34},
   {48, 44},
   {57},
   {41},
   {41, 36, 53},
   {49, 35},
   {43},
   {59, 52, 45},
   {48, 54},
   {48},
   {55},
   {51},
   {58, 51, 47},
   {50, 44, 47},
   {44, 55},
   {56, 58},
   {46},
   {47},
   {54},
   {49, 53, 55},
   {61},
   {53, 54},
   {52},
   {56},
   {61},
   {56},
   {60},
   {61},
   {59, 60},
   {59},
   {62},
   {62},
   {62},
   {  } ];

deadline = array2d(1..62, 1..3, [1, 1, 4, 3, 1, 0, 4, 3, 5, 4, 3, 2, 7, 1, 0, 10, 3, 4, 13, 4, 4, 19, 1, 3, 24, 4, 2, 28, 4, 5, 30, 2, 1, 36, 3, 3, 37, 0, 5, 42, 3, 1, 45, 4, 1, 47, 5, 5, 58, 5, 2, 60, 1, 4, 64, 5, 4, 68, 4, 2, 69, 2, 5, 70, 3, 5, 74, 3, 4, 75, 2, 5, 79, 2, 3, 91, 2, 1, 93, 4, 3, 98, 3, 3, 105, 3, 1, 115, 4, 1, 116, 1, 4, 116, 5, 1, 120, 4, 1, 122, 2, 5, 123, 5, 1, 124, 1, 3, 124, 2, 5, 129, 3, 1, 130, 3, 5, 131, 1, 4, 132, 2, 1, 132, 3, 1, 137, 1, 1, 145, 2, 2, 147, 4, 2, 147, 1, 0, 154, 4, 4, 156, 1, 2, 156, 0, 1, 159, 0, 2, 162, 2, 1, 163, 1, 1, 163, 1, 3, 164, 3, 3, 164, 5, 2, 164, 4, 2, 166, 5, 3, 169, 5, 4, 174, 4, 5, 182, 5, 1, 185, 0, 3, 188, 2, 5]);
