n_res = 4;
rc = [ 12, 10, 10, 13 ];
n_tasks = 62;
d = [0, 1, 1, 2, 1, 4, 2, 5, 6, 7, 9, 9, 2, 10, 4, 1, 3, 1, 8, 6, 9, 3, 6, 3, 6, 6, 6, 8, 8, 8, 5, 5, 2, 3, 9, 7, 5, 1, 5, 2, 8, 7, 6, 10, 8, 10, 10, 1, 1, 2, 6, 1, 4, 9, 6, 9, 5, 9, 7, 9, 1, 0];
rr = array2d(1..4, 1..62, [0, 9, 9, 0, 9, 0, 0, 0, 0, 4, 0, 0, 0, 10, 1, 0, 0, 0, 0, 0, 5, 0, 0, 0, 0, 0, 0, 0, 0, 6, 0, 0, 0, 0, 8, 0, 0, 0, 0, 0, 0, 0, 0, 0, 4, 8, 0, 0, 8, 0, 0, 0, 0, 5, 0, 5, 0, 8, 0, 2, 0, 0, 0, 0, 0, 0, 0, 0, 0, 0, 0, 0, 3, 0, 9, 0, 0, 0, 4, 0, 0, 1, 0, 0, 6, 0, 0, 0, 0, 0, 2, 0, 4, 0, 0, 0, 0, 0, 0, 8, 5, 0, 0, 0, 0, 0, 0, 0, 0, 2, 0, 0, 8, 6, 8, 0, 0, 0, 0, 0, 3, 0, 0, 0, 0, 0, 0, 7, 0, 8, 0, 0, 0, 0, 0, 0, 0, 0, 0, 0, 0, 3, 3, 0, 0, 0, 0, 1, 1, 0, 0, 4, 0, 0, 0, 0, 0, 3, 0, 8, 0, 0, 0, 0, 0, 4, 0, 0, 0, 0, 0, 0, 0, 0, 0, 0, 0, 0, 0, 0, 4, 0, 0, 0, 0, 0, 0, 0, 0, 0, 0, 0, 7, 10, 1, 0, 0, 8, 0, 0, 0, 9, 0, 0, 0, 0, 0, 1, 0, 0, 0, 5, 1, 0, 0, 0, 0, 1, 6, 0, 0, 0, 4, 0, 0, 4, 2, 0, 6, 9, 0, 0, 9, 0, 0, 2, 0, 0, 0, 0, 8, 0, 0, 0, 0, 0, 7, 0]);

suc = [
   {2, 3, 4},
   {8, 5, 14},
   {19, 37, 6},
   {32, 35, 29},
   {25, 18, 21},
   {9, 12, 7},
   {59, 54},
   {10, 11, 21},
   {32, 23},
   {50, 12, 45},
   {25, 27, 13},
   {28, 22, 23},
   {18, 15},
   {36, 37, 30},
   {16, 54, 31},
   {17, 20, 22},
   {38, 44, 30},
   {24, 34, 53},
   {41, 36, 29},
   {33, 45, 38},
   {32, 30, 23},
   {49, 42, 55},
   {36, 47, 39},
   {41, 26, 50},
   {57, 34, 53},
   {40, 29, 47},
   {41, 50, 43},
   {43, 35},
   {61, 44, 45},
   {34, 42, 39},
   {59, 44},
   {40, 51},
   {60, 37},
   {35},
   {48, 49, 46},
   {42, 38},
   {46, 39},
   {43, 52},
   {40, 58},
   {52},
   {56, 49, 55},
   {48, 53},
   {46},
   {57},
   {48, 57},
   {56},
   {51},
   {52},
   {58},
   {51},
   {54},
   {59},
   {56, 60},
   {55},
   {58},
   {61},
   {60},
   {61},
   {62},
   {62},
   {62},
   {  } ];

deadline = array2d(1..62, 1..3, [2, 5, 5, 2, 3, 0, 3, 0, 1, 5, 5, 4, 6, 0, 3, 6, 0, 5, 6, 5, 2, 7, 4, 5, 9, 5, 5, 10, 5, 3, 13, 0, 1, 15, 1, 2, 25, 3, 5, 26, 1, 5, 27, 1, 2, 35, 3, 5, 40, 4, 4, 41, 0, 2, 48, 3, 0, 52, 2, 5, 54, 3, 3, 58, 4, 3, 60, 3, 2, 66, 5, 3, 67, 1, 3, 70, 0, 1, 81, 2, 4, 81, 0, 0, 82, 0, 1, 87, 4, 1, 89, 2, 4, 90, 1, 4, 90, 0, 2, 91, 2, 4, 92, 0, 1, 97, 3, 1, 100, 4, 4, 104, 0, 1, 107, 3, 3, 109, 1, 5, 115, 5, 4, 121, 5, 1, 124, 3, 1, 125, 1, 5, 125, 1, 4, 126, 2, 3, 129, 3, 5, 132, 3, 0, 133, 4, 1, 135, 4, 2, 135, 0, 3, 140, 0, 3, 141, 1, 5, 143, 5, 2, 144, 4, 3, 146, 0, 2, 147, 4, 1, 153, 2, 4, 159, 1, 4, 163, 2, 5, 169, 4, 1, 170, 4, 0]);
