n_res = 4;
rc = [ 17, 19, 18, 20 ];
n_tasks = 62;
d = [0, 4, 4, 3, 5, 1, 10, 9, 7, 5, 1, 3, 8, 7, 8, 1, 6, 1, 10, 8, 10, 4, 8, 3, 6, 9, 9, 4, 7, 1, 5, 4, 2, 6, 1, 3, 9, 1, 10, 3, 3, 3, 9, 7, 1, 7, 7, 8, 10, 6, 8, 4, 7, 4, 9, 3, 9, 7, 8, 8, 7, 0];
rr = array2d(1..4, 1..62, [0, 3, 3, 8, 9, 6, 0, 0, 6, 1, 0, 3, 0, 8, 6, 9, 10, 2, 10, 4, 8, 8, 0, 7, 10, 5, 9, 3, 2, 8, 0, 2, 0, 1, 0, 3, 3, 9, 5, 3, 7, 0, 8, 10, 2, 8, 0, 1, 2, 6, 1, 0, 0, 2, 0, 8, 6, 0, 0, 0, 7, 0, 0, 0, 3, 9, 3, 5, 1, 5, 1, 4, 3, 1, 8, 3, 4, 7, 5, 0, 0, 0, 4, 8, 0, 4, 1, 0, 0, 4, 3, 5, 7, 1, 1, 5, 10, 0, 0, 10, 4, 8, 7, 1, 2, 8, 9, 9, 4, 0, 4, 0, 0, 2, 10, 1, 10, 10, 0, 5, 4, 0, 3, 0, 0, 5, 9, 7, 5, 0, 6, 10, 1, 4, 3, 1, 1, 9, 0, 0, 5, 6, 9, 0, 2, 8, 8, 0, 7, 8, 2, 1, 0, 6, 0, 4, 0, 0, 0, 5, 0, 0, 8, 8, 1, 1, 7, 9, 2, 1, 1, 0, 6, 7, 0, 3, 3, 7, 5, 8, 7, 6, 5, 0, 4, 0, 0, 0, 2, 0, 8, 5, 1, 1, 5, 4, 8, 0, 0, 7, 6, 6, 7, 5, 9, 10, 5, 10, 4, 9, 0, 1, 9, 0, 0, 4, 2, 1, 5, 8, 9, 9, 0, 0, 7, 0, 0, 0, 4, 4, 9, 0, 9, 2, 4, 2, 7, 7, 8, 5, 6, 0, 7, 10, 7, 7, 6, 0]);

suc = [
   {2, 3, 4},
   {10, 13, 5},
   {43},
   {17, 35, 15},
   {18, 6, 22},
   {8, 9, 7},
   {11, 54},
   {12},
   {16, 56, 37},
   {26, 23},
   {51},
   {21, 14},
   {46, 28, 36},
   {19},
   {29},
   {34, 20},
   {20, 30, 44},
   {42, 38},
   {27},
   {45, 55},
   {26, 51},
   {25, 29, 23},
   {24, 53},
   {59, 39},
   {31},
   {32},
   {60},
   {47},
   {32},
   {41},
   {45},
   {33},
   {49},
   {39},
   {41},
   {40, 50},
   {57},
   {45},
   {50},
   {58, 43},
   {59},
   {48},
   {52},
   {56},
   {49, 50, 47},
   {54},
   {51, 61},
   {49},
   {60},
   {57},
   {58},
   {57},
   {55},
   {56},
   {58},
   {60},
   {61},
   {59},
   {62},
   {62},
   {62},
   {  } ];

deadline = array2d(1..62, 1..3, [1, 3, 4, 3, 5, 2, 3, 1, 3, 5, 1, 2, 6, 4, 2, 10, 0, 4, 11, 2, 4, 15, 2, 3, 20, 1, 2, 21, 2, 1, 22, 5, 2, 23, 4, 2, 27, 3, 4, 29, 0, 3, 30, 5, 5, 30, 1, 2, 35, 1, 2, 48, 5, 5, 48, 2, 4, 56, 1, 1, 57, 2, 3, 62, 5, 1, 65, 3, 0, 65, 3, 5, 68, 1, 0, 70, 5, 2, 78, 3, 0, 78, 5, 5, 82, 3, 1, 83, 5, 5, 84, 1, 4, 86, 4, 3, 88, 5, 0, 96, 2, 4, 97, 4, 4, 98, 3, 3, 105, 2, 2, 107, 5, 3, 107, 4, 5, 109, 1, 0, 109, 5, 1, 113, 5, 0, 118, 5, 2, 123, 1, 3, 123, 4, 2, 136, 4, 4, 139, 1, 0, 148, 5, 3, 149, 5, 1, 149, 1, 0, 150, 3, 5, 150, 3, 1, 150, 4, 0, 150, 3, 4, 151, 3, 3, 155, 5, 1, 156, 4, 5, 158, 1, 1, 161, 5, 4, 161, 3, 5, 161, 3, 3, 162, 3, 2]);
