n_res = 4;
rc = [ 18, 19, 21, 19 ];
n_tasks = 62;
d = [0, 8, 9, 6, 4, 9, 6, 4, 3, 5, 4, 2, 8, 9, 8, 3, 1, 5, 8, 2, 8, 1, 3, 2, 5, 4, 3, 7, 4, 7, 2, 8, 1, 10, 4, 2, 8, 5, 6, 2, 3, 9, 10, 8, 3, 6, 4, 3, 10, 3, 6, 4, 2, 3, 8, 5, 1, 10, 10, 9, 5, 0];
rr = array2d(1..4, 1..62, [0, 0, 1, 0, 9, 0, 3, 0, 0, 0, 0, 4, 7, 0, 0, 2, 10, 8, 3, 2, 5, 6, 0, 0, 6, 8, 0, 8, 5, 9, 0, 5, 0, 0, 0, 4, 0, 0, 7, 7, 0, 0, 4, 0, 0, 5, 10, 0, 0, 0, 7, 0, 9, 0, 8, 0, 3, 0, 0, 0, 8, 0, 0, 0, 0, 9, 0, 1, 0, 0, 0, 8, 7, 0, 0, 0, 6, 0, 7, 10, 9, 0, 0, 0, 0, 0, 0, 7, 5, 0, 0, 8, 6, 3, 0, 0, 0, 2, 0, 0, 0, 3, 6, 10, 0, 1, 0, 3, 0, 0, 0, 1, 0, 4, 2, 0, 9, 2, 0, 0, 6, 0, 8, 0, 0, 9, 9, 10, 9, 0, 2, 7, 9, 0, 0, 6, 10, 6, 6, 10, 2, 0, 0, 7, 8, 7, 1, 10, 0, 0, 7, 1, 1, 10, 0, 0, 0, 4, 0, 0, 3, 0, 0, 8, 0, 8, 0, 8, 9, 2, 2, 0, 7, 0, 0, 0, 0, 5, 0, 0, 3, 9, 1, 6, 0, 0, 0, 3, 8, 0, 0, 0, 1, 0, 0, 0, 9, 0, 0, 0, 0, 0, 0, 0, 9, 2, 1, 0, 2, 0, 0, 0, 2, 9, 2, 0, 0, 8, 8, 3, 9, 10, 2, 2, 2, 0, 8, 0, 4, 0, 0, 0, 0, 3, 1, 9, 2, 5, 0, 2, 1, 0, 0, 0, 3, 10, 0, 0]);

suc = [
   {2, 3, 4},
   {24, 17, 21},
   {5, 6, 7},
   {16, 19, 29},
   {8, 9, 15},
   {41, 11, 37},
   {51, 36, 21},
   {10, 12, 20},
   {25, 26, 22},
   {28, 13, 44},
   {25, 42, 31},
   {29},
   {26, 34, 14},
   {24, 18, 30},
   {40, 25},
   {33, 27, 54},
   {42, 35, 38},
   {57, 50, 21},
   {56, 26, 23},
   {40, 56, 55},
   {61, 38},
   {41, 31, 23},
   {34, 51, 52},
   {48, 50, 36},
   {33, 44, 39},
   {51},
   {34, 44, 46},
   {32, 41, 47},
   {43, 55},
   {37, 31},
   {32, 33, 50},
   {35, 38},
   {49},
   {37},
   {36, 39},
   {43, 52, 54},
   {40, 55},
   {48, 45},
   {43, 45},
   {47},
   {42, 46},
   {49, 59},
   {46},
   {48, 45, 47},
   {58, 52},
   {57},
   {49, 60, 53},
   {60},
   {61},
   {56, 54},
   {53},
   {53},
   {59},
   {58},
   {57},
   {61},
   {58, 60},
   {59},
   {62},
   {62},
   {62},
   {  } ];

deadline = array2d(1..62, 1..3, [4, 4, 5, 8, 4, 0, 8, 5, 1, 10, 0, 3, 12, 0, 0, 16, 1, 3, 18, 2, 3, 19, 5, 2, 23, 2, 4, 25, 1, 4, 27, 0, 4, 28, 0, 5, 28, 2, 1, 31, 3, 0, 34, 4, 4, 40, 5, 3, 52, 0, 3, 64, 0, 4, 67, 5, 3, 71, 5, 0, 74, 3, 5, 76, 5, 0, 76, 5, 3, 79, 5, 4, 83, 4, 5, 85, 5, 5, 88, 0, 1, 97, 5, 3, 98, 3, 5, 116, 1, 3, 150, 4, 0, 150, 1, 4, 150, 5, 4, 153, 0, 2, 153, 5, 0, 157, 4, 4, 157, 0, 2, 164, 2, 1, 165, 2, 3, 165, 0, 5, 167, 0, 0, 167, 2, 5, 168, 5, 2, 168, 3, 5, 181, 5, 1, 183, 4, 0, 196, 4, 1, 202, 1, 2, 203, 2, 2, 208, 4, 0, 215, 4, 0, 217, 5, 0, 219, 3, 0, 219, 5, 0, 224, 5, 4, 232, 5, 5, 241, 3, 1, 245, 1, 1, 246, 3, 5, 247, 2, 4, 249, 2, 5, 256, 0, 2]);
