n_res = 4;
rc = [ 23, 36, 31, 16 ];
n_tasks = 62;
d = [0, 9, 7, 1, 7, 2, 8, 4, 5, 4, 1, 5, 3, 5, 1, 3, 9, 9, 5, 6, 9, 3, 5, 10, 2, 7, 1, 4, 6, 10, 8, 8, 2, 3, 7, 5, 6, 8, 9, 8, 1, 6, 1, 10, 6, 5, 6, 6, 8, 10, 2, 4, 5, 7, 4, 5, 6, 4, 8, 5, 8, 0];
rr = array2d(1..4, 1..62, [0, 10, 0, 0, 0, 0, 0, 8, 0, 0, 5, 0, 8, 0, 0, 10, 0, 0, 0, 0, 0, 0, 3, 0, 0, 0, 7, 0, 0, 0, 0, 0, 0, 0, 1, 2, 0, 0, 0, 0, 0, 2, 0, 0, 0, 0, 0, 0, 0, 0, 0, 4, 0, 0, 2, 0, 8, 0, 0, 1, 0, 0, 0, 0, 0, 0, 0, 0, 0, 0, 3, 0, 0, 0, 0, 10, 10, 0, 0, 10, 0, 3, 8, 5, 0, 0, 10, 0, 0, 4, 3, 0, 0, 0, 0, 6, 0, 0, 0, 10, 4, 10, 0, 0, 0, 0, 0, 7, 0, 0, 0, 0, 9, 0, 0, 0, 0, 0, 0, 0, 0, 0, 0, 0, 0, 0, 1, 4, 0, 3, 8, 0, 0, 2, 0, 10, 0, 0, 0, 0, 0, 0, 0, 0, 0, 0, 0, 0, 0, 6, 0, 0, 0, 5, 0, 0, 0, 0, 0, 0, 0, 0, 0, 0, 0, 0, 9, 0, 3, 0, 0, 6, 0, 10, 0, 0, 0, 7, 0, 3, 0, 10, 6, 0, 0, 0, 0, 0, 0, 0, 4, 0, 0, 0, 0, 0, 0, 0, 0, 0, 0, 0, 3, 0, 4, 0, 0, 0, 0, 6, 0, 0, 0, 0, 0, 0, 3, 4, 5, 0, 0, 0, 3, 0, 0, 0, 8, 0, 0, 8, 0, 0, 7, 0, 5, 0, 0, 0, 6, 0, 0, 0, 0, 0, 0, 0, 9, 0]);

suc = [
   {2, 3, 4},
   {9},
   {8, 5, 7},
   {20, 14},
   {16, 6, 15},
   {10, 11, 12},
   {53},
   {52},
   {19, 13},
   {24, 22, 30},
   {33, 29, 38},
   {56},
   {17, 27, 39},
   {32, 34},
   {18},
   {21},
   {34},
   {58},
   {26, 60},
   {57, 35, 28},
   {54},
   {31, 36, 23},
   {43},
   {40, 25, 37},
   {57},
   {33, 31},
   {46, 47},
   {52},
   {51},
   {53},
   {37},
   {50},
   {37},
   {42, 53},
   {41, 61},
   {39},
   {58},
   {39},
   {59, 55},
   {44},
   {60},
   {60},
   {48, 45},
   {52, 45},
   {46},
   {49},
   {51, 54},
   {57},
   {59},
   {51},
   {55},
   {56},
   {61},
   {55},
   {56},
   {61},
   {58},
   {59},
   {62},
   {62},
   {62},
   {  } ];

deadline = array2d(1..62, 1..3, [1, 5, 5, 2, 0, 4, 5, 2, 4, 9, 2, 1, 12, 3, 1, 15, 2, 4, 20, 2, 2, 28, 0, 0, 30, 3, 1, 36, 5, 5, 40, 5, 1, 53, 1, 5, 56, 0, 5, 56, 1, 1, 60, 4, 3, 61, 4, 5, 62, 5, 5, 63, 3, 3, 68, 0, 1, 68, 3, 3, 70, 3, 4, 71, 0, 3, 82, 0, 5, 83, 1, 5, 85, 3, 5, 85, 2, 4, 90, 4, 2, 95, 0, 1, 99, 4, 4, 102, 5, 3, 107, 5, 5, 107, 4, 4, 108, 1, 2, 108, 0, 2, 109, 2, 3, 110, 0, 5, 113, 1, 1, 116, 5, 2, 123, 1, 3, 125, 5, 5, 127, 2, 4, 129, 5, 4, 130, 4, 0, 131, 0, 1, 131, 5, 5, 135, 4, 2, 138, 3, 5, 142, 1, 3, 144, 5, 5, 146, 5, 4, 148, 5, 3, 149, 1, 2, 152, 5, 1, 162, 5, 0, 164, 3, 1, 166, 2, 0, 169, 2, 2, 170, 3, 5, 172, 1, 0, 185, 2, 5, 186, 4, 1, 186, 5, 5]);
