n_res = 4;
rc = [ 18, 18, 20, 14 ];
n_tasks = 62;
d = [0, 8, 3, 8, 7, 3, 8, 2, 10, 7, 9, 5, 9, 8, 1, 10, 4, 8, 9, 9, 8, 6, 10, 7, 10, 6, 9, 9, 5, 9, 3, 1, 10, 3, 1, 9, 8, 5, 2, 9, 5, 3, 9, 10, 5, 7, 8, 7, 2, 6, 7, 4, 4, 9, 2, 2, 8, 2, 6, 6, 8, 0];
rr = array2d(1..4, 1..62, [0, 0, 0, 0, 0, 0, 0, 0, 2, 2, 0, 0, 8, 5, 0, 3, 0, 0, 0, 0, 0, 4, 8, 2, 0, 0, 0, 0, 7, 0, 0, 1, 0, 1, 3, 0, 8, 0, 10, 7, 9, 0, 0, 0, 0, 0, 9, 2, 0, 0, 0, 0, 0, 0, 0, 10, 0, 0, 0, 0, 0, 0, 0, 0, 0, 0, 0, 7, 0, 0, 0, 0, 0, 6, 0, 0, 6, 0, 10, 10, 7, 2, 6, 0, 0, 0, 0, 0, 0, 0, 0, 3, 0, 0, 0, 0, 0, 0, 0, 0, 0, 0, 0, 1, 6, 0, 0, 0, 0, 0, 0, 6, 9, 0, 0, 0, 0, 0, 7, 4, 10, 0, 0, 0, 0, 7, 6, 0, 0, 0, 0, 0, 0, 0, 8, 0, 0, 0, 0, 0, 0, 0, 0, 0, 0, 0, 0, 0, 0, 3, 7, 2, 0, 0, 0, 0, 5, 0, 0, 8, 0, 0, 0, 0, 0, 0, 0, 0, 0, 0, 0, 0, 0, 0, 0, 0, 10, 10, 6, 0, 0, 0, 0, 10, 8, 0, 0, 0, 0, 5, 1, 0, 3, 5, 0, 0, 0, 0, 0, 0, 0, 0, 0, 0, 0, 0, 0, 0, 0, 0, 1, 0, 0, 0, 0, 0, 5, 0, 0, 0, 0, 0, 0, 6, 0, 0, 0, 0, 0, 7, 5, 10, 0, 0, 9, 0, 0, 10, 0, 0, 0, 0, 0, 0, 0, 0, 0, 0]);

suc = [
   {2, 3, 4},
   {26, 5},
   {33, 6, 7},
   {12, 28, 55},
   {10, 27, 22},
   {9, 34, 45},
   {8, 25, 18},
   {41, 11, 14},
   {32, 36},
   {20, 13, 31},
   {15},
   {24, 58, 38},
   {17, 60, 21},
   {16, 37, 29},
   {56},
   {56, 44},
   {42, 52},
   {26, 19, 23},
   {29},
   {32},
   {36, 54},
   {44, 45},
   {53, 43, 37},
   {40, 43, 30},
   {58, 59},
   {42, 50},
   {52, 30},
   {32, 46, 38},
   {40, 35, 39},
   {33, 46, 47},
   {39},
   {44},
   {48},
   {57},
   {49, 46},
   {40, 58},
   {54, 39},
   {50, 51},
   {51, 55},
   {52},
   {57, 42},
   {53},
   {49},
   {48},
   {54, 47},
   {50, 51},
   {48},
   {49},
   {57},
   {56},
   {59},
   {53},
   {59},
   {61},
   {60},
   {61},
   {60},
   {61},
   {62},
   {62},
   {62},
   {  } ];

deadline = array2d(1..62, 1..3, [8, 4, 1, 9, 2, 3, 10, 5, 1, 13, 2, 3, 18, 2, 4, 19, 4, 3, 26, 5, 5, 33, 2, 2, 34, 2, 1, 39, 5, 0, 42, 3, 4, 43, 2, 2, 43, 4, 2, 44, 5, 0, 49, 2, 5, 56, 2, 1, 57, 0, 0, 61, 2, 4, 63, 4, 2, 63, 1, 5, 68, 0, 4, 70, 5, 0, 71, 0, 0, 74, 0, 2, 74, 0, 4, 77, 4, 3, 84, 4, 2, 88, 4, 5, 89, 4, 4, 97, 2, 1, 97, 2, 5, 100, 3, 1, 106, 5, 3, 110, 1, 5, 114, 2, 3, 114, 0, 2, 115, 5, 3, 115, 0, 0, 117, 2, 4, 121, 3, 0, 121, 2, 1, 124, 2, 3, 124, 5, 4, 127, 5, 4, 130, 2, 0, 138, 0, 2, 139, 4, 0, 140, 3, 1, 145, 0, 3, 146, 5, 3, 152, 0, 4, 154, 4, 4, 155, 5, 5, 157, 0, 4, 160, 0, 0, 166, 5, 0, 167, 0, 0, 173, 4, 4, 174, 2, 5, 175, 1, 3, 175, 4, 5, 175, 4, 0]);
