n_res = 4;
rc = [ 18, 18, 18, 19 ];
n_tasks = 62;
d = [0, 10, 8, 8, 3, 6, 9, 10, 8, 4, 1, 3, 8, 4, 10, 4, 8, 9, 4, 8, 2, 9, 5, 7, 7, 4, 2, 10, 2, 7, 4, 6, 6, 3, 4, 4, 4, 4, 8, 8, 5, 6, 8, 1, 4, 7, 5, 10, 4, 1, 7, 5, 4, 6, 10, 7, 10, 2, 8, 10, 7, 0];
rr = array2d(1..4, 1..62, [0, 10, 9, 1, 2, 3, 6, 4, 1, 2, 6, 4, 7, 8, 9, 3, 10, 8, 5, 3, 6, 10, 2, 2, 7, 5, 5, 1, 4, 2, 6, 10, 3, 1, 1, 4, 3, 6, 6, 7, 3, 5, 1, 9, 1, 3, 9, 10, 6, 1, 1, 10, 10, 7, 10, 2, 10, 4, 2, 2, 5, 0, 0, 4, 9, 3, 2, 1, 5, 10, 9, 4, 4, 7, 1, 4, 2, 2, 8, 2, 4, 1, 5, 9, 10, 9, 7, 6, 8, 6, 3, 10, 9, 6, 10, 1, 4, 10, 1, 8, 3, 1, 1, 6, 5, 2, 5, 1, 4, 1, 1, 1, 4, 4, 2, 7, 7, 3, 3, 3, 7, 6, 10, 0, 0, 6, 2, 10, 3, 6, 3, 3, 5, 3, 2, 1, 2, 8, 10, 6, 5, 9, 3, 5, 7, 4, 9, 6, 6, 6, 6, 4, 1, 1, 6, 6, 10, 9, 3, 7, 1, 4, 6, 1, 1, 9, 2, 10, 4, 8, 1, 10, 2, 7, 3, 9, 7, 1, 10, 3, 7, 3, 10, 7, 2, 0, 0, 7, 1, 6, 7, 3, 6, 10, 9, 4, 9, 9, 6, 7, 2, 1, 5, 9, 1, 9, 7, 4, 5, 2, 9, 9, 4, 8, 3, 4, 5, 8, 9, 9, 10, 8, 4, 8, 8, 4, 4, 10, 2, 10, 7, 3, 8, 2, 8, 6, 10, 3, 6, 6, 3, 10, 7, 2, 1, 4, 5, 0]);

suc = [
   {2, 3, 4},
   {16, 17, 14},
   {9, 19, 6},
   {10, 5, 7},
   {16, 33},
   {35, 20, 47},
   {8, 11, 15},
   {32, 46, 22},
   {59, 42, 27},
   {30},
   {12, 13},
   {16, 25, 18},
   {43, 60, 29},
   {48, 52},
   {24, 27},
   {26, 36},
   {58},
   {41, 39},
   {21},
   {24, 58, 23},
   {50},
   {24, 35, 54},
   {34},
   {50},
   {43, 52, 37},
   {44},
   {34, 28, 31},
   {51, 30, 55},
   {36, 45},
   {36},
   {52},
   {34, 47},
   {56, 53, 45},
   {41, 39},
   {48, 43},
   {39},
   {42, 45, 38},
   {40, 56},
   {61},
   {55},
   {48, 49},
   {57, 55, 47},
   {49},
   {46},
   {54},
   {53, 54},
   {49},
   {51, 53},
   {51},
   {56},
   {61},
   {57},
   {57},
   {58},
   {60},
   {59},
   {60, 61},
   {59},
   {62},
   {62},
   {62},
   {  } ];

deadline = array2d(1..62, 1..3, [2, 5, 2, 4, 0, 0, 6, 3, 5, 8, 5, 2, 10, 5, 0, 15, 5, 3, 21, 2, 4, 22, 2, 1, 23, 1, 3, 23, 2, 2, 24, 2, 1, 29, 4, 4, 39, 1, 3, 43, 1, 3, 44, 4, 5, 47, 4, 5, 49, 4, 1, 53, 1, 0, 55, 3, 3, 58, 1, 0, 59, 5, 5, 62, 4, 5, 71, 5, 2, 73, 0, 3, 76, 5, 4, 79, 1, 4, 80, 4, 1, 83, 1, 1, 85, 0, 2, 87, 3, 3, 98, 3, 5, 98, 0, 4, 101, 1, 1, 103, 3, 2, 105, 0, 4, 106, 0, 3, 111, 5, 5, 115, 4, 3, 116, 3, 5, 117, 2, 1, 119, 0, 4, 119, 4, 2, 133, 4, 2, 133, 4, 2, 139, 5, 5, 146, 4, 0, 147, 4, 5, 151, 1, 0, 152, 2, 2, 155, 1, 5, 156, 4, 5, 160, 5, 4, 162, 4, 2, 162, 0, 2, 166, 4, 5, 170, 3, 3, 173, 3, 4, 174, 4, 5, 177, 3, 4, 178, 4, 0, 179, 1, 0, 181, 5, 4]);
