n_res = 4;
rc = [ 45, 37, 32, 48 ];
n_tasks = 62;
d = [0, 8, 4, 9, 10, 2, 8, 1, 3, 5, 3, 10, 3, 10, 10, 8, 8, 7, 4, 8, 1, 9, 6, 6, 1, 3, 5, 2, 10, 5, 3, 10, 10, 3, 9, 6, 5, 2, 2, 4, 2, 4, 6, 3, 9, 3, 9, 6, 7, 3, 6, 8, 1, 6, 1, 2, 5, 7, 5, 2, 1, 0];
rr = array2d(1..4, 1..62, [0, 0, 5, 2, 0, 1, 1, 1, 6, 7, 4, 5, 10, 0, 9, 10, 7, 7, 3, 9, 2, 7, 1, 1, 5, 7, 0, 10, 5, 10, 7, 0, 0, 9, 6, 10, 4, 8, 1, 0, 4, 3, 1, 9, 2, 9, 4, 9, 6, 6, 0, 7, 2, 4, 2, 4, 7, 2, 3, 0, 0, 0, 0, 0, 10, 10, 1, 4, 0, 3, 10, 5, 9, 10, 5, 5, 6, 5, 5, 0, 6, 6, 2, 4, 5, 10, 0, 10, 6, 10, 6, 3, 0, 8, 0, 0, 0, 1, 0, 2, 7, 0, 6, 1, 0, 0, 4, 4, 5, 0, 2, 0, 0, 1, 1, 0, 7, 0, 9, 8, 1, 8, 0, 0, 0, 4, 0, 0, 0, 4, 9, 0, 9, 2, 4, 5, 7, 1, 6, 2, 0, 8, 10, 0, 0, 3, 6, 5, 5, 5, 3, 9, 8, 0, 10, 5, 0, 1, 2, 1, 7, 5, 5, 1, 8, 1, 0, 4, 3, 4, 6, 4, 10, 0, 3, 2, 0, 0, 3, 1, 10, 5, 0, 0, 9, 0, 0, 9, 0, 6, 10, 0, 7, 0, 3, 9, 0, 8, 5, 10, 8, 5, 0, 5, 7, 3, 0, 3, 6, 4, 0, 9, 6, 0, 0, 3, 10, 10, 8, 0, 7, 6, 0, 0, 0, 7, 8, 2, 3, 7, 9, 4, 7, 5, 0, 6, 6, 0, 5, 7, 6, 7, 8, 6, 10, 6, 0, 0]);

suc = [
   {2, 3, 4},
   {15, 5, 7},
   {8, 26, 48},
   {24, 40, 15},
   {6, 22},
   {49, 10, 14},
   {19, 34, 11},
   {9, 21, 13},
   {27, 20, 23},
   {32, 12, 38},
   {33, 36, 22},
   {28},
   {17, 41, 31},
   {17, 33, 31},
   {16, 49, 30},
   {25, 33},
   {25, 18, 60},
   {34, 29},
   {40, 58, 35},
   {46, 28, 30},
   {55, 31},
   {50, 44, 29},
   {24, 43, 38},
   {59, 30},
   {34, 35, 38},
   {41, 35, 36},
   {28, 37, 36},
   {42, 51, 50},
   {52, 39},
   {32, 56},
   {32, 42, 50},
   {58},
   {48, 37, 47},
   {53, 45, 37},
   {51},
   {56, 52, 39},
   {39},
   {53, 47},
   {42, 51},
   {43, 60, 45},
   {56, 43, 53},
   {54},
   {46},
   {48, 49, 45},
   {46},
   {54, 47},
   {52},
   {57, 54},
   {57},
   {57},
   {59},
   {61, 55},
   {55},
   {61},
   {59},
   {60},
   {58},
   {61},
   {62},
   {62},
   {62},
   {  } ];

deadline = array2d(1..62, 1..3, [3, 1, 5, 4, 1, 0, 6, 3, 5, 11, 3, 4, 12, 5, 2, 16, 1, 4, 22, 5, 0, 30, 5, 5, 32, 2, 2, 34, 1, 3, 38, 2, 4, 40, 3, 2, 43, 0, 0, 49, 2, 1, 51, 3, 2, 52, 0, 1, 55, 4, 0, 57, 0, 0, 61, 2, 2, 61, 1, 4, 62, 4, 4, 64, 2, 3, 74, 1, 4, 77, 5, 5, 78, 2, 3, 83, 1, 5, 84, 4, 0, 100, 0, 1, 105, 4, 5, 110, 0, 4, 110, 1, 4, 113, 2, 5, 116, 1, 3, 117, 0, 0, 121, 2, 5, 122, 5, 2, 125, 5, 0, 130, 5, 1, 131, 3, 2, 135, 4, 0, 136, 0, 0, 139, 3, 0, 145, 4, 0, 154, 1, 1, 161, 4, 0, 163, 2, 5, 165, 0, 5, 171, 5, 0, 171, 4, 2, 173, 5, 4, 173, 1, 5, 183, 5, 3, 184, 3, 1, 185, 3, 5, 186, 2, 2, 191, 0, 1, 191, 3, 1, 193, 2, 1, 200, 3, 5, 200, 1, 0, 201, 2, 0, 206, 1, 3]);
