n_res = 4;
rc = [ 75, 84, 64, 71 ];
n_tasks = 62;
d = [0, 10, 6, 4, 5, 10, 1, 7, 2, 7, 7, 4, 7, 1, 6, 1, 2, 10, 1, 4, 7, 9, 6, 3, 5, 3, 10, 8, 1, 4, 7, 8, 4, 7, 10, 8, 8, 4, 9, 4, 4, 1, 5, 7, 5, 3, 8, 9, 10, 10, 2, 9, 1, 4, 7, 7, 7, 1, 2, 2, 5, 0];
rr = array2d(1..4, 1..62, [0, 1, 9, 1, 10, 4, 5, 10, 7, 3, 6, 8, 3, 2, 4, 6, 9, 5, 3, 2, 9, 6, 7, 8, 7, 2, 1, 9, 8, 6, 7, 1, 4, 8, 7, 6, 9, 3, 5, 10, 5, 3, 6, 9, 5, 5, 5, 7, 2, 9, 9, 6, 7, 1, 7, 4, 8, 7, 9, 8, 1, 0, 0, 3, 9, 1, 6, 9, 8, 7, 2, 10, 9, 10, 5, 5, 5, 3, 8, 2, 9, 6, 8, 5, 10, 2, 5, 3, 10, 8, 6, 1, 6, 1, 10, 3, 3, 3, 7, 8, 4, 1, 10, 1, 8, 9, 7, 4, 6, 10, 8, 2, 10, 5, 8, 5, 4, 8, 4, 4, 9, 10, 6, 0, 0, 9, 6, 6, 3, 5, 2, 5, 2, 3, 8, 10, 2, 4, 2, 4, 4, 1, 8, 3, 4, 6, 10, 2, 9, 5, 3, 4, 8, 4, 9, 6, 6, 4, 9, 9, 2, 8, 4, 8, 6, 4, 1, 10, 7, 3, 6, 2, 10, 8, 4, 5, 4, 9, 2, 5, 7, 6, 3, 9, 1, 0, 0, 8, 4, 6, 7, 3, 9, 4, 5, 4, 8, 2, 1, 7, 5, 7, 7, 6, 7, 10, 8, 3, 6, 1, 1, 3, 7, 7, 10, 7, 2, 7, 8, 2, 5, 7, 2, 3, 10, 9, 6, 10, 7, 1, 5, 10, 10, 2, 4, 9, 1, 1, 8, 6, 6, 4, 4, 9, 10, 10, 6, 0]);

suc = [
   {2, 3, 4},
   {16, 52},
   {13, 6, 7},
   {8, 11, 5},
   {28},
   {9},
   {24, 31, 23},
   {12, 20, 39},
   {10, 18, 15},
   {19, 46},
   {37},
   {17, 45, 14},
   {59},
   {44, 22},
   {53},
   {25, 27},
   {54},
   {40},
   {41, 35, 29},
   {26, 21},
   {48},
   {56},
   {33, 50, 30},
   {32, 48},
   {61},
   {27},
   {36},
   {58, 38, 39},
   {56, 36},
   {61},
   {34},
   {47},
   {44},
   {43},
   {61},
   {51},
   {55},
   {40, 42},
   {48},
   {41},
   {49, 50, 53},
   {54},
   {51},
   {51},
   {55},
   {57},
   {52, 53},
   {49},
   {59, 54},
   {59},
   {58},
   {58},
   {55},
   {56},
   {57},
   {57},
   {60},
   {60},
   {62},
   {62},
   {62},
   {  } ];

deadline = array2d(1..62, 1..3, [2, 0, 1, 5, 3, 0, 5, 1, 2, 9, 0, 2, 10, 0, 1, 17, 3, 3, 23, 4, 0, 25, 2, 5, 26, 0, 4, 29, 1, 3, 30, 0, 2, 31, 4, 2, 36, 3, 2, 36, 5, 5, 48, 4, 3, 55, 1, 2, 56, 3, 1, 56, 5, 3, 59, 3, 0, 60, 3, 5, 60, 3, 0, 61, 2, 5, 64, 0, 4, 64, 4, 1, 69, 2, 3, 72, 5, 3, 73, 4, 4, 73, 4, 5, 74, 1, 0, 78, 4, 2, 80, 2, 5, 80, 5, 0, 83, 3, 3, 84, 1, 2, 89, 3, 2, 89, 0, 0, 90, 4, 3, 91, 1, 2, 92, 2, 0, 102, 0, 4, 105, 3, 3, 108, 5, 3, 111, 1, 5, 113, 1, 4, 114, 1, 0, 115, 0, 3, 115, 1, 0, 122, 2, 2, 131, 1, 3, 132, 5, 5, 135, 4, 5, 136, 1, 1, 139, 5, 2, 143, 2, 2, 144, 5, 0, 153, 2, 3, 155, 4, 0, 156, 0, 5, 156, 3, 4, 158, 2, 4, 160, 5, 4, 163, 1, 3]);
