n_res = 4;
rc = [ 20, 16, 16, 18 ];
n_tasks = 62;
d = [0, 8, 6, 8, 3, 1, 10, 6, 8, 10, 7, 8, 4, 6, 1, 4, 5, 3, 4, 1, 5, 5, 6, 4, 8, 2, 5, 3, 4, 1, 2, 1, 6, 2, 5, 2, 2, 5, 7, 10, 9, 5, 4, 2, 5, 2, 1, 1, 6, 6, 4, 6, 3, 1, 10, 7, 8, 1, 6, 1, 7, 0];
rr = array2d(1..4, 1..62, [0, 0, 1, 0, 9, 0, 1, 7, 0, 3, 0, 9, 2, 10, 2, 8, 8, 2, 0, 5, 9, 7, 8, 10, 6, 0, 10, 0, 10, 5, 10, 3, 4, 4, 1, 6, 5, 10, 10, 0, 0, 10, 9, 9, 4, 0, 4, 7, 5, 0, 2, 2, 4, 2, 9, 9, 0, 5, 5, 0, 2, 0, 0, 0, 6, 10, 3, 1, 0, 3, 7, 7, 10, 0, 8, 4, 4, 2, 0, 4, 0, 4, 7, 3, 9, 1, 0, 3, 7, 7, 0, 0, 10, 10, 7, 6, 6, 9, 0, 0, 5, 2, 2, 6, 0, 3, 2, 4, 0, 2, 8, 0, 3, 0, 8, 1, 10, 8, 2, 4, 6, 10, 6, 0, 0, 6, 2, 1, 0, 0, 5, 7, 2, 0, 3, 0, 9, 6, 10, 0, 4, 2, 3, 8, 8, 8, 6, 8, 4, 4, 4, 3, 0, 8, 9, 0, 9, 9, 1, 6, 5, 6, 7, 2, 0, 0, 3, 3, 1, 4, 0, 0, 3, 9, 3, 0, 7, 3, 4, 0, 7, 4, 8, 5, 8, 0, 0, 5, 0, 0, 9, 6, 3, 2, 6, 0, 0, 8, 10, 2, 7, 0, 6, 9, 4, 10, 0, 0, 2, 2, 9, 10, 5, 6, 7, 6, 0, 9, 2, 3, 8, 0, 0, 6, 4, 1, 0, 9, 0, 0, 10, 9, 8, 0, 0, 1, 4, 0, 6, 0, 8, 7, 8, 10, 10, 0, 5, 0]);

suc = [
   {2, 3, 4},
   {24, 9, 11},
   {6},
   {25, 26, 5},
   {32, 13, 7},
   {54, 38, 55},
   {8, 12, 14},
   {56, 52, 46},
   {16, 10, 19},
   {43},
   {44},
   {51, 27, 21},
   {40, 39, 15},
   {22},
   {17, 35, 23},
   {18, 21, 31},
   {33, 20, 30},
   {29, 46, 39},
   {25, 50, 57},
   {41, 60, 49},
   {33, 29},
   {28},
   {48, 45},
   {33, 36},
   {27},
   {48, 34},
   {35},
   {36, 61},
   {40, 43, 47},
   {56, 47, 31},
   {48},
   {38},
   {49},
   {42, 61},
   {41, 37},
   {50, 37, 46},
   {42},
   {58},
   {42},
   {56, 49, 52},
   {59, 43},
   {55},
   {58},
   {45, 54},
   {52},
   {53},
   {50},
   {59, 51},
   {54},
   {59, 55},
   {53},
   {53},
   {57},
   {58},
   {60},
   {57},
   {60},
   {61},
   {62},
   {62},
   {62},
   {  } ];

deadline = array2d(1..62, 1..3, [2, 3, 4, 4, 1, 3, 4, 1, 0, 6, 2, 1, 7, 0, 0, 8, 4, 4, 11, 3, 3, 12, 3, 2, 12, 1, 4, 13, 1, 3, 18, 2, 2, 20, 3, 3, 26, 1, 0, 26, 0, 0, 26, 4, 2, 32, 3, 1, 40, 0, 1, 42, 1, 0, 42, 1, 4, 43, 2, 0, 49, 2, 2, 51, 4, 5, 55, 1, 1, 57, 4, 5, 58, 1, 4, 60, 4, 4, 61, 2, 1, 62, 5, 1, 63, 3, 2, 71, 2, 4, 72, 1, 2, 73, 4, 3, 73, 0, 0, 75, 2, 0, 80, 5, 4, 84, 3, 1, 87, 2, 1, 91, 2, 2, 92, 5, 3, 92, 2, 4, 96, 0, 5, 107, 4, 4, 108, 3, 4, 115, 4, 5, 122, 1, 0, 128, 2, 0, 128, 0, 3, 129, 5, 1, 130, 0, 4, 132, 3, 1, 132, 3, 4, 135, 4, 1, 136, 2, 5, 143, 0, 1, 143, 5, 4, 144, 3, 2, 151, 0, 1, 155, 0, 5, 156, 1, 1, 160, 1, 4, 163, 1, 3, 164, 4, 0]);
