n_res = 4;
rc = [ 79, 73, 65, 60 ];
n_tasks = 62;
d = [0, 10, 3, 10, 2, 5, 8, 7, 7, 9, 8, 9, 1, 7, 10, 3, 8, 6, 4, 2, 5, 8, 9, 10, 5, 5, 2, 9, 10, 10, 9, 2, 8, 8, 6, 7, 10, 6, 4, 4, 1, 9, 8, 5, 10, 10, 2, 2, 7, 8, 3, 4, 2, 3, 5, 6, 10, 8, 4, 6, 9, 0];
rr = array2d(1..4, 1..62, [0, 1, 1, 9, 10, 5, 10, 5, 4, 1, 9, 4, 6, 10, 4, 1, 10, 5, 6, 6, 8, 9, 9, 10, 4, 10, 9, 5, 10, 9, 3, 10, 1, 8, 1, 2, 10, 5, 9, 3, 1, 4, 8, 10, 2, 6, 6, 10, 6, 8, 6, 6, 1, 4, 6, 3, 10, 9, 5, 2, 4, 0, 0, 7, 9, 1, 9, 1, 8, 9, 9, 5, 8, 4, 5, 8, 1, 1, 4, 7, 9, 2, 9, 10, 5, 10, 1, 10, 8, 10, 7, 5, 3, 6, 10, 4, 3, 9, 10, 3, 9, 6, 7, 1, 10, 9, 5, 4, 7, 10, 5, 10, 5, 10, 7, 5, 9, 8, 5, 3, 6, 3, 1, 0, 0, 1, 9, 2, 2, 6, 7, 10, 3, 1, 2, 5, 10, 3, 6, 9, 7, 10, 8, 4, 3, 10, 7, 4, 2, 3, 9, 4, 9, 8, 2, 3, 4, 4, 8, 4, 6, 5, 6, 3, 8, 1, 3, 9, 8, 7, 5, 10, 9, 10, 4, 9, 3, 10, 7, 9, 1, 5, 5, 8, 9, 0, 0, 6, 8, 4, 9, 8, 5, 2, 5, 10, 1, 8, 10, 3, 9, 3, 4, 10, 5, 9, 1, 8, 6, 9, 2, 3, 5, 2, 9, 2, 9, 5, 9, 2, 4, 6, 3, 10, 7, 4, 4, 3, 3, 2, 3, 6, 4, 6, 2, 4, 8, 10, 4, 10, 1, 5, 2, 7, 7, 2, 9, 0]);

suc = [
   {2, 3, 4},
   {9, 5, 15},
   {33, 59},
   {41, 42, 6},
   {10, 7},
   {8, 11, 12},
   {42, 47},
   {16, 28, 38},
   {23},
   {18, 58, 22},
   {26, 14},
   {34, 36, 13},
   {20},
   {58},
   {44, 21},
   {27, 17, 19},
   {24},
   {29},
   {51},
   {43, 29, 31},
   {48},
   {24, 54},
   {25, 51},
   {56},
   {57},
   {37},
   {30},
   {32, 35, 46},
   {40},
   {39},
   {33},
   {44},
   {47},
   {40, 61},
   {56},
   {53},
   {51},
   {46},
   {45},
   {47},
   {50, 52, 45},
   {54},
   {49},
   {45},
   {49, 57},
   {54},
   {50},
   {57},
   {55},
   {60},
   {52},
   {58},
   {55},
   {56, 60},
   {61},
   {59},
   {60},
   {61},
   {62},
   {62},
   {62},
   {  } ];

deadline = array2d(1..62, 1..3, [1, 4, 1, 2, 1, 5, 5, 0, 3, 9, 1, 2, 10, 3, 1, 15, 5, 5, 16, 4, 1, 17, 1, 2, 18, 4, 0, 21, 0, 0, 24, 1, 4, 25, 2, 5, 28, 4, 4, 29, 3, 1, 38, 2, 1, 40, 4, 5, 42, 5, 3, 52, 3, 1, 53, 5, 4, 54, 1, 5, 59, 0, 1, 61, 0, 0, 61, 4, 5, 64, 5, 2, 73, 2, 4, 73, 1, 1, 75, 5, 0, 76, 4, 5, 79, 2, 5, 89, 3, 2, 94, 0, 1, 95, 5, 5, 97, 5, 0, 112, 5, 2, 114, 4, 5, 118, 5, 1, 118, 2, 3, 120, 0, 3, 121, 0, 2, 122, 3, 3, 123, 4, 5, 123, 5, 5, 127, 2, 1, 131, 3, 1, 132, 3, 4, 135, 2, 0, 141, 5, 0, 143, 3, 0, 148, 5, 0, 150, 4, 3, 153, 5, 5, 158, 5, 0, 165, 3, 5, 166, 4, 0, 167, 3, 2, 169, 1, 1, 172, 3, 4, 176, 5, 0, 177, 2, 3, 177, 0, 1, 179, 5, 5, 180, 5, 1]);
