n_res = 4;
rc = [ 41, 40, 45, 39 ];
n_tasks = 62;
d = [0, 4, 6, 2, 7, 3, 7, 9, 8, 3, 1, 9, 2, 1, 3, 7, 9, 8, 2, 1, 6, 5, 6, 5, 9, 1, 8, 9, 2, 10, 4, 7, 3, 7, 2, 9, 4, 6, 8, 1, 3, 10, 3, 5, 6, 10, 10, 2, 7, 3, 7, 2, 7, 2, 2, 10, 4, 7, 2, 3, 3, 0];
rr = array2d(1..4, 1..62, [0, 3, 2, 7, 9, 1, 10, 6, 6, 8, 6, 8, 9, 7, 9, 1, 8, 2, 3, 2, 9, 8, 8, 2, 2, 2, 7, 5, 7, 6, 8, 8, 3, 10, 10, 2, 10, 9, 2, 3, 8, 7, 6, 8, 1, 4, 9, 6, 2, 3, 8, 9, 7, 6, 7, 2, 8, 3, 2, 4, 10, 0, 0, 8, 3, 10, 9, 2, 10, 2, 9, 8, 1, 5, 10, 7, 9, 2, 7, 5, 2, 10, 8, 6, 8, 4, 7, 7, 7, 3, 7, 6, 8, 6, 9, 3, 6, 4, 2, 6, 2, 4, 2, 7, 8, 4, 9, 5, 9, 5, 1, 1, 1, 5, 9, 2, 10, 10, 3, 4, 1, 3, 7, 0, 0, 10, 6, 7, 3, 1, 2, 8, 8, 9, 1, 10, 9, 6, 9, 7, 1, 9, 8, 1, 4, 10, 2, 3, 10, 7, 1, 8, 5, 8, 9, 9, 7, 2, 10, 1, 7, 10, 4, 5, 1, 7, 1, 2, 1, 7, 2, 2, 10, 1, 7, 8, 1, 3, 10, 5, 6, 7, 8, 4, 7, 0, 0, 3, 2, 6, 10, 10, 2, 3, 8, 8, 5, 6, 10, 6, 9, 10, 4, 3, 10, 1, 2, 5, 8, 10, 8, 5, 9, 8, 10, 6, 9, 9, 2, 7, 5, 2, 8, 10, 10, 1, 7, 6, 1, 2, 10, 10, 1, 3, 4, 4, 8, 10, 2, 8, 8, 2, 4, 5, 4, 7, 8, 0]);

suc = [
   {2, 3, 4},
   {11, 5, 6},
   {12, 30, 7},
   {42},
   {8, 18, 21},
   {24, 9, 10},
   {16, 14, 15},
   {56},
   {48, 17, 51},
   {53, 13, 23},
   {25, 26, 34},
   {38},
   {32},
   {20},
   {41, 29},
   {27, 33, 19},
   {46, 28, 36},
   {54},
   {23},
   {48},
   {22},
   {31},
   {36},
   {49, 37, 29},
   {55, 31},
   {45},
   {38},
   {32, 30},
   {55},
   {53},
   {48},
   {47, 39},
   {35},
   {43},
   {40},
   {61},
   {50},
   {50},
   {61},
   {44, 52},
   {56, 52},
   {45},
   {58},
   {45},
   {49, 46},
   {55},
   {60},
   {52},
   {56},
   {53},
   {57},
   {60},
   {59},
   {61},
   {57, 58},
   {59},
   {59},
   {60},
   {62},
   {62},
   {62},
   {  } ];

deadline = array2d(1..62, 1..3, [4, 2, 1, 8, 1, 1, 12, 1, 5, 13, 5, 2, 14, 5, 0, 18, 3, 5, 23, 3, 2, 43, 4, 4, 44, 3, 2, 44, 1, 3, 44, 3, 3, 45, 0, 1, 46, 1, 0, 50, 5, 0, 50, 2, 1, 51, 0, 0, 52, 0, 2, 52, 5, 1, 57, 2, 4, 61, 5, 5, 66, 0, 0, 73, 1, 5, 73, 0, 1, 79, 5, 0, 80, 1, 3, 81, 0, 2, 82, 2, 2, 83, 1, 0, 84, 0, 5, 86, 2, 4, 87, 4, 3, 89, 2, 1, 91, 1, 0, 92, 3, 0, 92, 3, 0, 93, 1, 5, 93, 2, 1, 93, 4, 4, 95, 3, 3, 95, 5, 2, 96, 4, 5, 98, 4, 5, 100, 0, 4, 103, 3, 4, 107, 0, 2, 116, 0, 5, 116, 4, 1, 117, 5, 4, 118, 4, 5, 119, 2, 4, 119, 5, 3, 123, 3, 1, 125, 0, 3, 130, 2, 5, 131, 4, 5, 132, 2, 2, 133, 2, 2, 138, 2, 2, 139, 4, 1, 141, 2, 4, 142, 5, 3, 145, 2, 2]);
