n_res = 4;
rc = [ 22, 19, 22, 21 ];
n_tasks = 62;
d = [0, 7, 1, 5, 5, 6, 2, 10, 3, 4, 1, 9, 1, 1, 9, 3, 7, 9, 10, 8, 6, 3, 3, 4, 6, 3, 9, 9, 1, 1, 5, 8, 6, 3, 7, 6, 6, 3, 5, 9, 3, 7, 2, 7, 9, 2, 2, 2, 1, 8, 2, 6, 10, 1, 4, 3, 8, 4, 10, 2, 10, 0];
rr = array2d(1..4, 1..62, [0, 9, 0, 9, 0, 0, 0, 0, 10, 5, 9, 8, 10, 7, 0, 1, 5, 8, 9, 2, 0, 0, 4, 0, 4, 4, 0, 0, 0, 0, 0, 0, 10, 0, 4, 2, 0, 4, 6, 3, 10, 0, 7, 0, 0, 5, 1, 2, 0, 0, 0, 0, 2, 0, 5, 5, 8, 0, 0, 0, 0, 0, 0, 4, 7, 8, 6, 10, 0, 4, 0, 0, 6, 10, 1, 3, 5, 3, 0, 4, 7, 0, 9, 0, 0, 0, 0, 0, 9, 0, 0, 0, 0, 0, 3, 6, 0, 1, 0, 0, 0, 4, 0, 0, 1, 5, 0, 10, 0, 6, 10, 5, 0, 5, 0, 0, 8, 0, 0, 6, 8, 0, 2, 0, 0, 7, 0, 0, 7, 6, 10, 1, 2, 8, 0, 0, 0, 0, 0, 6, 3, 5, 5, 0, 0, 0, 1, 3, 0, 0, 2, 0, 9, 8, 4, 5, 2, 1, 2, 0, 5, 0, 3, 0, 0, 1, 7, 0, 0, 0, 0, 0, 0, 7, 0, 3, 0, 4, 2, 0, 10, 0, 0, 5, 4, 0, 0, 8, 0, 0, 0, 8, 7, 0, 0, 7, 0, 0, 0, 0, 0, 4, 0, 0, 3, 9, 0, 5, 0, 0, 0, 2, 0, 8, 0, 8, 0, 0, 0, 0, 1, 9, 0, 0, 0, 8, 0, 2, 9, 4, 6, 1, 4, 0, 5, 4, 5, 0, 10, 0, 4, 0, 0, 10, 5, 0, 0, 0]);

suc = [
   {2, 3, 4},
   {12, 14, 7},
   {35, 21},
   {29, 5, 14},
   {16, 17, 6},
   {8, 9, 10},
   {58, 44},
   {11, 13, 15},
   {43, 22},
   {25, 28, 46},
   {31},
   {40, 41, 23},
   {42, 53, 45},
   {19, 37},
   {19, 46},
   {32, 18, 20},
   {48, 34, 47},
   {36},
   {24, 40},
   {48, 30, 31},
   {49, 51, 45},
   {42},
   {33, 37, 30},
   {26, 36},
   {26, 45, 39},
   {27, 38},
   {56, 49},
   {52},
   {36, 52},
   {35},
   {56, 54},
   {44, 60},
   {57, 42, 53},
   {41},
   {57, 51},
   {61},
   {51, 39},
   {41},
   {54},
   {48, 55},
   {50},
   {50, 44},
   {46},
   {47},
   {52},
   {57},
   {54},
   {50, 61},
   {55},
   {60},
   {53, 55},
   {59},
   {56},
   {61},
   {58, 59},
   {58},
   {59},
   {60},
   {62},
   {62},
   {62},
   {  } ];

deadline = array2d(1..62, 1..3, [3, 2, 5, 8, 3, 3, 9, 3, 2, 11, 3, 5, 12, 2, 2, 14, 5, 2, 17, 5, 0, 22, 4, 3, 22, 0, 0, 22, 0, 1, 24, 3, 4, 28, 0, 0, 33, 0, 3, 35, 3, 3, 35, 3, 1, 36, 1, 4, 39, 5, 0, 40, 1, 3, 41, 4, 4, 43, 5, 4, 45, 3, 3, 47, 0, 2, 49, 1, 1, 52, 0, 2, 56, 0, 4, 57, 2, 5, 59, 0, 2, 62, 2, 2, 65, 1, 4, 69, 1, 2, 71, 2, 0, 78, 3, 2, 79, 0, 5, 80, 3, 0, 81, 0, 1, 93, 3, 5, 94, 1, 0, 97, 1, 2, 97, 0, 4, 99, 1, 4, 102, 3, 0, 108, 4, 0, 108, 2, 0, 109, 2, 2, 109, 1, 5, 111, 1, 1, 130, 4, 4, 132, 1, 5, 133, 5, 1, 133, 0, 0, 144, 3, 0, 145, 2, 5, 149, 0, 5, 157, 3, 4, 164, 4, 1, 171, 1, 3, 171, 4, 3, 172, 2, 2, 174, 4, 2, 175, 2, 1, 178, 5, 0, 185, 2, 2]);
