n_res = 4;
rc = [ 80, 61, 50, 59 ];
n_tasks = 62;
d = [0, 1, 6, 8, 8, 1, 3, 9, 7, 7, 5, 8, 2, 7, 1, 6, 2, 3, 7, 8, 10, 2, 7, 5, 7, 7, 5, 9, 10, 4, 5, 1, 1, 2, 6, 1, 3, 5, 4, 4, 9, 6, 10, 9, 8, 2, 4, 2, 6, 1, 1, 9, 10, 1, 2, 8, 10, 7, 1, 3, 6, 0];
rr = array2d(1..4, 1..62, [0, 7, 6, 2, 2, 4, 10, 1, 9, 7, 2, 7, 5, 10, 3, 5, 9, 1, 9, 2, 9, 3, 4, 8, 10, 9, 5, 5, 4, 5, 9, 1, 10, 9, 2, 9, 3, 6, 6, 4, 8, 7, 2, 7, 10, 8, 4, 9, 7, 1, 9, 3, 5, 5, 4, 1, 6, 10, 10, 6, 4, 0, 0, 3, 4, 3, 4, 6, 1, 2, 4, 7, 3, 5, 7, 7, 3, 2, 8, 1, 8, 1, 5, 4, 7, 10, 7, 6, 3, 10, 4, 5, 1, 5, 6, 6, 9, 2, 3, 9, 5, 5, 10, 10, 8, 6, 3, 1, 4, 5, 4, 3, 4, 7, 2, 10, 2, 6, 2, 2, 10, 2, 9, 0, 0, 8, 8, 6, 5, 8, 8, 8, 1, 6, 2, 4, 2, 2, 3, 6, 3, 5, 1, 7, 1, 1, 6, 3, 3, 1, 6, 4, 10, 4, 10, 7, 9, 9, 1, 7, 2, 6, 2, 5, 7, 4, 5, 6, 9, 1, 1, 3, 4, 9, 2, 3, 8, 4, 2, 7, 8, 4, 2, 2, 2, 0, 0, 7, 6, 3, 6, 5, 1, 1, 5, 1, 10, 5, 3, 3, 6, 5, 8, 5, 4, 1, 1, 5, 3, 6, 7, 6, 4, 2, 8, 7, 5, 1, 7, 5, 5, 5, 1, 6, 10, 4, 4, 7, 2, 6, 1, 2, 2, 2, 9, 1, 6, 2, 5, 3, 1, 6, 4, 4, 3, 10, 2, 0]);

suc = [
   {2, 3, 4},
   {11, 5, 39},
   {51},
   {20, 13, 15},
   {6},
   {10, 23, 7},
   {8, 9, 16},
   {31},
   {18, 12, 30},
   {29, 21, 14},
   {35, 52},
   {55},
   {34, 36},
   {17, 19, 22},
   {33, 26, 51},
   {40, 46},
   {37},
   {24, 25, 27},
   {47},
   {31},
   {46},
   {49},
   {44},
   {43},
   {32, 56},
   {44},
   {50, 43, 28},
   {42},
   {45},
   {58},
   {57, 38},
   {37},
   {37},
   {42},
   {36},
   {57},
   {45},
   {56},
   {48, 41, 44},
   {61},
   {55},
   {61, 47},
   {61},
   {53},
   {55},
   {59, 47},
   {52},
   {57},
   {54},
   {52},
   {53},
   {54},
   {56},
   {60},
   {58},
   {58},
   {59, 60},
   {60},
   {62},
   {62},
   {62},
   {  } ];

deadline = array2d(1..62, 1..3, [4, 1, 5, 9, 3, 0, 13, 4, 0, 15, 4, 2, 17, 1, 3, 17, 5, 5, 18, 2, 4, 19, 1, 4, 22, 2, 4, 23, 2, 5, 23, 5, 1, 29, 0, 1, 31, 5, 2, 36, 1, 1, 38, 4, 5, 40, 5, 5, 41, 5, 1, 43, 0, 5, 45, 4, 2, 52, 3, 3, 55, 5, 3, 56, 3, 4, 56, 5, 1, 57, 1, 0, 57, 3, 2, 58, 0, 4, 58, 0, 1, 62, 0, 0, 62, 4, 3, 64, 2, 3, 68, 0, 3, 69, 1, 0, 72, 2, 0, 72, 4, 5, 78, 4, 3, 80, 1, 0, 83, 3, 2, 84, 3, 2, 86, 3, 0, 87, 5, 4, 89, 4, 2, 100, 2, 2, 101, 0, 4, 115, 1, 1, 120, 4, 5, 120, 2, 3, 123, 2, 1, 124, 3, 0, 125, 0, 4, 130, 4, 4, 131, 3, 1, 132, 0, 1, 136, 1, 0, 137, 1, 3, 138, 2, 5, 141, 3, 3, 144, 3, 0, 144, 0, 0, 146, 2, 4, 148, 4, 5, 149, 5, 5, 150, 2, 0]);
