n_res = 4;
rc = [ 15, 15, 16, 15 ];
n_tasks = 62;
d = [0, 10, 5, 4, 1, 5, 10, 3, 8, 10, 3, 8, 3, 3, 5, 1, 2, 1, 4, 9, 2, 9, 5, 1, 2, 3, 10, 7, 9, 8, 6, 2, 2, 4, 10, 1, 8, 2, 8, 5, 8, 3, 10, 3, 8, 2, 6, 7, 3, 10, 8, 10, 7, 3, 10, 10, 4, 5, 9, 1, 8, 0];
rr = array2d(1..4, 1..62, [0, 0, 0, 8, 8, 0, 0, 0, 8, 0, 0, 0, 0, 0, 0, 0, 0, 0, 5, 0, 0, 3, 9, 2, 0, 0, 0, 0, 2, 0, 4, 0, 10, 0, 10, 6, 3, 7, 4, 0, 0, 7, 0, 0, 0, 6, 0, 0, 0, 0, 1, 6, 0, 0, 0, 5, 0, 3, 0, 0, 0, 0, 0, 8, 3, 0, 0, 0, 2, 0, 0, 3, 10, 5, 0, 0, 5, 0, 9, 0, 0, 0, 0, 0, 4, 0, 5, 0, 0, 1, 2, 4, 9, 0, 5, 4, 0, 10, 0, 0, 0, 0, 0, 0, 7, 0, 0, 0, 1, 3, 0, 0, 8, 0, 7, 6, 4, 5, 0, 3, 10, 0, 0, 0, 0, 0, 2, 9, 9, 3, 3, 2, 4, 0, 10, 0, 0, 3, 0, 7, 7, 0, 0, 3, 7, 0, 9, 5, 5, 8, 8, 10, 0, 0, 0, 3, 0, 0, 7, 0, 0, 6, 5, 1, 0, 9, 10, 3, 1, 10, 0, 8, 1, 2, 0, 10, 0, 3, 0, 0, 8, 9, 0, 2, 10, 0, 0, 0, 0, 7, 9, 1, 0, 0, 1, 7, 1, 0, 2, 0, 5, 2, 0, 2, 0, 0, 0, 1, 9, 0, 0, 4, 9, 6, 8, 4, 0, 0, 0, 0, 7, 0, 0, 0, 0, 8, 8, 10, 10, 3, 0, 0, 3, 7, 9, 3, 8, 5, 0, 0, 2, 0, 8, 2, 6, 2, 9, 0]);

suc = [
   {2, 3, 4},
   {54, 6},
   {5, 6, 7},
   {9, 10, 13},
   {22},
   {8, 21, 14},
   {16, 17, 41},
   {40, 11, 28},
   {44},
   {27, 19, 52},
   {12, 20, 15},
   {32},
   {42, 44},
   {26, 37, 47},
   {49, 29},
   {18, 30},
   {25, 23},
   {24, 29},
   {51},
   {33, 22},
   {43, 29, 31},
   {51, 23},
   {45, 38},
   {25, 27},
   {34, 59, 46},
   {36},
   {28, 54, 31},
   {35, 38},
   {50, 46},
   {40, 49, 35},
   {32, 37, 39},
   {48, 35},
   {42, 53},
   {58, 54},
   {58, 45},
   {52},
   {60},
   {49, 44},
   {45},
   {48, 56, 55},
   {50},
   {59, 51, 52},
   {48, 61},
   {55, 47},
   {47},
   {56},
   {53},
   {50},
   {57},
   {57},
   {56},
   {58},
   {57},
   {61},
   {61},
   {60},
   {59},
   {60},
   {62},
   {62},
   {62},
   {  } ];

deadline = array2d(1..62, 1..3, [4, 5, 2, 7, 5, 1, 9, 2, 5, 10, 0, 0, 10, 1, 3, 11, 3, 0, 16, 0, 5, 18, 3, 3, 25, 3, 4, 32, 5, 5, 33, 4, 2, 35, 3, 2, 35, 5, 1, 36, 0, 4, 38, 4, 4, 40, 0, 1, 45, 0, 1, 46, 0, 4, 46, 4, 3, 47, 1, 2, 48, 4, 1, 49, 1, 0, 53, 3, 2, 54, 2, 2, 55, 5, 0, 57, 2, 2, 59, 0, 4, 61, 0, 1, 62, 3, 4, 67, 5, 0, 70, 1, 4, 83, 5, 0, 86, 3, 4, 86, 0, 2, 88, 1, 2, 90, 2, 3, 108, 1, 2, 113, 2, 4, 113, 2, 0, 118, 1, 5, 119, 2, 1, 125, 5, 0, 127, 3, 1, 132, 0, 2, 132, 2, 2, 134, 4, 0, 136, 1, 3, 149, 3, 4, 152, 1, 5, 155, 1, 0, 159, 5, 5, 170, 0, 4, 172, 4, 2, 179, 5, 1, 180, 3, 2, 180, 2, 3, 183, 0, 5, 185, 3, 4, 190, 5, 5, 191, 2, 4, 197, 2, 0, 199, 4, 2]);
