n_res = 4;
rc = [ 19, 18, 17, 19 ];
n_tasks = 62;
d = [0, 5, 7, 8, 7, 4, 9, 9, 4, 4, 2, 9, 7, 7, 1, 1, 5, 9, 10, 2, 6, 4, 2, 9, 6, 10, 8, 4, 3, 2, 4, 4, 4, 1, 1, 7, 5, 4, 6, 8, 7, 2, 6, 5, 3, 4, 8, 4, 6, 4, 4, 8, 3, 5, 1, 1, 1, 9, 7, 3, 6, 0];
rr = array2d(1..4, 1..62, [0, 7, 4, 4, 10, 5, 3, 9, 2, 4, 7, 3, 10, 7, 2, 7, 4, 7, 6, 6, 7, 2, 4, 7, 9, 10, 6, 2, 3, 9, 9, 1, 9, 3, 8, 10, 9, 5, 2, 5, 8, 2, 9, 3, 3, 10, 8, 3, 7, 2, 8, 8, 10, 7, 2, 4, 8, 5, 10, 7, 8, 0, 0, 2, 6, 10, 10, 7, 10, 7, 8, 4, 3, 7, 1, 2, 3, 2, 9, 4, 7, 5, 9, 2, 10, 4, 3, 4, 2, 1, 1, 3, 6, 2, 7, 4, 4, 1, 7, 2, 2, 4, 8, 8, 3, 4, 3, 4, 5, 6, 7, 3, 2, 7, 3, 10, 8, 5, 3, 8, 4, 5, 1, 0, 0, 2, 9, 1, 5, 6, 1, 4, 4, 5, 7, 9, 4, 6, 6, 8, 3, 2, 9, 6, 10, 10, 1, 2, 10, 6, 5, 4, 6, 6, 4, 9, 6, 1, 9, 7, 5, 2, 3, 4, 10, 2, 1, 7, 1, 2, 2, 9, 1, 3, 4, 10, 4, 3, 10, 6, 1, 7, 3, 2, 2, 0, 0, 1, 6, 4, 7, 3, 5, 7, 9, 5, 9, 6, 9, 3, 4, 4, 9, 9, 6, 8, 3, 7, 5, 9, 4, 8, 10, 8, 6, 6, 4, 3, 1, 10, 9, 10, 4, 4, 4, 10, 1, 4, 7, 5, 2, 4, 9, 7, 10, 4, 1, 9, 10, 7, 9, 6, 3, 6, 6, 5, 2, 0]);

suc = [
   {2, 3, 4},
   {8, 5, 6},
   {16, 10},
   {16, 37, 7},
   {28, 37, 30},
   {9, 11, 12},
   {48, 25, 19},
   {35, 54},
   {27, 14, 22},
   {18, 20, 13},
   {17, 26, 14},
   {42, 50, 31},
   {35, 19, 15},
   {16, 18, 20},
   {33, 36, 38},
   {29, 60, 21},
   {40, 21, 47},
   {42, 37, 23},
   {56, 44, 39},
   {31, 38, 23},
   {25, 43, 30},
   {32, 26, 44},
   {24, 57, 34},
   {43, 28, 54},
   {46},
   {33, 50, 41},
   {40, 51, 52},
   {41, 44},
   {38, 49, 30},
   {46},
   {32, 48, 47},
   {33, 53},
   {51},
   {36, 53},
   {57, 42, 39},
   {41, 50, 54},
   {51},
   {40, 43, 46},
   {53},
   {45},
   {55, 47},
   {48, 45},
   {52},
   {45, 55},
   {59},
   {61},
   {49, 52},
   {49},
   {56},
   {55},
   {57, 61},
   {56, 59},
   {58, 59},
   {58},
   {58},
   {61},
   {60},
   {60},
   {62},
   {62},
   {62},
   {  } ];

deadline = array2d(1..62, 1..3, [4, 4, 5, 6, 3, 4, 8, 2, 1, 8, 2, 4, 9, 5, 4, 10, 5, 5, 14, 2, 4, 16, 0, 4, 21, 2, 4, 28, 0, 2, 31, 0, 1, 31, 4, 1, 36, 1, 4, 38, 1, 5, 41, 0, 2, 45, 5, 5, 48, 2, 2, 49, 1, 3, 51, 4, 1, 56, 1, 3, 61, 3, 0, 65, 2, 4, 65, 0, 3, 68, 5, 0, 73, 0, 5, 74, 2, 2, 76, 4, 4, 77, 0, 1, 77, 3, 1, 79, 2, 3, 81, 5, 2, 84, 5, 4, 88, 0, 5, 92, 2, 2, 101, 0, 2, 102, 0, 4, 105, 4, 1, 105, 4, 1, 105, 1, 3, 113, 4, 0, 118, 2, 4, 119, 2, 1, 124, 3, 5, 127, 3, 5, 127, 4, 2, 131, 5, 2, 133, 0, 3, 140, 2, 3, 144, 0, 3, 150, 2, 4, 151, 2, 5, 157, 1, 0, 158, 1, 5, 158, 1, 5, 166, 0, 3, 167, 1, 0, 169, 2, 3, 173, 2, 3, 174, 2, 2, 175, 0, 2, 177, 2, 3, 183, 5, 2]);
