n_res = 4;
rc = [ 14, 22, 12, 16 ];
n_tasks = 62;
d = [0, 2, 7, 4, 10, 2, 7, 5, 6, 4, 9, 6, 10, 10, 9, 6, 10, 1, 2, 10, 7, 8, 8, 10, 7, 6, 7, 9, 6, 9, 6, 6, 2, 10, 4, 3, 2, 9, 2, 8, 5, 7, 5, 8, 8, 7, 10, 4, 2, 6, 7, 6, 10, 10, 10, 2, 1, 10, 7, 1, 8, 0];
rr = array2d(1..4, 1..62, [0, 0, 0, 2, 0, 0, 0, 0, 0, 0, 0, 0, 0, 4, 7, 0, 0, 0, 0, 1, 0, 0, 0, 0, 6, 0, 6, 0, 3, 0, 0, 0, 0, 0, 0, 0, 0, 0, 0, 0, 0, 6, 9, 0, 0, 0, 0, 0, 0, 0, 0, 0, 0, 2, 0, 0, 10, 0, 0, 4, 0, 0, 0, 0, 10, 0, 0, 0, 6, 1, 0, 7, 0, 5, 0, 0, 0, 0, 0, 9, 0, 0, 0, 0, 7, 0, 0, 0, 0, 6, 0, 0, 7, 7, 2, 0, 0, 0, 0, 0, 0, 0, 0, 0, 0, 0, 4, 2, 0, 0, 0, 10, 0, 3, 0, 0, 0, 0, 0, 0, 2, 0, 0, 0, 0, 0, 0, 0, 4, 8, 0, 0, 8, 0, 0, 0, 0, 0, 0, 7, 0, 0, 0, 0, 3, 1, 0, 2, 0, 1, 0, 0, 0, 0, 0, 0, 0, 0, 0, 2, 5, 0, 7, 2, 5, 0, 0, 0, 0, 0, 5, 0, 0, 0, 0, 0, 0, 0, 0, 9, 0, 1, 0, 0, 9, 0, 0, 9, 0, 0, 0, 0, 0, 0, 0, 0, 2, 0, 9, 0, 0, 0, 6, 0, 3, 0, 0, 0, 0, 0, 0, 0, 0, 0, 0, 10, 0, 0, 0, 7, 5, 0, 0, 5, 0, 0, 0, 0, 0, 4, 0, 0, 0, 3, 9, 0, 1, 0, 2, 0, 5, 0, 0, 0, 0, 0, 0, 0]);

suc = [
   {2, 3, 4},
   {56, 17, 55},
   {20, 5},
   {40, 6, 15},
   {8, 9, 7},
   {39},
   {10, 11, 34},
   {32, 53, 22},
   {41, 27, 14},
   {24, 13, 31},
   {32, 18, 12},
   {16, 29, 38},
   {22},
   {19, 30, 23},
   {21},
   {50},
   {43, 28, 45},
   {48, 60, 39},
   {50},
   {33, 38, 41},
   {26, 42},
   {49},
   {25, 39},
   {44, 30},
   {45},
   {48, 30},
   {35, 28},
   {48, 29},
   {57},
   {32, 53},
   {33},
   {35, 36, 46},
   {51, 37},
   {44, 45},
   {37},
   {58},
   {56, 52, 47},
   {52},
   {51, 43},
   {44, 55},
   {43},
   {49, 50},
   {47},
   {54},
   {49},
   {56, 52, 47},
   {57, 54},
   {53},
   {51},
   {59},
   {57},
   {54, 55},
   {58, 61},
   {58, 61},
   {60},
   {60},
   {61},
   {59},
   {62},
   {62},
   {62},
   {  } ];

deadline = array2d(1..62, 1..3, [3, 1, 3, 4, 2, 0, 5, 3, 0, 12, 0, 3, 21, 4, 1, 22, 2, 4, 22, 5, 4, 32, 1, 4, 32, 4, 4, 36, 4, 4, 36, 2, 3, 41, 3, 4, 47, 4, 5, 48, 2, 5, 65, 2, 3, 67, 1, 0, 68, 3, 4, 73, 4, 3, 74, 3, 5, 77, 2, 0, 83, 4, 3, 84, 3, 5, 85, 3, 0, 87, 3, 1, 91, 5, 4, 101, 2, 0, 104, 5, 0, 104, 2, 0, 115, 4, 0, 118, 1, 4, 118, 5, 1, 119, 2, 5, 125, 4, 0, 126, 1, 5, 135, 5, 3, 151, 5, 4, 152, 1, 2, 154, 4, 5, 169, 3, 0, 170, 2, 4, 173, 1, 3, 174, 3, 1, 176, 2, 3, 176, 4, 2, 177, 4, 2, 178, 2, 3, 186, 4, 3, 196, 2, 2, 197, 5, 0, 203, 3, 4, 204, 4, 0, 213, 0, 4, 216, 0, 4, 225, 0, 0, 229, 0, 0, 231, 5, 2, 232, 3, 4, 232, 5, 1, 234, 0, 4, 234, 3, 2, 234, 0, 5, 234, 4, 1]);
