n_res = 4;
rc = [ 40, 23, 18, 12 ];
n_tasks = 62;
d = [0, 7, 1, 5, 6, 3, 2, 4, 9, 3, 6, 9, 7, 6, 5, 1, 10, 6, 9, 3, 4, 5, 2, 6, 5, 1, 1, 9, 2, 1, 6, 8, 8, 7, 8, 8, 7, 8, 5, 9, 8, 10, 5, 1, 3, 5, 9, 8, 4, 3, 4, 9, 8, 10, 6, 5, 1, 3, 7, 3, 8, 0];
rr = array2d(1..4, 1..62, [0, 0, 6, 0, 6, 4, 8, 0, 3, 8, 0, 0, 0, 9, 0, 0, 0, 0, 7, 0, 0, 7, 0, 0, 2, 0, 0, 6, 7, 0, 8, 6, 0, 0, 0, 3, 6, 7, 1, 0, 0, 0, 0, 6, 3, 0, 0, 0, 0, 0, 5, 4, 6, 0, 0, 0, 0, 0, 0, 10, 0, 0, 0, 0, 0, 0, 0, 0, 0, 7, 0, 0, 4, 0, 0, 0, 0, 0, 10, 0, 0, 3, 7, 0, 6, 0, 0, 0, 0, 0, 0, 7, 0, 0, 0, 3, 0, 0, 0, 0, 0, 10, 4, 0, 0, 0, 0, 10, 0, 0, 5, 5, 0, 0, 0, 4, 0, 0, 0, 8, 2, 0, 1, 0, 0, 0, 0, 0, 0, 0, 0, 0, 0, 0, 0, 0, 0, 0, 0, 2, 0, 5, 0, 0, 0, 0, 0, 5, 0, 0, 0, 0, 0, 0, 0, 0, 9, 0, 4, 0, 0, 0, 0, 0, 0, 0, 0, 0, 0, 0, 7, 0, 0, 0, 0, 0, 0, 0, 3, 0, 0, 0, 0, 0, 0, 0, 0, 9, 0, 3, 0, 0, 0, 0, 0, 0, 0, 1, 2, 0, 10, 0, 0, 0, 0, 0, 0, 0, 0, 0, 0, 8, 6, 0, 0, 0, 0, 0, 0, 0, 0, 0, 0, 0, 0, 0, 0, 1, 5, 0, 0, 0, 0, 4, 0, 0, 0, 0, 0, 0, 0, 3, 3, 0, 0, 0, 0, 0]);

suc = [
   {2, 3, 4},
   {24, 18, 12},
   {17, 5, 14},
   {8, 9, 11},
   {15, 6, 7},
   {58, 36, 13},
   {8, 25, 32},
   {40, 10, 45},
   {51, 29, 23},
   {42, 20, 60},
   {12, 52, 39},
   {48, 22, 15},
   {16, 19, 21},
   {16, 36, 29},
   {45},
   {25, 22, 30},
   {28, 30, 55},
   {34, 27, 30},
   {24, 57, 35},
   {26, 29},
   {24, 40, 39},
   {49, 43, 44},
   {58, 61, 47},
   {34, 55},
   {50, 37, 38},
   {51},
   {35, 36, 46},
   {32, 31},
   {50, 46},
   {32, 41},
   {40, 33, 34},
   {42, 52, 47},
   {41, 37, 46},
   {37},
   {38, 39},
   {44, 45, 54},
   {43, 44},
   {48, 53, 47},
   {50, 53},
   {41, 51},
   {42},
   {43, 54},
   {56},
   {56, 60},
   {53},
   {48, 58},
   {49, 60},
   {49},
   {59},
   {61},
   {52, 54},
   {57},
   {55},
   {57},
   {56},
   {61},
   {59},
   {59},
   {62},
   {62},
   {62},
   {  } ];

deadline = array2d(1..62, 1..3, [3, 0, 5, 7, 3, 4, 8, 5, 4, 8, 3, 4, 13, 3, 2, 13, 4, 5, 17, 2, 1, 22, 4, 3, 24, 5, 4, 25, 5, 5, 25, 1, 0, 33, 3, 3, 34, 4, 0, 36, 3, 1, 40, 2, 3, 41, 3, 0, 48, 1, 2, 54, 1, 0, 59, 5, 3, 59, 0, 4, 59, 0, 1, 64, 3, 4, 67, 1, 4, 69, 5, 1, 73, 1, 1, 78, 5, 5, 83, 5, 3, 86, 4, 4, 88, 4, 0, 88, 3, 0, 88, 2, 4, 88, 2, 5, 93, 4, 0, 95, 0, 3, 98, 5, 4, 101, 2, 1, 102, 5, 0, 104, 0, 4, 108, 1, 1, 111, 3, 0, 113, 2, 4, 113, 5, 4, 116, 2, 1, 123, 2, 1, 125, 5, 5, 126, 3, 1, 129, 1, 2, 130, 0, 5, 130, 2, 1, 132, 5, 3, 137, 1, 0, 138, 0, 2, 139, 2, 1, 141, 0, 0, 143, 5, 3, 144, 4, 5, 145, 5, 5, 161, 3, 3, 165, 5, 1, 172, 5, 5, 172, 5, 2, 175, 2, 0]);
