n_res = 4;
rc = [ 18, 14, 20, 16 ];
n_tasks = 62;
d = [0, 5, 4, 4, 8, 8, 2, 7, 5, 2, 8, 1, 6, 7, 1, 6, 1, 3, 1, 6, 1, 9, 3, 5, 7, 6, 9, 10, 7, 10, 2, 3, 9, 9, 2, 5, 8, 8, 9, 5, 1, 6, 3, 10, 10, 1, 8, 6, 10, 8, 5, 2, 2, 8, 5, 9, 10, 8, 4, 5, 4, 0];
rr = array2d(1..4, 1..62, [0, 4, 10, 6, 0, 6, 0, 6, 0, 9, 0, 0, 1, 6, 5, 0, 10, 8, 10, 0, 4, 1, 0, 8, 1, 0, 7, 0, 1, 5, 2, 9, 3, 10, 0, 0, 0, 8, 0, 5, 0, 2, 0, 1, 8, 0, 0, 0, 5, 2, 0, 3, 2, 5, 0, 6, 0, 5, 6, 2, 0, 0, 0, 0, 1, 0, 0, 1, 0, 0, 7, 0, 0, 4, 0, 0, 10, 5, 9, 10, 0, 0, 0, 10, 0, 2, 0, 10, 5, 0, 0, 0, 0, 5, 6, 0, 8, 2, 10, 0, 0, 0, 8, 0, 4, 5, 0, 2, 0, 8, 0, 0, 0, 4, 0, 0, 10, 0, 2, 0, 0, 9, 0, 0, 0, 0, 0, 0, 0, 10, 0, 0, 10, 0, 7, 0, 8, 0, 0, 6, 0, 0, 7, 3, 5, 6, 8, 6, 0, 0, 0, 10, 4, 2, 0, 10, 0, 10, 6, 0, 4, 0, 2, 0, 5, 7, 0, 0, 6, 9, 0, 1, 0, 5, 1, 0, 0, 0, 9, 6, 9, 5, 0, 0, 9, 0, 0, 2, 0, 0, 5, 0, 4, 0, 9, 10, 0, 0, 8, 0, 6, 0, 4, 8, 0, 1, 0, 0, 5, 0, 4, 1, 2, 8, 2, 0, 0, 0, 0, 3, 2, 0, 0, 0, 0, 0, 0, 0, 10, 5, 4, 4, 7, 3, 7, 0, 0, 0, 0, 0, 0, 6, 0, 0, 0, 0, 3, 0]);

suc = [
   {2, 3, 4},
   {45, 5},
   {15, 31, 7},
   {8, 18, 23},
   {52, 6},
   {32, 21},
   {16, 37, 39},
   {9, 10, 11},
   {26, 14},
   {34, 12},
   {13},
   {27, 38},
   {44},
   {19},
   {24, 60},
   {17, 22},
   {38},
   {41, 27, 20},
   {33},
   {46},
   {42, 35, 28},
   {49, 44, 29},
   {38},
   {25},
   {32, 50, 47},
   {42},
   {30, 47},
   {56},
   {41, 36},
   {37},
   {42, 37},
   {53},
   {54},
   {58},
   {43, 36},
   {40},
   {55},
   {45},
   {56},
   {59},
   {57},
   {48},
   {55, 47},
   {50},
   {46},
   {51},
   {61},
   {58},
   {57},
   {57},
   {61},
   {59},
   {59},
   {56, 55},
   {58},
   {60},
   {61},
   {60},
   {62},
   {62},
   {62},
   {  } ];

deadline = array2d(1..62, 1..3, [1, 1, 4, 2, 0, 3, 6, 2, 4, 9, 2, 1, 9, 3, 2, 11, 1, 5, 14, 4, 4, 14, 2, 5, 14, 5, 0, 15, 0, 2, 19, 2, 1, 21, 2, 1, 23, 2, 3, 23, 3, 0, 23, 4, 4, 25, 2, 1, 25, 2, 4, 26, 3, 5, 32, 0, 2, 39, 5, 0, 41, 3, 1, 45, 4, 2, 46, 1, 1, 46, 1, 5, 49, 0, 5, 52, 3, 2, 54, 3, 0, 61, 0, 3, 61, 2, 2, 63, 3, 3, 67, 4, 3, 72, 4, 2, 76, 4, 5, 76, 3, 2, 77, 2, 4, 84, 2, 4, 87, 2, 3, 89, 2, 0, 94, 0, 5, 96, 4, 3, 96, 5, 1, 96, 4, 1, 113, 4, 3, 114, 2, 3, 117, 4, 3, 118, 4, 4, 122, 0, 2, 122, 4, 5, 126, 3, 5, 130, 3, 2, 135, 2, 4, 135, 0, 0, 137, 4, 2, 137, 3, 2, 139, 5, 3, 140, 2, 4, 140, 1, 2, 141, 4, 1, 141, 0, 3, 142, 3, 4, 145, 0, 3, 146, 0, 2]);
