n_res = 4;
rc = [ 35, 35, 34, 32 ];
n_tasks = 62;
d = [0, 6, 9, 8, 10, 2, 4, 2, 1, 7, 7, 9, 7, 9, 8, 4, 8, 1, 7, 10, 1, 3, 2, 7, 4, 7, 10, 10, 6, 5, 3, 1, 2, 7, 3, 3, 4, 8, 1, 9, 8, 7, 2, 5, 10, 10, 3, 2, 4, 1, 4, 5, 5, 9, 5, 2, 4, 6, 10, 5, 7, 0];
rr = array2d(1..4, 1..62, [0, 5, 4, 7, 4, 8, 1, 6, 8, 3, 2, 7, 3, 1, 9, 8, 9, 8, 7, 2, 10, 10, 10, 3, 8, 4, 10, 3, 6, 6, 5, 2, 8, 9, 6, 4, 10, 2, 3, 5, 4, 1, 6, 5, 3, 3, 10, 9, 9, 4, 8, 3, 3, 10, 10, 4, 7, 2, 3, 5, 3, 0, 0, 3, 10, 9, 2, 10, 4, 10, 3, 9, 9, 3, 7, 4, 10, 10, 7, 6, 1, 6, 3, 4, 4, 9, 7, 3, 8, 4, 3, 3, 3, 8, 1, 9, 7, 3, 10, 6, 8, 8, 5, 5, 1, 6, 3, 5, 5, 10, 5, 3, 9, 9, 1, 1, 4, 7, 10, 4, 5, 1, 5, 0, 0, 3, 7, 2, 2, 8, 8, 8, 3, 8, 8, 5, 4, 8, 10, 7, 9, 1, 8, 5, 6, 2, 4, 4, 1, 4, 8, 9, 6, 3, 5, 7, 1, 5, 1, 8, 5, 2, 10, 3, 6, 4, 3, 2, 6, 7, 3, 3, 1, 5, 6, 8, 6, 6, 7, 7, 2, 8, 6, 1, 9, 0, 0, 5, 2, 9, 8, 4, 4, 9, 8, 1, 10, 6, 10, 2, 8, 6, 10, 6, 8, 6, 7, 7, 2, 2, 3, 9, 2, 3, 3, 8, 10, 8, 9, 7, 4, 3, 5, 8, 3, 7, 6, 8, 3, 3, 10, 3, 4, 10, 7, 9, 3, 7, 10, 4, 2, 8, 10, 5, 2, 7, 7, 0]);

suc = [
   {2, 3, 4},
   {49, 10, 26},
   {17, 5, 6},
   {8, 26, 6},
   {39, 22, 7},
   {34, 13, 15},
   {34},
   {9, 50, 13},
   {11, 20, 15},
   {33, 47, 41},
   {43, 12, 30},
   {35, 19, 14},
   {16, 18, 19},
   {42, 36, 53},
   {27, 53, 46},
   {42, 46, 23},
   {25, 50, 20},
   {57, 27, 21},
   {33, 49, 31},
   {48, 36, 38},
   {24, 35, 28},
   {34, 58, 37},
   {43, 39, 31},
   {37, 29, 31},
   {26, 35, 30},
   {42, 38, 47},
   {38},
   {33, 37, 29},
   {30},
   {32, 52},
   {32, 36, 45},
   {56, 44},
   {39},
   {48, 51},
   {40, 49, 47},
   {51},
   {40, 60, 45},
   {43, 44, 55},
   {44, 55},
   {46},
   {57, 50, 52},
   {57, 61, 45},
   {56, 59},
   {60},
   {48},
   {51},
   {54},
   {59},
   {54},
   {61},
   {61},
   {53},
   {54, 55},
   {58},
   {56},
   {58},
   {59},
   {60},
   {62},
   {62},
   {62},
   {  } ];

deadline = array2d(1..62, 1..3, [3, 3, 2, 4, 1, 1, 6, 3, 4, 17, 4, 2, 19, 3, 1, 19, 3, 5, 20, 2, 1, 24, 5, 1, 26, 2, 3, 30, 4, 5, 32, 3, 1, 32, 1, 0, 36, 1, 3, 38, 4, 5, 47, 5, 1, 48, 3, 2, 49, 0, 2, 54, 5, 3, 69, 4, 5, 71, 0, 0, 71, 1, 3, 77, 5, 2, 79, 0, 2, 81, 2, 2, 85, 5, 3, 87, 3, 5, 90, 0, 5, 93, 1, 1, 97, 1, 3, 98, 5, 0, 98, 0, 5, 104, 0, 3, 105, 5, 3, 109, 5, 2, 114, 1, 1, 118, 3, 3, 119, 3, 1, 120, 0, 3, 120, 0, 1, 123, 2, 0, 124, 2, 3, 125, 1, 4, 129, 5, 3, 129, 1, 3, 132, 2, 3, 132, 3, 2, 133, 5, 2, 141, 5, 4, 144, 3, 5, 147, 0, 1, 147, 1, 3, 147, 0, 2, 153, 4, 5, 154, 4, 5, 155, 2, 4, 155, 0, 5, 159, 2, 3, 163, 0, 0, 164, 2, 2, 166, 2, 2, 171, 3, 1, 177, 2, 0]);
