n_res = 4;
rc = [ 13, 12, 11, 13 ];
n_tasks = 62;
d = [0, 6, 1, 10, 7, 6, 6, 4, 4, 3, 10, 5, 6, 9, 1, 7, 5, 1, 5, 7, 4, 8, 4, 4, 10, 3, 2, 7, 10, 10, 3, 8, 9, 9, 8, 5, 3, 7, 2, 5, 5, 5, 9, 10, 7, 10, 4, 5, 1, 5, 1, 4, 10, 2, 10, 4, 6, 3, 8, 10, 10, 0];
rr = array2d(1..4, 1..62, [0, 0, 0, 0, 7, 0, 4, 0, 0, 0, 0, 0, 0, 2, 3, 0, 0, 0, 0, 0, 0, 0, 0, 9, 2, 0, 0, 0, 0, 0, 0, 0, 0, 6, 0, 0, 4, 0, 0, 3, 0, 0, 8, 7, 0, 0, 10, 0, 0, 0, 0, 1, 0, 9, 0, 0, 0, 0, 0, 0, 0, 0, 0, 0, 8, 0, 0, 0, 0, 3, 6, 0, 0, 0, 10, 0, 0, 0, 8, 6, 8, 0, 0, 0, 0, 0, 0, 0, 0, 0, 1, 0, 0, 0, 0, 0, 8, 0, 0, 0, 0, 0, 0, 5, 0, 0, 0, 3, 0, 0, 0, 10, 6, 0, 0, 0, 0, 0, 0, 0, 0, 0, 4, 0, 0, 0, 0, 8, 0, 0, 0, 0, 0, 4, 9, 0, 0, 0, 0, 0, 0, 0, 0, 5, 7, 0, 0, 0, 0, 9, 4, 0, 0, 4, 1, 4, 4, 0, 0, 0, 0, 0, 7, 0, 8, 0, 0, 0, 0, 0, 0, 4, 9, 0, 0, 0, 0, 0, 7, 0, 1, 0, 10, 0, 0, 0, 0, 3, 0, 0, 0, 9, 0, 0, 0, 0, 0, 4, 0, 0, 0, 1, 0, 0, 0, 0, 0, 7, 5, 0, 0, 0, 0, 10, 0, 0, 0, 0, 0, 0, 0, 4, 0, 5, 0, 0, 0, 0, 0, 0, 6, 0, 0, 0, 0, 0, 0, 0, 6, 0, 0, 3, 0, 6, 0, 7, 0, 0]);

suc = [
   {2, 3, 4},
   {10, 5, 7},
   {16, 33, 45},
   {9, 11, 14},
   {12, 6, 14},
   {16, 24, 30},
   {8, 33, 48},
   {41, 34, 45},
   {25, 19, 15},
   {24, 21, 13},
   {12, 53, 31},
   {20, 37, 39},
   {18, 35, 58},
   {18, 22, 47},
   {17, 31, 23},
   {17},
   {18, 43, 46},
   {26, 28, 39},
   {35, 20, 31},
   {23},
   {32, 40, 48},
   {26, 34, 44},
   {32, 48, 27},
   {42, 37},
   {41, 42, 38},
   {40, 36, 54},
   {50, 44, 29},
   {36, 60},
   {33},
   {40, 56, 37},
   {51},
   {49, 38, 47},
   {34, 43, 58},
   {36, 61},
   {43, 55, 39},
   {38},
   {44, 45, 46},
   {52},
   {60},
   {52},
   {57, 50, 53},
   {53, 46},
   {56, 51},
   {58},
   {51, 54, 47},
   {49, 52},
   {59},
   {49, 50, 57},
   {55},
   {54},
   {57},
   {55},
   {56},
   {59},
   {59},
   {60},
   {61},
   {61},
   {62},
   {62},
   {62},
   {  } ];

deadline = array2d(1..62, 1..3, [12, 5, 5, 13, 2, 5, 18, 0, 0, 22, 3, 5, 22, 5, 5, 23, 5, 0, 24, 2, 1, 26, 0, 2, 27, 4, 3, 37, 0, 3, 40, 5, 4, 50, 2, 2, 51, 4, 2, 56, 5, 3, 73, 2, 4, 74, 3, 4, 79, 3, 5, 85, 0, 5, 85, 0, 0, 89, 3, 2, 104, 2, 2, 112, 5, 3, 114, 2, 5, 116, 4, 4, 119, 2, 1, 133, 2, 3, 136, 2, 4, 139, 3, 2, 140, 4, 5, 150, 4, 2, 152, 0, 2, 153, 5, 2, 153, 1, 0, 155, 1, 3, 157, 4, 2, 158, 2, 0, 162, 5, 4, 167, 3, 2, 169, 4, 5, 172, 5, 0, 175, 2, 3, 178, 2, 1, 179, 5, 1, 179, 4, 4, 181, 3, 2, 182, 0, 1, 192, 2, 5, 197, 2, 1, 199, 4, 1, 201, 4, 4, 208, 3, 2, 213, 3, 0, 216, 0, 0, 219, 5, 2, 220, 4, 5, 222, 0, 3, 226, 4, 5, 231, 3, 3, 231, 5, 2, 234, 2, 2, 238, 5, 2, 242, 3, 1]);
