n_res = 4;
rc = [ 17, 16, 15, 22 ];
n_tasks = 62;
d = [0, 3, 9, 4, 4, 2, 2, 1, 1, 1, 7, 2, 6, 1, 1, 4, 9, 9, 3, 1, 7, 6, 7, 5, 9, 1, 4, 9, 4, 10, 8, 1, 10, 1, 3, 4, 10, 8, 4, 7, 4, 10, 5, 1, 5, 4, 1, 1, 8, 3, 10, 8, 6, 3, 8, 9, 5, 10, 8, 10, 6, 0];
rr = array2d(1..4, 1..62, [0, 0, 5, 3, 0, 8, 10, 0, 2, 0, 0, 7, 0, 7, 8, 0, 0, 0, 0, 1, 0, 9, 0, 2, 9, 7, 0, 0, 1, 9, 0, 0, 7, 6, 1, 0, 1, 6, 10, 0, 10, 3, 0, 10, 0, 0, 7, 2, 9, 2, 0, 0, 0, 0, 9, 0, 0, 8, 0, 4, 0, 0, 0, 0, 10, 1, 0, 0, 0, 2, 4, 10, 10, 0, 0, 4, 0, 6, 0, 8, 0, 0, 0, 3, 0, 4, 0, 9, 0, 3, 0, 0, 0, 0, 0, 0, 0, 0, 7, 0, 0, 4, 0, 4, 0, 0, 7, 5, 0, 0, 4, 0, 2, 0, 9, 0, 0, 0, 0, 0, 7, 0, 1, 0, 0, 10, 0, 0, 7, 5, 7, 0, 10, 2, 0, 0, 8, 9, 0, 2, 8, 2, 0, 0, 0, 7, 0, 0, 0, 9, 0, 0, 0, 0, 1, 0, 0, 0, 3, 1, 0, 0, 5, 3, 8, 10, 8, 2, 0, 0, 3, 9, 0, 10, 0, 4, 0, 0, 0, 0, 5, 9, 0, 0, 7, 0, 0, 8, 0, 0, 0, 2, 8, 0, 0, 3, 10, 9, 3, 0, 4, 0, 0, 0, 7, 6, 4, 6, 2, 9, 1, 6, 9, 5, 2, 1, 0, 7, 0, 10, 0, 0, 9, 4, 0, 5, 0, 9, 7, 8, 8, 0, 7, 0, 8, 0, 5, 8, 0, 5, 1, 9, 1, 0, 5, 0, 0, 0]);

suc = [
   {2, 3, 4},
   {17, 5},
   {8, 6, 15},
   {9, 19, 22},
   {18, 20},
   {11, 13, 7},
   {21},
   {10, 12, 14},
   {16, 26, 47},
   {24},
   {58, 20},
   {37, 31},
   {23},
   {51, 28, 52},
   {42},
   {25, 60},
   {52},
   {57, 50},
   {32, 29},
   {47, 31},
   {35},
   {34, 27},
   {49, 36},
   {29, 30, 39},
   {48},
   {57},
   {32},
   {30},
   {41},
   {54},
   {34, 44, 53},
   {33},
   {59},
   {45},
   {43, 44},
   {46, 38},
   {41},
   {56},
   {40},
   {59},
   {52, 45},
   {55},
   {47},
   {60},
   {57},
   {61},
   {55},
   {53},
   {53},
   {54},
   {58, 60},
   {56},
   {54},
   {55},
   {56},
   {61},
   {59},
   {61},
   {62},
   {62},
   {62},
   {  } ];

deadline = array2d(1..62, 1..3, [3, 2, 3, 7, 2, 5, 7, 1, 2, 9, 4, 2, 11, 3, 3, 13, 1, 2, 13, 2, 2, 13, 4, 1, 18, 3, 3, 19, 2, 2, 27, 0, 2, 28, 4, 2, 36, 5, 4, 37, 2, 0, 42, 4, 5, 42, 3, 5, 43, 0, 4, 44, 2, 2, 48, 3, 5, 48, 2, 1, 57, 5, 4, 59, 0, 2, 59, 1, 0, 64, 3, 1, 69, 5, 4, 70, 2, 4, 74, 2, 3, 75, 5, 5, 75, 2, 4, 77, 2, 5, 80, 1, 1, 81, 1, 0, 84, 1, 1, 86, 5, 0, 90, 4, 5, 92, 5, 4, 95, 0, 1, 101, 5, 2, 101, 4, 3, 102, 5, 3, 110, 2, 2, 113, 4, 2, 117, 5, 5, 121, 0, 0, 123, 1, 3, 126, 1, 0, 126, 5, 2, 127, 5, 2, 128, 3, 1, 129, 0, 0, 129, 2, 5, 132, 0, 4, 134, 1, 5, 136, 2, 1, 139, 0, 3, 142, 4, 2, 147, 0, 5, 147, 0, 5, 151, 4, 0, 155, 0, 2, 158, 4, 3, 160, 4, 3]);
