n_res = 4;
rc = [ 22, 18, 19, 22 ];
n_tasks = 62;
d = [0, 5, 1, 10, 5, 10, 8, 3, 8, 2, 7, 8, 2, 2, 10, 5, 5, 7, 10, 6, 4, 9, 4, 9, 1, 10, 7, 3, 6, 4, 3, 5, 2, 7, 2, 3, 10, 8, 6, 9, 4, 9, 7, 4, 7, 5, 5, 8, 3, 7, 5, 7, 10, 7, 3, 9, 6, 9, 6, 1, 4, 0];
rr = array2d(1..4, 1..62, [0, 10, 4, 5, 9, 4, 5, 6, 2, 5, 3, 9, 5, 10, 9, 7, 6, 8, 2, 4, 3, 9, 10, 8, 10, 9, 4, 7, 10, 4, 5, 5, 4, 7, 7, 3, 5, 9, 9, 8, 10, 2, 10, 4, 6, 1, 6, 9, 3, 4, 3, 7, 6, 8, 2, 4, 2, 6, 1, 3, 9, 0, 0, 3, 1, 5, 9, 2, 3, 9, 2, 7, 6, 8, 8, 5, 5, 8, 7, 6, 3, 5, 6, 3, 7, 2, 10, 3, 6, 4, 2, 6, 10, 6, 7, 10, 10, 10, 8, 1, 4, 2, 4, 2, 1, 2, 3, 8, 2, 5, 1, 4, 1, 3, 9, 9, 2, 1, 8, 2, 3, 8, 3, 0, 0, 2, 9, 1, 1, 7, 1, 6, 1, 5, 3, 10, 1, 9, 9, 1, 10, 4, 8, 2, 1, 1, 9, 9, 3, 6, 10, 8, 1, 5, 9, 1, 2, 6, 8, 2, 2, 4, 7, 5, 10, 5, 3, 9, 1, 10, 1, 10, 2, 8, 9, 10, 1, 8, 5, 6, 7, 5, 7, 9, 3, 0, 0, 6, 6, 9, 8, 4, 10, 6, 5, 1, 6, 9, 7, 1, 5, 9, 3, 8, 9, 4, 9, 6, 2, 8, 2, 6, 3, 3, 8, 10, 2, 10, 6, 3, 10, 1, 3, 8, 6, 6, 10, 9, 7, 1, 6, 10, 7, 1, 5, 6, 10, 10, 10, 8, 7, 7, 8, 10, 9, 7, 2, 0]);

suc = [
   {2, 3, 4},
   {8, 53, 5},
   {17, 11, 47},
   {24, 13, 15},
   {9, 6, 7},
   {49, 18, 12},
   {42, 45, 14},
   {40, 26, 56},
   {10, 21, 23},
   {16, 14, 22},
   {35, 28, 36},
   {32, 34, 31},
   {26, 19},
   {56, 49, 44},
   {41, 58},
   {40, 25},
   {52},
   {20, 29, 39},
   {57, 21},
   {50, 36, 47},
   {36, 29},
   {33},
   {27, 37, 46},
   {45},
   {50, 30},
   {34, 28, 38},
   {42, 28, 29},
   {49},
   {54},
   {57, 37},
   {43},
   {33},
   {59},
   {41, 37},
   {53},
   {41},
   {55},
   {58},
   {40},
   {48, 43},
   {60},
   {44, 47},
   {57, 54},
   {60},
   {48},
   {48},
   {56, 51, 54},
   {50, 51},
   {60},
   {52, 55},
   {52},
   {59},
   {55},
   {58},
   {61},
   {61},
   {59},
   {61},
   {62},
   {62},
   {62},
   {  } ];

deadline = array2d(1..62, 1..3, [1, 2, 2, 3, 3, 2, 5, 5, 0, 7, 0, 3, 9, 5, 4, 10, 3, 4, 10, 3, 5, 12, 5, 1, 17, 2, 5, 18, 3, 5, 18, 1, 5, 20, 0, 1, 22, 3, 5, 22, 3, 3, 36, 3, 3, 45, 3, 5, 45, 0, 0, 45, 2, 4, 47, 3, 4, 47, 0, 4, 50, 2, 0, 54, 2, 5, 54, 0, 0, 62, 2, 1, 63, 4, 1, 66, 4, 0, 67, 3, 4, 73, 4, 3, 74, 2, 3, 77, 2, 0, 82, 5, 4, 83, 1, 5, 85, 4, 0, 88, 3, 1, 89, 1, 4, 89, 5, 4, 90, 5, 0, 91, 2, 0, 94, 3, 0, 101, 1, 4, 101, 5, 3, 105, 3, 3, 107, 4, 0, 109, 4, 1, 112, 2, 4, 122, 5, 0, 123, 0, 5, 128, 1, 0, 134, 1, 4, 135, 3, 4, 137, 1, 3, 137, 0, 5, 140, 5, 2, 141, 1, 0, 150, 5, 0, 153, 0, 5, 155, 1, 1, 161, 1, 2, 165, 4, 4, 166, 1, 0, 168, 4, 0, 170, 3, 5]);
