n_res = 4;
rc = [ 15, 16, 18, 18 ];
n_tasks = 62;
d = [0, 4, 10, 1, 7, 5, 9, 6, 6, 6, 10, 10, 1, 2, 7, 7, 6, 4, 3, 2, 4, 3, 6, 5, 2, 9, 9, 5, 8, 9, 10, 5, 8, 1, 10, 3, 2, 5, 5, 5, 8, 5, 3, 9, 5, 10, 6, 3, 8, 4, 10, 3, 9, 3, 5, 4, 3, 9, 6, 10, 2, 0];
rr = array2d(1..4, 1..62, [0, 7, 0, 0, 10, 4, 6, 8, 0, 5, 2, 9, 8, 0, 2, 8, 10, 0, 6, 2, 4, 7, 0, 2, 0, 3, 9, 5, 0, 6, 5, 9, 0, 0, 0, 0, 4, 8, 0, 1, 1, 10, 6, 0, 0, 2, 1, 4, 0, 7, 5, 2, 1, 0, 0, 10, 5, 0, 0, 0, 1, 0, 0, 9, 5, 0, 10, 3, 10, 4, 8, 0, 0, 5, 0, 7, 0, 10, 0, 2, 5, 1, 1, 8, 0, 9, 0, 8, 5, 8, 4, 0, 8, 0, 0, 1, 5, 0, 7, 2, 10, 0, 0, 0, 8, 4, 5, 6, 6, 0, 4, 5, 10, 9, 4, 5, 5, 10, 1, 1, 0, 2, 9, 0, 0, 7, 0, 9, 2, 10, 0, 8, 2, 10, 4, 2, 1, 5, 3, 3, 3, 9, 1, 7, 0, 2, 8, 2, 3, 8, 5, 0, 1, 7, 0, 8, 8, 0, 5, 10, 5, 6, 9, 10, 2, 0, 0, 9, 2, 7, 1, 7, 8, 4, 0, 3, 3, 10, 10, 3, 9, 4, 3, 1, 6, 0, 0, 6, 2, 8, 5, 7, 3, 2, 6, 0, 1, 4, 8, 10, 5, 0, 2, 10, 9, 0, 0, 0, 2, 6, 9, 7, 6, 7, 0, 9, 5, 8, 0, 0, 10, 9, 3, 2, 0, 5, 9, 0, 5, 6, 5, 5, 1, 2, 6, 3, 5, 3, 6, 5, 10, 6, 9, 0, 9, 4, 0, 0]);

suc = [
   {2, 3, 4},
   {13, 34, 5},
   {23, 6, 7},
   {41, 28},
   {8, 10, 12},
   {9, 28, 29},
   {11, 31, 15},
   {35},
   {41, 11, 54},
   {40, 56, 28},
   {25, 27, 33},
   {16, 27, 21},
   {25, 51, 14},
   {20, 22, 36},
   {24, 17, 21},
   {18, 61, 30},
   {19, 37, 30},
   {19, 44, 29},
   {49, 35},
   {40, 38, 23},
   {33, 36, 41},
   {32, 27, 29},
   {48, 56, 31},
   {26},
   {40, 42, 30},
   {32, 44, 52},
   {58, 43, 38},
   {32, 35, 39},
   {49, 39},
   {50, 44, 45},
   {46},
   {48, 38, 47},
   {37, 46},
   {36, 37, 39},
   {43, 45},
   {48, 60, 45},
   {42, 59},
   {57},
   {50},
   {43, 47},
   {52, 53, 46},
   {52, 47},
   {50},
   {60},
   {59},
   {49, 57, 55},
   {53},
   {53, 54},
   {60},
   {59},
   {54},
   {56, 55},
   {57},
   {55},
   {58},
   {58},
   {61},
   {61},
   {62},
   {62},
   {62},
   {  } ];

deadline = array2d(1..62, 1..3, [1, 2, 3, 6, 4, 4, 9, 3, 1, 10, 5, 5, 19, 1, 3, 20, 2, 4, 21, 2, 5, 25, 4, 1, 26, 2, 4, 34, 2, 3, 34, 1, 4, 37, 5, 3, 40, 3, 0, 40, 4, 2, 41, 1, 4, 48, 1, 1, 50, 2, 1, 54, 5, 5, 55, 1, 3, 58, 0, 2, 59, 0, 3, 59, 1, 4, 60, 4, 4, 62, 1, 5, 64, 2, 2, 65, 1, 1, 71, 4, 1, 71, 1, 0, 72, 4, 0, 73, 4, 1, 75, 2, 5, 80, 3, 3, 80, 5, 1, 83, 3, 0, 83, 2, 3, 87, 2, 2, 93, 5, 4, 94, 4, 2, 94, 0, 5, 103, 5, 1, 110, 2, 3, 112, 1, 5, 113, 4, 1, 116, 0, 5, 119, 2, 3, 127, 4, 2, 127, 4, 1, 127, 5, 1, 129, 0, 4, 136, 3, 5, 138, 0, 0, 142, 3, 1, 143, 1, 5, 145, 2, 4, 149, 0, 5, 153, 3, 3, 155, 0, 4, 158, 1, 1, 161, 1, 0, 162, 1, 3, 162, 0, 2, 165, 2, 5]);
