n_res = 4;
rc = [ 21, 30, 24, 19 ];
n_tasks = 62;
d = [0, 4, 9, 3, 8, 10, 1, 10, 10, 9, 6, 1, 1, 5, 1, 5, 10, 9, 9, 7, 10, 3, 1, 4, 8, 4, 1, 8, 4, 3, 3, 7, 7, 6, 2, 10, 9, 6, 10, 5, 9, 3, 2, 7, 7, 9, 3, 6, 1, 8, 1, 5, 9, 9, 10, 7, 4, 9, 5, 10, 10, 0];
rr = array2d(1..4, 1..62, [0, 8, 0, 8, 0, 4, 3, 0, 0, 3, 0, 4, 3, 8, 8, 0, 8, 0, 0, 0, 9, 1, 2, 8, 1, 2, 0, 0, 0, 0, 5, 0, 0, 0, 6, 0, 1, 0, 8, 3, 0, 0, 5, 0, 9, 10, 0, 0, 0, 3, 0, 0, 10, 0, 2, 0, 0, 0, 6, 0, 3, 0, 0, 5, 6, 0, 10, 0, 7, 0, 4, 9, 6, 0, 0, 0, 0, 6, 8, 1, 6, 0, 1, 6, 4, 0, 7, 3, 0, 1, 0, 5, 0, 7, 5, 1, 0, 4, 0, 0, 1, 10, 0, 5, 5, 7, 0, 0, 4, 0, 1, 2, 0, 2, 0, 0, 5, 9, 0, 10, 1, 0, 0, 0, 0, 1, 0, 0, 0, 4, 0, 3, 0, 0, 0, 3, 0, 0, 1, 0, 0, 0, 0, 4, 3, 7, 0, 0, 6, 0, 4, 8, 1, 2, 0, 0, 6, 0, 0, 5, 4, 0, 0, 0, 0, 1, 1, 0, 5, 6, 4, 3, 0, 1, 7, 0, 9, 9, 7, 0, 1, 3, 0, 6, 0, 0, 0, 0, 0, 0, 0, 0, 0, 0, 0, 0, 7, 1, 5, 7, 0, 0, 6, 8, 1, 0, 0, 0, 9, 5, 0, 10, 0, 5, 0, 8, 0, 1, 2, 0, 0, 0, 8, 9, 0, 7, 1, 3, 0, 2, 0, 0, 0, 2, 8, 0, 7, 5, 6, 0, 0, 0, 7, 0, 0, 4, 0, 0]);

suc = [
   {2, 3, 4},
   {19, 21, 6},
   {12, 5, 15},
   {10, 22, 7},
   {19, 43, 11},
   {8, 17, 15},
   {18, 28, 13},
   {9, 14, 33},
   {12, 38, 60},
   {35, 44, 46},
   {16, 40, 50},
   {20, 55, 31},
   {34, 50, 47},
   {46, 26, 30},
   {40, 26, 23},
   {42, 35, 20},
   {48, 25, 26},
   {27, 29, 30},
   {58},
   {61},
   {36},
   {32, 29, 31},
   {24, 25, 48},
   {59, 31},
   {27, 47},
   {45, 44, 37},
   {34, 53, 46},
   {32, 35, 54},
   {40, 58, 39},
   {59, 37, 38},
   {41, 36, 37},
   {34, 42, 38},
   {43, 54},
   {43},
   {41, 36, 52},
   {47, 39},
   {51},
   {41, 50, 39},
   {49, 45},
   {42, 51},
   {45},
   {48, 49},
   {57, 52},
   {49, 54},
   {51},
   {56, 52},
   {53},
   {60},
   {53},
   {56},
   {56},
   {58, 55},
   {57},
   {57, 55},
   {59},
   {61},
   {61},
   {60},
   {62},
   {62},
   {62},
   {  } ];

deadline = array2d(1..62, 1..3, [2, 2, 3, 3, 2, 1, 4, 1, 4, 5, 4, 0, 6, 1, 4, 6, 3, 3, 16, 5, 2, 18, 4, 5, 20, 4, 3, 20, 4, 2, 30, 5, 5, 32, 1, 1, 32, 4, 0, 33, 5, 0, 35, 0, 4, 37, 1, 5, 43, 1, 1, 45, 3, 5, 46, 2, 5, 50, 1, 4, 59, 0, 3, 73, 2, 3, 74, 4, 0, 80, 0, 4, 81, 5, 2, 82, 2, 4, 89, 5, 2, 90, 0, 4, 92, 5, 0, 99, 3, 1, 101, 4, 2, 111, 5, 0, 111, 4, 3, 113, 2, 1, 113, 2, 4, 116, 2, 2, 117, 4, 5, 120, 0, 5, 120, 2, 3, 126, 1, 0, 126, 3, 2, 128, 1, 4, 136, 0, 0, 137, 5, 3, 140, 1, 5, 140, 4, 4, 147, 1, 3, 150, 0, 5, 157, 5, 2, 162, 2, 3, 163, 4, 2, 164, 2, 3, 171, 5, 1, 173, 3, 4, 191, 4, 5, 194, 0, 0, 196, 1, 4, 199, 5, 1, 202, 3, 3, 203, 4, 1, 203, 3, 5, 203, 0, 3]);
