n_res = 4;
rc = [ 23, 19, 28, 26 ];
n_tasks = 62;
d = [0, 3, 1, 5, 2, 9, 1, 3, 4, 5, 10, 4, 9, 4, 7, 9, 5, 5, 6, 2, 8, 8, 6, 4, 10, 9, 9, 10, 4, 2, 10, 4, 2, 10, 9, 1, 6, 10, 8, 6, 5, 9, 3, 5, 1, 8, 9, 2, 5, 2, 9, 5, 7, 10, 10, 8, 1, 2, 7, 4, 2, 0];
rr = array2d(1..4, 1..62, [0, 0, 3, 0, 0, 0, 0, 1, 0, 0, 0, 4, 0, 0, 0, 0, 1, 10, 6, 8, 0, 0, 0, 0, 0, 0, 0, 0, 7, 0, 0, 1, 0, 2, 0, 0, 0, 6, 9, 0, 0, 0, 6, 0, 0, 0, 0, 0, 0, 0, 4, 0, 2, 0, 0, 6, 0, 0, 0, 0, 0, 0, 0, 6, 0, 5, 0, 0, 9, 0, 0, 0, 0, 0, 1, 0, 0, 5, 0, 0, 0, 0, 8, 0, 0, 0, 0, 0, 4, 0, 0, 1, 0, 0, 5, 0, 1, 0, 0, 0, 0, 0, 0, 6, 0, 5, 0, 0, 0, 0, 0, 0, 0, 6, 0, 2, 0, 0, 0, 3, 0, 0, 3, 0, 0, 0, 0, 0, 0, 8, 0, 0, 4, 10, 0, 0, 0, 6, 6, 0, 0, 0, 0, 0, 0, 4, 5, 0, 7, 0, 0, 0, 0, 0, 0, 0, 0, 0, 0, 0, 0, 0, 0, 7, 0, 0, 0, 0, 2, 0, 0, 0, 0, 4, 0, 0, 0, 0, 0, 0, 0, 0, 3, 10, 0, 0, 0, 0, 0, 0, 7, 0, 0, 0, 0, 0, 6, 0, 0, 0, 0, 0, 0, 0, 0, 0, 0, 0, 0, 6, 0, 9, 0, 2, 0, 0, 10, 0, 0, 0, 0, 3, 1, 0, 0, 0, 10, 0, 0, 0, 0, 1, 3, 5, 4, 0, 0, 0, 0, 0, 4, 0, 10, 0, 0, 0, 0, 0]);

suc = [
   {2, 3, 4},
   {14},
   {9, 27, 5},
   {40, 19, 7},
   {10, 6, 15},
   {32, 42, 38},
   {8, 25, 22},
   {24, 37, 14},
   {11},
   {35, 28, 36},
   {12, 13, 14},
   {34, 58},
   {16, 25, 26},
   {52, 21, 46},
   {17, 18, 44},
   {18, 23},
   {42, 43, 30},
   {24, 28, 29},
   {27, 20, 38},
   {32, 53},
   {50, 39, 31},
   {51, 31},
   {24, 33, 30},
   {34, 39, 31},
   {35, 28, 38},
   {40, 50, 43},
   {41, 35, 47},
   {54},
   {36, 30, 47},
   {57, 45, 37},
   {59},
   {34, 44, 60},
   {48, 43, 36},
   {48},
   {61, 37, 39},
   {40, 49},
   {60},
   {41, 57},
   {55},
   {53, 55},
   {44, 61},
   {49, 47},
   {51, 45, 46},
   {56, 45, 46},
   {52},
   {49},
   {48, 51, 52},
   {50},
   {54},
   {56},
   {56, 53, 55},
   {54},
   {61},
   {58},
   {57, 60},
   {59},
   {58},
   {59},
   {62},
   {62},
   {62},
   {  } ];

deadline = array2d(1..62, 1..3, [1, 2, 5, 5, 4, 2, 6, 2, 3, 7, 0, 5, 16, 0, 5, 16, 3, 5, 18, 0, 4, 21, 5, 4, 24, 3, 5, 31, 3, 1, 31, 0, 5, 33, 0, 5, 33, 3, 0, 35, 3, 2, 37, 1, 0, 39, 4, 4, 42, 1, 4, 44, 3, 4, 48, 1, 2, 49, 0, 2, 49, 0, 3, 51, 1, 3, 53, 3, 2, 57, 2, 2, 57, 4, 0, 58, 2, 4, 59, 4, 3, 60, 4, 2, 61, 2, 0, 68, 5, 5, 79, 0, 1, 82, 5, 0, 84, 5, 1, 98, 1, 5, 100, 5, 1, 111, 3, 0, 113, 1, 4, 114, 4, 2, 115, 3, 3, 119, 0, 1, 127, 5, 1, 136, 3, 1, 137, 0, 1, 141, 1, 4, 144, 2, 3, 146, 0, 3, 155, 0, 1, 156, 5, 5, 158, 4, 0, 161, 0, 1, 162, 0, 2, 164, 1, 4, 176, 4, 1, 185, 5, 0, 189, 3, 5, 191, 2, 1, 199, 1, 3, 201, 0, 5, 203, 5, 3, 211, 5, 4, 212, 2, 3, 214, 4, 1]);
