n_res = 4;
rc = [ 17, 16, 23, 15 ];
n_tasks = 62;
d = [0, 10, 8, 10, 5, 10, 3, 8, 8, 4, 4, 10, 5, 3, 5, 9, 4, 8, 5, 10, 8, 5, 4, 1, 4, 10, 6, 8, 10, 9, 4, 1, 4, 9, 9, 9, 9, 4, 8, 7, 3, 10, 7, 8, 1, 8, 9, 4, 10, 4, 5, 8, 10, 5, 10, 5, 8, 1, 4, 3, 5, 0];
rr = array2d(1..4, 1..62, [0, 0, 0, 0, 5, 0, 1, 5, 0, 0, 0, 0, 0, 4, 0, 0, 0, 0, 0, 0, 0, 0, 0, 0, 0, 0, 0, 0, 0, 9, 0, 0, 0, 10, 0, 6, 7, 0, 0, 0, 0, 0, 0, 0, 0, 7, 10, 0, 0, 0, 0, 0, 0, 0, 0, 0, 0, 0, 6, 2, 0, 0, 0, 0, 0, 0, 0, 0, 0, 0, 0, 10, 0, 10, 0, 0, 0, 0, 0, 0, 0, 0, 10, 0, 0, 2, 0, 0, 0, 0, 0, 0, 0, 4, 2, 0, 0, 0, 0, 0, 4, 0, 3, 0, 10, 5, 3, 0, 0, 0, 2, 0, 0, 10, 0, 0, 0, 4, 0, 0, 0, 0, 0, 0, 0, 3, 1, 2, 0, 4, 0, 0, 0, 0, 0, 0, 0, 0, 0, 7, 8, 8, 0, 5, 0, 8, 5, 0, 0, 9, 0, 5, 0, 0, 6, 0, 0, 0, 0, 0, 0, 0, 0, 1, 0, 0, 0, 0, 0, 0, 0, 1, 0, 0, 0, 0, 10, 5, 5, 0, 0, 4, 0, 0, 8, 0, 0, 0, 0, 0, 0, 0, 0, 0, 4, 0, 8, 0, 4, 0, 1, 0, 0, 0, 1, 0, 0, 0, 0, 0, 6, 0, 7, 0, 2, 0, 0, 0, 0, 0, 1, 0, 0, 6, 0, 0, 0, 7, 0, 0, 0, 0, 0, 0, 0, 6, 3, 0, 0, 0, 0, 0, 6, 0, 0, 0, 0, 0]);

suc = [
   {2, 3, 4},
   {9},
   {8, 21, 5},
   {12, 7},
   {42, 6},
   {18},
   {11, 13},
   {33, 10},
   {26, 27, 15},
   {59},
   {17, 36, 47},
   {16, 20, 14},
   {32, 35, 55},
   {24, 23},
   {42, 30},
   {25, 19},
   {60},
   {29},
   {43, 22, 30},
   {50, 28, 37},
   {33},
   {24},
   {46},
   {57},
   {56},
   {49, 39, 31},
   {34},
   {54},
   {32, 30},
   {58},
   {45},
   {49},
   {40, 38},
   {41},
   {56},
   {48, 50},
   {41},
   {41},
   {50},
   {45},
   {53},
   {56, 51, 47},
   {44},
   {52},
   {55},
   {61, 54},
   {57, 58},
   {51},
   {57},
   {53},
   {60},
   {61},
   {54},
   {60},
   {58},
   {61},
   {59},
   {59},
   {62},
   {62},
   {62},
   {  } ];

deadline = array2d(1..62, 1..3, [1, 1, 2, 3, 3, 2, 6, 5, 0, 7, 2, 0, 14, 4, 3, 16, 4, 4, 19, 4, 3, 20, 4, 1, 25, 0, 2, 27, 4, 5, 32, 1, 2, 35, 4, 2, 35, 0, 4, 37, 1, 3, 43, 5, 5, 45, 4, 3, 46, 1, 2, 46, 5, 4, 48, 1, 0, 48, 4, 1, 50, 1, 2, 53, 1, 2, 56, 0, 3, 61, 3, 3, 65, 3, 4, 65, 2, 5, 69, 2, 1, 70, 0, 4, 70, 5, 0, 72, 3, 1, 77, 1, 3, 79, 1, 4, 81, 0, 1, 82, 5, 5, 92, 2, 1, 93, 3, 0, 95, 2, 5, 96, 2, 5, 99, 5, 3, 102, 4, 0, 102, 3, 0, 104, 0, 5, 105, 1, 2, 108, 2, 2, 110, 5, 3, 116, 0, 4, 123, 3, 3, 126, 4, 4, 126, 1, 5, 127, 1, 5, 127, 3, 0, 127, 0, 2, 128, 1, 4, 137, 0, 2, 138, 2, 0, 141, 0, 2, 141, 2, 5, 145, 4, 1, 150, 0, 5, 150, 3, 2, 153, 1, 4, 155, 4, 3]);
