n_res = 4;
rc = [ 21, 35, 22, 35 ];
n_tasks = 62;
d = [0, 8, 8, 1, 6, 5, 1, 2, 1, 6, 10, 6, 8, 1, 5, 8, 3, 1, 2, 7, 6, 10, 4, 8, 8, 6, 5, 9, 9, 3, 9, 4, 2, 1, 6, 7, 4, 3, 8, 8, 2, 5, 7, 5, 7, 8, 2, 2, 8, 7, 6, 9, 7, 9, 2, 9, 9, 10, 10, 1, 4, 0];
rr = array2d(1..4, 1..62, [0, 0, 0, 0, 0, 0, 0, 0, 0, 0, 0, 0, 0, 0, 0, 0, 6, 8, 0, 0, 0, 0, 0, 0, 8, 6, 0, 0, 0, 0, 0, 0, 0, 0, 0, 0, 0, 0, 0, 0, 0, 0, 0, 0, 0, 0, 0, 0, 0, 1, 0, 0, 0, 0, 0, 4, 10, 0, 0, 7, 0, 0, 0, 0, 0, 2, 5, 7, 5, 0, 7, 9, 0, 0, 0, 5, 0, 0, 0, 0, 0, 5, 0, 0, 1, 3, 0, 0, 0, 0, 0, 0, 1, 3, 0, 0, 0, 0, 0, 0, 0, 5, 0, 0, 3, 8, 0, 9, 8, 0, 0, 0, 0, 5, 0, 3, 6, 0, 0, 0, 8, 0, 8, 0, 0, 0, 0, 0, 0, 0, 0, 0, 0, 0, 0, 9, 5, 0, 0, 0, 0, 0, 0, 0, 0, 0, 0, 0, 0, 0, 7, 0, 1, 1, 0, 0, 0, 1, 0, 5, 6, 0, 0, 0, 9, 0, 0, 0, 8, 0, 0, 2, 1, 0, 10, 0, 3, 0, 0, 0, 0, 1, 0, 0, 0, 0, 0, 4, 7, 0, 0, 0, 0, 7, 0, 0, 9, 0, 0, 0, 9, 10, 0, 0, 8, 0, 10, 1, 0, 0, 0, 0, 0, 8, 0, 0, 0, 0, 1, 0, 8, 0, 0, 2, 2, 0, 0, 3, 0, 0, 0, 0, 0, 0, 0, 0, 0, 0, 0, 0, 0, 0, 0, 0, 0, 0, 0, 0]);

suc = [
   {2, 3, 4},
   {16, 24, 5},
   {13, 6, 22},
   {18, 29, 14},
   {8, 33, 10},
   {9, 12, 7},
   {19, 11, 60},
   {50, 22},
   {25, 11, 52},
   {17, 28, 14},
   {17, 59, 23},
   {25, 53, 38},
   {32, 27, 15},
   {36, 30},
   {17, 30, 31},
   {40, 18},
   {53, 20, 21},
   {48, 59},
   {26, 51, 47},
   {57},
   {38, 47},
   {48},
   {49, 34, 28},
   {39},
   {47},
   {30},
   {42, 35, 44},
   {48, 45},
   {40},
   {43},
   {40, 41},
   {41, 42},
   {52, 37, 46},
   {51},
   {38},
   {50, 44, 55},
   {44},
   {57, 43},
   {46},
   {54},
   {54, 45, 46},
   {60},
   {50},
   {61},
   {58, 55},
   {49},
   {56},
   {51, 53},
   {56},
   {58},
   {54},
   {60},
   {55},
   {56},
   {61},
   {57},
   {58},
   {61},
   {62},
   {62},
   {62},
   {  } ];

deadline = array2d(1..62, 1..3, [5, 2, 4, 14, 1, 1, 14, 4, 3, 18, 0, 0, 18, 0, 4, 21, 5, 2, 23, 0, 5, 26, 0, 3, 28, 5, 3, 35, 2, 4, 37, 0, 3, 44, 4, 1, 44, 5, 5, 49, 5, 3, 62, 1, 0, 63, 4, 1, 69, 4, 4, 71, 5, 4, 73, 1, 5, 86, 0, 3, 91, 5, 4, 98, 5, 4, 100, 3, 0, 104, 5, 0, 105, 2, 2, 105, 4, 2, 108, 0, 3, 108, 0, 1, 109, 2, 2, 113, 3, 1, 113, 2, 1, 113, 3, 0, 115, 0, 2, 117, 5, 0, 119, 1, 0, 121, 0, 3, 131, 3, 0, 134, 0, 2, 142, 5, 2, 142, 2, 5, 144, 1, 3, 144, 1, 4, 146, 0, 0, 149, 4, 5, 150, 3, 3, 154, 2, 1, 157, 5, 5, 157, 5, 2, 164, 4, 5, 164, 1, 4, 167, 4, 1, 168, 4, 3, 171, 0, 2, 176, 2, 2, 179, 3, 5, 185, 1, 5, 196, 1, 5, 197, 0, 1, 201, 4, 0, 201, 3, 3, 207, 2, 1, 212, 3, 4]);
