n_res = 4;
rc = [ 16, 14, 14, 12 ];
n_tasks = 62;
d = [0, 5, 3, 2, 4, 4, 3, 5, 10, 8, 5, 5, 1, 9, 7, 10, 1, 6, 1, 3, 4, 9, 8, 9, 7, 8, 2, 9, 7, 4, 7, 5, 7, 9, 3, 1, 8, 3, 7, 4, 5, 1, 2, 4, 4, 8, 1, 9, 2, 7, 10, 1, 5, 7, 3, 4, 9, 1, 1, 4, 2, 0];
rr = array2d(1..4, 1..62, [0, 2, 3, 5, 9, 4, 7, 4, 0, 0, 5, 0, 0, 2, 3, 2, 0, 0, 0, 5, 10, 0, 0, 0, 0, 7, 9, 7, 1, 0, 0, 0, 10, 9, 5, 0, 7, 9, 10, 0, 0, 0, 6, 0, 8, 0, 8, 0, 0, 7, 9, 8, 0, 6, 0, 1, 7, 0, 10, 0, 8, 0, 0, 3, 1, 0, 4, 0, 6, 0, 6, 0, 0, 5, 0, 0, 0, 1, 5, 0, 0, 0, 3, 1, 4, 8, 0, 0, 9, 6, 0, 8, 0, 9, 0, 7, 5, 4, 4, 9, 0, 7, 0, 9, 0, 7, 2, 6, 0, 9, 5, 0, 0, 0, 4, 3, 8, 0, 1, 7, 1, 10, 9, 0, 0, 0, 0, 0, 8, 0, 0, 0, 5, 6, 8, 0, 0, 0, 6, 2, 0, 10, 10, 8, 1, 1, 0, 0, 10, 0, 0, 0, 10, 0, 2, 9, 5, 0, 0, 0, 0, 0, 1, 0, 3, 8, 4, 0, 7, 2, 0, 2, 3, 0, 0, 0, 0, 0, 0, 1, 0, 5, 0, 7, 9, 0, 0, 0, 9, 7, 3, 10, 0, 0, 7, 0, 0, 0, 5, 6, 0, 8, 5, 0, 3, 0, 0, 0, 0, 0, 0, 0, 0, 0, 9, 0, 9, 0, 0, 3, 0, 0, 0, 0, 0, 0, 6, 4, 0, 0, 7, 0, 5, 10, 0, 0, 6, 0, 5, 6, 0, 4, 0, 6, 0, 0, 0, 0]);

suc = [
   {2, 3, 4},
   {18, 6, 7},
   {9, 12, 20},
   {13, 51, 5},
   {17, 25, 33},
   {10, 11, 14},
   {8, 26, 42},
   {50, 37, 47},
   {27, 25, 19},
   {35, 28, 22},
   {24, 25, 29},
   {17, 41},
   {28, 21, 15},
   {16, 44, 15},
   {26, 59, 52},
   {19, 22},
   {24, 29, 22},
   {48, 28},
   {35, 55, 31},
   {51, 38, 39},
   {24, 58, 36},
   {45, 30, 23},
   {43, 31},
   {40, 57, 34},
   {32, 57, 43},
   {40, 35, 39},
   {32, 46, 30},
   {32, 33, 41},
   {34, 37, 39},
   {48, 36},
   {36, 53, 46},
   {34, 45},
   {49, 45, 38},
   {42, 38},
   {61},
   {40},
   {46},
   {50, 52},
   {49},
   {56, 50},
   {57, 60, 47},
   {56, 54},
   {61, 47},
   {51, 53},
   {52},
   {48, 58},
   {55},
   {49},
   {54},
   {54},
   {60, 55},
   {53},
   {56},
   {61},
   {58},
   {60},
   {59},
   {59},
   {62},
   {62},
   {62},
   {  } ];

deadline = array2d(1..62, 1..3, [1, 3, 1, 9, 0, 0, 10, 2, 4, 13, 0, 1, 13, 4, 4, 19, 2, 5, 25, 0, 4, 29, 3, 1, 33, 4, 4, 33, 3, 3, 35, 1, 2, 44, 4, 4, 58, 1, 5, 61, 0, 1, 65, 3, 2, 67, 2, 2, 69, 0, 4, 74, 2, 0, 76, 2, 2, 76, 4, 1, 82, 5, 3, 82, 5, 5, 84, 0, 1, 84, 2, 3, 89, 0, 1, 92, 3, 4, 93, 2, 3, 94, 2, 4, 96, 0, 1, 98, 0, 5, 100, 5, 3, 101, 1, 5, 104, 1, 0, 111, 4, 5, 114, 2, 4, 115, 1, 0, 118, 4, 0, 130, 0, 1, 130, 5, 1, 135, 4, 0, 136, 4, 1, 138, 5, 2, 139, 1, 3, 141, 0, 2, 142, 2, 3, 147, 4, 0, 148, 2, 4, 153, 2, 3, 153, 5, 1, 156, 2, 1, 160, 5, 3, 160, 2, 5, 165, 0, 5, 168, 2, 3, 184, 5, 4, 184, 2, 5, 187, 3, 0, 188, 0, 0, 189, 4, 3, 195, 0, 3, 196, 3, 4, 198, 4, 0]);
