n_res = 4;
rc = [ 28, 32, 28, 19 ];
n_tasks = 62;
d = [0, 7, 9, 3, 9, 8, 2, 10, 6, 1, 5, 4, 7, 9, 9, 9, 9, 9, 3, 9, 6, 4, 1, 4, 2, 2, 8, 4, 5, 2, 1, 6, 5, 2, 1, 3, 8, 5, 1, 4, 6, 4, 3, 3, 9, 4, 7, 2, 7, 6, 5, 9, 9, 7, 10, 7, 1, 2, 2, 2, 2, 0];
rr = array2d(1..4, 1..62, [0, 4, 0, 6, 1, 0, 6, 0, 2, 4, 2, 4, 5, 0, 0, 0, 10, 0, 3, 0, 7, 2, 1, 0, 3, 3, 7, 0, 3, 0, 1, 8, 5, 8, 5, 10, 8, 1, 1, 2, 10, 2, 9, 2, 0, 0, 9, 1, 0, 8, 0, 0, 8, 5, 4, 0, 5, 9, 5, 5, 0, 0, 0, 0, 1, 0, 4, 0, 8, 1, 1, 3, 4, 3, 5, 8, 2, 7, 2, 5, 8, 10, 6, 9, 10, 10, 9, 0, 8, 5, 1, 5, 8, 0, 9, 8, 4, 0, 6, 7, 5, 1, 9, 5, 3, 0, 1, 2, 0, 7, 0, 0, 4, 10, 0, 0, 7, 8, 6, 7, 4, 8, 7, 0, 0, 9, 10, 0, 4, 2, 2, 4, 0, 0, 8, 5, 0, 3, 8, 7, 2, 9, 8, 0, 3, 0, 8, 10, 0, 8, 0, 7, 3, 0, 8, 10, 2, 8, 5, 2, 2, 6, 0, 8, 8, 0, 8, 0, 1, 6, 1, 5, 0, 4, 4, 6, 7, 0, 3, 6, 5, 6, 8, 5, 0, 0, 0, 0, 2, 6, 4, 6, 9, 8, 4, 0, 6, 5, 1, 0, 0, 1, 4, 4, 0, 0, 3, 8, 7, 9, 0, 3, 0, 9, 4, 4, 7, 9, 10, 0, 6, 3, 0, 0, 6, 2, 1, 3, 6, 9, 0, 4, 3, 9, 5, 7, 8, 4, 0, 6, 9, 3, 4, 4, 5, 10, 0, 0]);

suc = [
   {2, 3, 4},
   {16, 10, 23},
   {22, 23},
   {19, 12, 5},
   {17, 21, 6},
   {9, 43, 7},
   {8, 32},
   {16, 33, 36},
   {40, 33, 11},
   {25, 36, 15},
   {18, 37, 13},
   {30, 14, 22},
   {24, 32, 51},
   {58},
   {26, 58, 31},
   {20, 37, 31},
   {25, 26, 54},
   {34, 36, 29},
   {48, 28, 45},
   {38, 22, 39},
   {61, 30, 23},
   {24, 25, 40},
   {24, 27, 39},
   {60},
   {34, 27},
   {43},
   {56},
   {40, 41, 49},
   {51, 38},
   {47, 37, 31},
   {42},
   {48, 45},
   {35, 44, 39},
   {35},
   {51, 45},
   {41, 44, 38},
   {42},
   {56, 50},
   {41, 42, 47},
   {50},
   {57, 46},
   {49, 46},
   {52},
   {55, 47},
   {50, 52, 46},
   {59},
   {48, 49},
   {59, 53, 54},
   {53, 54},
   {59, 53, 55},
   {58, 52},
   {60, 55},
   {57},
   {56},
   {61},
   {57},
   {60},
   {61},
   {62},
   {62},
   {62},
   {  } ];

deadline = array2d(1..62, 1..3, [1, 0, 0, 3, 2, 4, 8, 4, 0, 9, 4, 5, 13, 4, 1, 14, 3, 2, 20, 3, 5, 30, 1, 2, 31, 4, 1, 32, 4, 2, 37, 5, 5, 39, 4, 4, 44, 0, 0, 46, 3, 3, 51, 4, 2, 52, 5, 3, 59, 4, 5, 62, 3, 3, 63, 3, 0, 63, 4, 5, 64, 4, 2, 65, 4, 5, 67, 3, 0, 68, 0, 2, 71, 0, 4, 72, 2, 0, 84, 2, 4, 88, 4, 3, 98, 3, 5, 106, 3, 5, 117, 5, 1, 121, 1, 3, 123, 0, 0, 125, 0, 3, 126, 2, 5, 140, 1, 4, 140, 0, 5, 142, 5, 4, 143, 0, 2, 144, 4, 3, 147, 0, 4, 154, 4, 1, 154, 5, 4, 157, 3, 0, 158, 0, 0, 162, 1, 4, 164, 0, 1, 166, 5, 2, 171, 0, 5, 179, 2, 3, 180, 2, 3, 182, 0, 0, 182, 0, 0, 182, 3, 5, 194, 2, 1, 204, 0, 2, 209, 2, 5, 213, 5, 3, 215, 0, 4, 216, 3, 2, 220, 1, 5, 220, 3, 4]);
