n_res = 4;
rc = [ 10, 11, 15, 14 ];
n_tasks = 62;
d = [0, 9, 8, 10, 10, 10, 6, 10, 7, 10, 6, 5, 1, 1, 6, 6, 10, 6, 7, 10, 6, 3, 6, 5, 6, 6, 6, 4, 4, 1, 9, 8, 2, 1, 3, 3, 5, 1, 2, 7, 4, 10, 4, 1, 4, 9, 9, 2, 7, 2, 7, 1, 1, 2, 1, 7, 7, 8, 3, 8, 3, 0];
rr = array2d(1..4, 1..62, [0, 0, 0, 0, 0, 1, 0, 0, 0, 0, 0, 0, 0, 0, 0, 7, 0, 4, 0, 6, 0, 0, 0, 0, 0, 0, 0, 0, 0, 0, 0, 0, 2, 0, 0, 7, 0, 2, 0, 0, 0, 0, 0, 0, 0, 0, 0, 0, 0, 0, 0, 9, 0, 0, 0, 0, 0, 1, 1, 0, 0, 0, 0, 0, 0, 2, 0, 0, 0, 0, 0, 0, 0, 0, 0, 0, 0, 0, 0, 0, 0, 0, 0, 0, 10, 3, 0, 0, 0, 6, 0, 6, 3, 0, 0, 8, 0, 0, 0, 0, 9, 3, 0, 0, 0, 0, 0, 0, 4, 6, 0, 0, 1, 0, 0, 6, 0, 1, 5, 0, 0, 0, 3, 0, 0, 0, 0, 0, 9, 0, 0, 0, 10, 0, 0, 6, 0, 9, 0, 0, 0, 0, 0, 0, 5, 4, 0, 0, 0, 0, 2, 0, 0, 0, 0, 0, 0, 0, 2, 0, 0, 0, 0, 0, 0, 9, 9, 1, 0, 0, 0, 0, 0, 7, 0, 0, 0, 0, 4, 0, 0, 0, 0, 0, 0, 0, 0, 7, 6, 0, 0, 0, 10, 8, 0, 6, 4, 0, 7, 0, 7, 0, 4, 0, 3, 0, 0, 0, 0, 0, 5, 5, 0, 0, 10, 0, 0, 10, 0, 0, 0, 0, 6, 0, 0, 0, 7, 0, 0, 0, 3, 5, 0, 0, 9, 0, 0, 0, 6, 0, 0, 0, 0, 0, 0, 5, 0, 0]);

suc = [
   {2, 3, 4},
   {9, 10, 6},
   {8, 11, 12},
   {25, 13, 5},
   {32, 27, 22},
   {27, 55, 7},
   {61, 52, 45},
   {17, 19, 59},
   {29, 42, 13},
   {20, 15},
   {18, 51, 20},
   {21, 14, 22},
   {16, 26, 38},
   {51, 28, 31},
   {24},
   {41, 35, 52},
   {18, 37, 39},
   {40, 49, 28},
   {41, 26, 44},
   {57, 34, 35},
   {24, 37, 23},
   {34, 36},
   {26, 34, 53},
   {25, 27, 36},
   {29, 30, 55},
   {43, 28, 36},
   {41, 35, 45},
   {60, 46},
   {48, 33},
   {56, 47, 31},
   {32, 40, 50},
   {54},
   {51, 52},
   {46, 38},
   {49, 39},
   {39},
   {43, 38, 47},
   {40, 44, 60},
   {46},
   {58},
   {48, 49, 43},
   {44, 45, 54},
   {60},
   {50, 55},
   {56},
   {47},
   {48},
   {50},
   {58},
   {58},
   {57, 53},
   {56, 53},
   {54},
   {59},
   {61},
   {57},
   {59},
   {61},
   {62},
   {62},
   {62},
   {  } ];

deadline = array2d(1..62, 1..3, [4, 0, 2, 8, 3, 4, 16, 2, 5, 19, 5, 5, 20, 4, 5, 23, 5, 1, 27, 1, 2, 28, 5, 5, 31, 2, 5, 33, 2, 3, 34, 0, 4, 42, 4, 0, 45, 2, 5, 52, 3, 3, 53, 3, 0, 56, 4, 3, 59, 5, 4, 59, 0, 2, 61, 5, 0, 61, 5, 3, 62, 3, 2, 66, 3, 2, 67, 3, 3, 68, 5, 3, 68, 1, 3, 71, 2, 3, 79, 1, 3, 83, 2, 4, 85, 2, 4, 87, 5, 3, 88, 1, 1, 92, 0, 3, 93, 4, 5, 95, 1, 3, 95, 2, 2, 100, 5, 0, 106, 2, 5, 117, 1, 0, 118, 4, 5, 119, 3, 4, 127, 4, 4, 127, 3, 2, 128, 2, 2, 137, 5, 3, 137, 2, 1, 139, 5, 0, 140, 5, 3, 142, 2, 0, 144, 5, 3, 149, 1, 1, 158, 2, 4, 158, 3, 2, 162, 4, 1, 162, 5, 5, 164, 5, 5, 174, 4, 1, 177, 2, 3, 179, 5, 3, 180, 4, 5, 181, 5, 3, 181, 0, 3, 181, 4, 2]);
