n_res = 4;
rc = [ 31, 39, 26, 31 ];
n_tasks = 62;
d = [0, 4, 6, 7, 6, 10, 8, 5, 5, 7, 2, 6, 8, 6, 3, 9, 7, 2, 10, 8, 5, 8, 7, 5, 9, 7, 7, 3, 9, 2, 8, 5, 3, 1, 9, 2, 5, 7, 3, 7, 1, 2, 9, 10, 5, 2, 2, 6, 4, 10, 4, 7, 7, 6, 10, 6, 6, 3, 8, 8, 5, 0];
rr = array2d(1..4, 1..62, [0, 4, 3, 2, 2, 0, 8, 0, 0, 0, 9, 0, 0, 0, 0, 9, 5, 3, 0, 2, 3, 8, 0, 0, 0, 0, 0, 0, 5, 0, 0, 0, 1, 0, 2, 0, 0, 0, 8, 0, 0, 0, 7, 8, 0, 4, 9, 7, 10, 0, 10, 0, 7, 7, 7, 0, 0, 0, 0, 1, 0, 0, 0, 9, 2, 7, 4, 0, 0, 5, 2, 1, 0, 4, 4, 1, 2, 0, 0, 9, 0, 3, 0, 5, 7, 4, 9, 9, 10, 1, 2, 4, 7, 10, 0, 5, 8, 10, 0, 0, 0, 7, 0, 0, 0, 0, 7, 9, 0, 0, 9, 7, 0, 8, 6, 2, 1, 5, 0, 0, 0, 6, 6, 0, 0, 0, 9, 0, 0, 3, 0, 0, 0, 0, 6, 5, 7, 6, 0, 0, 7, 0, 1, 0, 0, 3, 0, 10, 7, 0, 0, 0, 5, 4, 0, 0, 2, 0, 0, 0, 0, 4, 0, 4, 7, 0, 0, 0, 0, 0, 0, 2, 3, 7, 10, 3, 0, 1, 1, 0, 3, 7, 6, 0, 0, 0, 0, 4, 0, 0, 8, 0, 0, 0, 8, 0, 8, 0, 0, 0, 5, 0, 4, 9, 0, 3, 1, 9, 2, 0, 0, 10, 0, 0, 0, 0, 8, 0, 0, 1, 0, 0, 3, 1, 2, 0, 0, 9, 0, 0, 10, 0, 9, 0, 10, 3, 8, 7, 3, 8, 0, 0, 0, 3, 0, 2, 0, 0]);

suc = [
   {2, 3, 4},
   {9, 12, 6},
   {16, 5, 31},
   {24, 10, 11},
   {8, 10, 7},
   {8, 43, 7},
   {38, 13, 22},
   {35, 29},
   {43, 14, 15},
   {19, 52, 39},
   {20, 31},
   {57, 55},
   {17, 28, 21},
   {33, 34, 45},
   {26},
   {18, 26, 28},
   {33, 59, 45},
   {25, 50, 37},
   {38, 22, 23},
   {27, 28, 47},
   {25, 42, 39},
   {33, 30, 41},
   {32, 46},
   {40, 43, 31},
   {49, 36, 47},
   {37, 30},
   {32, 36, 29},
   {29, 46},
   {42},
   {53},
   {32, 35},
   {48, 58, 54},
   {61},
   {42, 37, 39},
   {50, 38, 55},
   {40},
   {41, 51, 44},
   {56, 58},
   {44, 46, 60},
   {41, 51, 45},
   {48, 55},
   {49, 50},
   {56, 49, 44},
   {47},
   {56, 60},
   {48, 54},
   {53},
   {53},
   {51, 61},
   {52, 54},
   {52},
   {60},
   {57},
   {57},
   {58},
   {61},
   {59},
   {59},
   {62},
   {62},
   {62},
   {  } ];

deadline = array2d(1..62, 1..3, [2, 5, 2, 7, 0, 2, 11, 1, 0, 20, 5, 3, 21, 2, 2, 22, 3, 4, 23, 2, 4, 23, 4, 4, 42, 5, 0, 42, 2, 4, 45, 5, 2, 45, 4, 1, 46, 2, 4, 54, 1, 3, 62, 2, 3, 63, 1, 1, 70, 3, 4, 70, 3, 2, 76, 3, 2, 88, 5, 5, 93, 2, 5, 94, 5, 2, 95, 5, 5, 105, 4, 1, 105, 3, 5, 113, 4, 2, 113, 1, 3, 113, 4, 2, 114, 5, 4, 115, 0, 5, 119, 3, 2, 123, 2, 3, 124, 0, 2, 124, 5, 4, 128, 0, 0, 129, 3, 2, 130, 2, 5, 132, 2, 5, 134, 0, 2, 139, 2, 2, 142, 3, 4, 146, 3, 0, 153, 1, 4, 154, 0, 1, 158, 4, 4, 163, 0, 4, 163, 2, 4, 165, 3, 4, 166, 2, 1, 167, 1, 4, 176, 4, 0, 181, 5, 2, 184, 3, 4, 186, 3, 2, 187, 0, 0, 188, 1, 2, 191, 0, 2, 191, 1, 5, 194, 3, 5, 197, 5, 5, 199, 5, 4, 202, 0, 1]);
