n_res = 4;
rc = [ 14, 17, 15, 13 ];
n_tasks = 62;
d = [0, 7, 6, 2, 4, 7, 5, 6, 2, 6, 7, 8, 10, 6, 1, 6, 3, 5, 8, 4, 4, 7, 10, 6, 1, 4, 5, 9, 9, 7, 7, 1, 1, 6, 7, 10, 8, 4, 4, 4, 9, 3, 7, 6, 6, 7, 7, 3, 6, 9, 6, 8, 7, 5, 1, 2, 9, 9, 5, 2, 2, 0];
rr = array2d(1..4, 1..62, [0, 0, 6, 7, 0, 6, 7, 4, 0, 0, 0, 5, 0, 4, 2, 0, 1, 10, 3, 1, 0, 8, 0, 7, 4, 1, 10, 3, 0, 0, 5, 0, 0, 2, 1, 0, 8, 10, 0, 2, 0, 3, 0, 0, 6, 4, 0, 0, 8, 0, 0, 0, 0, 0, 4, 0, 0, 6, 0, 0, 0, 0, 0, 0, 0, 0, 6, 9, 10, 6, 0, 3, 3, 6, 10, 0, 2, 8, 0, 0, 8, 10, 0, 3, 2, 2, 0, 0, 0, 0, 5, 0, 1, 4, 4, 10, 4, 7, 0, 5, 0, 4, 0, 10, 3, 0, 0, 0, 0, 0, 10, 0, 0, 2, 0, 0, 3, 3, 7, 0, 9, 0, 0, 0, 0, 8, 0, 10, 0, 6, 9, 9, 0, 9, 2, 5, 0, 0, 5, 8, 6, 0, 0, 6, 0, 0, 0, 0, 0, 3, 0, 7, 9, 5, 0, 0, 0, 0, 8, 0, 0, 0, 0, 10, 4, 0, 0, 2, 0, 9, 0, 6, 3, 0, 1, 4, 4, 5, 2, 4, 0, 0, 10, 8, 0, 0, 0, 0, 1, 1, 10, 0, 0, 0, 3, 0, 8, 0, 0, 6, 0, 0, 0, 8, 0, 0, 3, 0, 0, 0, 5, 0, 0, 4, 7, 0, 7, 8, 10, 7, 0, 7, 9, 0, 1, 0, 0, 3, 0, 0, 0, 1, 2, 0, 3, 6, 0, 0, 0, 3, 0, 0, 0, 4, 6, 9, 6, 0]);

suc = [
   {2, 3, 4},
   {12, 5, 6},
   {17, 25, 7},
   {8, 16, 23},
   {9, 13, 39},
   {9, 10, 37},
   {10, 22, 15},
   {11, 21},
   {33},
   {41, 34, 36},
   {17, 19, 14},
   {50, 31, 15},
   {24, 36, 53},
   {42, 39, 31},
   {18, 35, 38},
   {24, 55},
   {32, 18, 28},
   {58, 27, 46},
   {32, 25, 20},
   {29, 22},
   {26, 28, 29},
   {36, 30, 31},
   {49, 42, 27},
   {43},
   {28},
   {41, 61, 45},
   {33, 52, 30},
   {40, 35, 45},
   {49, 34, 42},
   {48, 37, 55},
   {49, 43, 38},
   {35, 44},
   {59},
   {43, 45, 39},
   {56, 37},
   {46},
   {61},
   {40, 48, 47},
   {59, 44, 55},
   {51, 53},
   {51, 44, 47},
   {48, 51},
   {60, 61},
   {50, 46},
   {50, 58, 54},
   {54},
   {52},
   {54},
   {52},
   {57},
   {56, 58},
   {53},
   {59},
   {56},
   {57},
   {57},
   {60},
   {60},
   {62},
   {62},
   {62},
   {  } ];

deadline = array2d(1..62, 1..3, [3, 1, 5, 3, 0, 3, 6, 3, 2, 7, 3, 0, 7, 5, 1, 8, 4, 0, 9, 0, 4, 17, 5, 5, 19, 4, 5, 19, 2, 0, 30, 4, 0, 31, 5, 1, 33, 4, 4, 37, 3, 3, 39, 1, 3, 40, 2, 2, 41, 0, 3, 52, 4, 5, 56, 3, 3, 57, 3, 0, 59, 1, 2, 60, 2, 1, 63, 1, 3, 72, 1, 0, 74, 1, 2, 77, 2, 1, 79, 0, 2, 79, 5, 2, 80, 5, 5, 87, 0, 0, 94, 0, 0, 97, 2, 2, 98, 2, 5, 112, 0, 5, 112, 0, 4, 112, 5, 2, 122, 3, 2, 122, 3, 3, 123, 2, 2, 127, 5, 1, 132, 3, 2, 132, 2, 2, 135, 0, 5, 146, 0, 3, 148, 2, 1, 149, 2, 5, 150, 3, 5, 151, 2, 2, 153, 3, 3, 159, 3, 4, 166, 0, 2, 167, 5, 0, 169, 4, 3, 169, 2, 1, 171, 1, 4, 179, 3, 1, 181, 4, 4, 181, 3, 3, 185, 1, 3, 191, 5, 0, 191, 1, 0, 192, 5, 5]);
