n_res = 4;
rc = [ 23, 22, 12, 24 ];
n_tasks = 62;
d = [0, 9, 7, 1, 3, 1, 5, 4, 1, 7, 9, 9, 4, 6, 1, 3, 4, 5, 9, 4, 5, 8, 3, 2, 8, 4, 4, 7, 6, 2, 3, 9, 4, 3, 9, 7, 9, 7, 2, 10, 6, 6, 7, 9, 7, 8, 8, 3, 10, 1, 5, 7, 6, 5, 8, 9, 10, 7, 3, 9, 4, 0];
rr = array2d(1..4, 1..62, [0, 0, 6, 0, 0, 9, 0, 10, 7, 0, 0, 0, 0, 0, 0, 0, 4, 7, 2, 0, 0, 0, 0, 10, 0, 0, 5, 0, 0, 4, 0, 9, 0, 0, 0, 0, 0, 0, 4, 0, 0, 0, 0, 3, 0, 5, 0, 9, 0, 1, 1, 0, 1, 2, 0, 0, 0, 0, 0, 0, 0, 0, 0, 0, 0, 0, 0, 0, 0, 0, 0, 1, 10, 0, 1, 0, 9, 0, 0, 0, 0, 0, 5, 0, 2, 0, 0, 3, 0, 0, 8, 0, 0, 0, 0, 10, 1, 0, 0, 6, 0, 0, 0, 0, 0, 0, 0, 0, 0, 0, 0, 0, 0, 0, 0, 0, 8, 10, 0, 0, 0, 0, 0, 0, 0, 0, 0, 1, 0, 0, 0, 0, 0, 0, 0, 0, 0, 0, 0, 4, 0, 0, 0, 0, 0, 1, 0, 0, 1, 0, 0, 0, 0, 0, 0, 0, 6, 0, 0, 9, 0, 0, 0, 0, 0, 0, 0, 0, 0, 0, 7, 0, 0, 0, 0, 0, 0, 0, 0, 0, 2, 10, 3, 0, 3, 0, 0, 6, 0, 0, 10, 0, 10, 0, 0, 0, 0, 4, 0, 7, 0, 0, 0, 0, 0, 4, 0, 0, 0, 0, 0, 0, 0, 1, 0, 0, 6, 0, 0, 0, 0, 0, 2, 0, 0, 5, 7, 5, 6, 0, 9, 0, 0, 0, 7, 0, 0, 8, 0, 0, 0, 0, 0, 0, 0, 6, 0, 0]);

suc = [
   {2, 3, 4},
   {32, 6, 23},
   {8, 5, 7},
   {49, 12, 54},
   {13},
   {16},
   {52, 15},
   {9},
   {18, 10, 11},
   {33, 14},
   {27, 46, 23},
   {38, 55},
   {34, 60},
   {37},
   {22},
   {17, 19, 25},
   {28},
   {24, 20, 22},
   {30},
   {21, 31},
   {57, 29},
   {50},
   {43},
   {26},
   {35},
   {30},
   {40, 49},
   {36, 45},
   {49, 58, 44},
   {56, 34},
   {57, 36},
   {54},
   {61},
   {59},
   {39},
   {41},
   {43},
   {44},
   {43},
   {42},
   {58},
   {55},
   {48},
   {56},
   {46},
   {47},
   {52},
   {52},
   {59},
   {51},
   {53, 55},
   {53},
   {56, 57, 54},
   {60, 61},
   {60},
   {59},
   {58},
   {61},
   {62},
   {62},
   {62},
   {  } ];

deadline = array2d(1..62, 1..3, [7, 2, 4, 16, 5, 2, 16, 2, 5, 16, 3, 2, 20, 2, 4, 34, 0, 1, 37, 1, 4, 40, 3, 3, 43, 1, 4, 44, 2, 0, 46, 5, 0, 47, 3, 3, 52, 4, 3, 53, 4, 0, 72, 4, 5, 73, 2, 0, 74, 0, 5, 77, 5, 3, 78, 1, 0, 81, 4, 2, 82, 2, 4, 87, 4, 5, 92, 0, 0, 94, 1, 5, 97, 3, 5, 104, 5, 3, 104, 5, 1, 106, 1, 4, 108, 3, 1, 111, 1, 2, 111, 3, 4, 117, 4, 1, 118, 2, 2, 118, 5, 1, 118, 4, 3, 122, 0, 3, 125, 2, 5, 127, 3, 4, 141, 1, 2, 142, 2, 1, 142, 2, 0, 143, 4, 5, 145, 2, 0, 146, 5, 0, 152, 2, 3, 153, 0, 2, 154, 4, 2, 164, 0, 4, 164, 1, 1, 166, 0, 3, 171, 2, 3, 172, 4, 1, 178, 0, 0, 181, 5, 2, 191, 4, 1, 193, 4, 1, 194, 5, 0, 196, 5, 2, 196, 1, 4, 199, 1, 5, 199, 0, 2, 200, 0, 0]);
