n_res = 4;
rc = [ 38, 34, 26, 36 ];
n_tasks = 62;
d = [0, 8, 7, 6, 7, 7, 2, 4, 6, 7, 10, 4, 6, 1, 3, 1, 9, 4, 7, 10, 8, 5, 10, 4, 4, 3, 6, 2, 9, 5, 6, 9, 4, 7, 4, 3, 6, 9, 3, 8, 7, 3, 3, 1, 4, 8, 10, 7, 3, 4, 5, 4, 5, 10, 8, 9, 8, 6, 9, 8, 5, 0];
rr = array2d(1..4, 1..62, [0, 0, 0, 3, 1, 0, 0, 0, 0, 9, 0, 6, 0, 2, 0, 3, 0, 6, 0, 0, 0, 0, 8, 0, 6, 0, 0, 0, 8, 0, 4, 0, 0, 0, 0, 0, 3, 0, 0, 0, 6, 6, 0, 8, 7, 0, 9, 7, 0, 5, 0, 9, 7, 8, 4, 8, 9, 1, 3, 8, 0, 0, 0, 1, 0, 0, 5, 0, 0, 4, 0, 3, 2, 0, 0, 0, 0, 10, 0, 0, 3, 10, 10, 4, 5, 5, 1, 1, 1, 0, 0, 9, 1, 0, 0, 0, 0, 9, 0, 1, 0, 0, 3, 10, 5, 9, 10, 0, 4, 7, 0, 2, 3, 3, 0, 3, 9, 0, 0, 2, 1, 9, 6, 0, 0, 7, 0, 0, 0, 6, 5, 7, 0, 3, 0, 0, 7, 6, 0, 0, 5, 0, 0, 7, 9, 0, 0, 5, 2, 0, 0, 3, 6, 6, 10, 0, 7, 0, 0, 1, 0, 7, 0, 8, 0, 3, 0, 0, 2, 0, 0, 0, 1, 0, 0, 0, 0, 0, 6, 2, 0, 3, 0, 0, 6, 0, 0, 0, 5, 0, 5, 0, 0, 6, 1, 10, 0, 0, 0, 2, 5, 1, 0, 9, 9, 0, 7, 6, 8, 0, 0, 0, 0, 1, 0, 10, 8, 4, 0, 6, 10, 3, 0, 0, 7, 2, 9, 0, 7, 0, 5, 2, 0, 5, 2, 0, 1, 0, 0, 0, 0, 0, 0, 7, 9, 0, 0, 0]);

suc = [
   {2, 3, 4},
   {16, 10, 5},
   {8, 9, 6},
   {7},
   {24, 46, 23},
   {19, 11, 20},
   {42, 51, 14},
   {21, 13, 22},
   {26, 43, 44},
   {25, 26, 15},
   {34, 12, 45},
   {16, 35, 39},
   {17, 26, 31},
   {40, 53},
   {53, 45, 29},
   {41, 18, 23},
   {32, 27},
   {48, 59, 29},
   {27, 23},
   {24, 21, 38},
   {25, 29, 30},
   {33, 35, 37},
   {43, 61},
   {40, 33, 49},
   {34, 27, 44},
   {59, 28, 38},
   {49, 28, 37},
   {42, 36},
   {51},
   {57, 55, 31},
   {58, 37, 39},
   {35, 36, 46},
   {42, 36, 39},
   {40, 55, 47},
   {49},
   {45},
   {56},
   {54, 46, 47},
   {41, 51},
   {50},
   {43, 44},
   {48, 54},
   {48},
   {60},
   {50, 47},
   {50, 52},
   {57, 52},
   {60},
   {52, 53, 55},
   {60},
   {61},
   {58},
   {56, 54},
   {57},
   {56},
   {59},
   {58},
   {61},
   {62},
   {62},
   {62},
   {  } ];

deadline = array2d(1..62, 1..3, [2, 5, 4, 3, 0, 4, 10, 1, 4, 12, 4, 2, 15, 1, 3, 15, 2, 4, 16, 0, 1, 24, 0, 4, 28, 3, 0, 30, 5, 2, 32, 4, 0, 35, 2, 3, 46, 1, 1, 52, 4, 0, 55, 3, 5, 55, 5, 0, 67, 1, 5, 72, 4, 4, 73, 5, 4, 79, 1, 1, 80, 4, 0, 80, 0, 4, 81, 1, 1, 82, 3, 4, 82, 5, 2, 85, 5, 2, 86, 4, 5, 90, 2, 1, 93, 1, 2, 93, 4, 0, 96, 4, 0, 100, 3, 4, 102, 5, 5, 105, 5, 5, 116, 0, 0, 117, 1, 5, 117, 5, 3, 122, 1, 3, 124, 1, 4, 126, 3, 2, 130, 0, 3, 139, 0, 1, 142, 2, 0, 147, 1, 4, 147, 3, 4, 151, 3, 0, 159, 2, 0, 159, 2, 4, 159, 4, 5, 160, 3, 3, 165, 4, 1, 166, 1, 1, 167, 5, 3, 170, 5, 0, 184, 1, 1, 186, 2, 5, 186, 0, 0, 187, 4, 2, 189, 4, 3, 189, 1, 5, 191, 1, 4, 195, 5, 4]);
