n_res = 4;
rc = [ 25, 25, 30, 30 ];
n_tasks = 62;
d = [0, 3, 10, 6, 7, 10, 5, 2, 9, 1, 2, 7, 10, 3, 9, 7, 10, 2, 3, 2, 2, 2, 3, 3, 4, 5, 5, 6, 8, 8, 1, 2, 8, 9, 5, 2, 4, 4, 3, 5, 1, 5, 5, 5, 1, 3, 2, 2, 3, 2, 1, 7, 3, 1, 8, 2, 7, 2, 6, 2, 3, 0];
rr = array2d(1..4, 1..62, [0, 7, 2, 6, 0, 1, 9, 3, 5, 2, 0, 0, 9, 0, 4, 8, 8, 3, 3, 5, 6, 3, 2, 8, 1, 2, 0, 0, 8, 1, 3, 3, 9, 0, 7, 3, 4, 0, 7, 6, 10, 1, 2, 1, 6, 3, 5, 7, 0, 4, 1, 3, 2, 0, 0, 0, 4, 10, 10, 5, 10, 0, 0, 7, 0, 0, 5, 2, 8, 2, 0, 5, 3, 7, 7, 4, 0, 6, 9, 3, 0, 6, 0, 7, 4, 5, 0, 10, 2, 7, 1, 3, 0, 3, 0, 4, 9, 4, 0, 10, 0, 1, 1, 0, 0, 3, 8, 9, 9, 5, 0, 0, 6, 5, 6, 7, 10, 10, 3, 8, 2, 1, 7, 0, 0, 8, 9, 0, 7, 0, 10, 0, 1, 4, 8, 3, 0, 1, 2, 0, 0, 2, 9, 0, 8, 9, 6, 7, 0, 6, 2, 0, 7, 10, 2, 6, 0, 3, 5, 7, 8, 2, 7, 3, 10, 10, 9, 7, 8, 0, 3, 8, 0, 4, 0, 4, 6, 0, 0, 7, 10, 0, 10, 0, 0, 0, 0, 7, 7, 3, 0, 5, 2, 0, 6, 9, 9, 10, 4, 8, 8, 10, 6, 6, 0, 3, 10, 1, 0, 3, 9, 9, 7, 6, 7, 7, 7, 4, 7, 0, 5, 6, 0, 8, 8, 0, 0, 5, 2, 3, 6, 0, 5, 2, 2, 0, 9, 7, 0, 3, 3, 0, 5, 0, 0, 2, 9, 0]);

suc = [
   {2, 3, 4},
   {54, 44, 14},
   {8, 21, 7},
   {12, 5, 6},
   {17, 27, 31},
   {16, 48, 11},
   {10, 26, 39},
   {9, 20, 13},
   {24, 29, 38},
   {33, 42, 15},
   {24, 32, 45},
   {19, 36, 38},
   {16, 43, 19},
   {48, 22, 30},
   {24, 18, 35},
   {56, 35, 30},
   {33, 41},
   {43, 28, 30},
   {44, 22},
   {27, 52, 22},
   {32, 40, 52},
   {25, 31, 23},
   {51, 28, 37},
   {25, 28, 46},
   {51},
   {32, 34},
   {33, 34, 37},
   {53, 55},
   {50, 39},
   {61, 45},
   {42, 35, 47},
   {37, 54},
   {48, 57, 43},
   {40, 50, 47},
   {60},
   {44, 39},
   {41, 57},
   {49},
   {40, 51, 46},
   {41, 42, 45},
   {59},
   {58, 53},
   {50},
   {49, 53, 47},
   {55},
   {49, 57},
   {56},
   {59},
   {52},
   {54},
   {60},
   {56, 55},
   {61},
   {58},
   {60},
   {58},
   {59},
   {61},
   {62},
   {62},
   {62},
   {  } ];

deadline = array2d(1..62, 1..3, [1, 1, 5, 10, 2, 3, 13, 0, 5, 14, 3, 5, 18, 3, 3, 18, 5, 3, 20, 1, 5, 20, 0, 3, 27, 2, 5, 30, 0, 2, 30, 1, 0, 30, 0, 1, 36, 4, 0, 44, 5, 0, 45, 0, 1, 45, 2, 1, 48, 2, 1, 50, 1, 4, 52, 4, 2, 53, 0, 4, 56, 3, 1, 57, 0, 3, 58, 0, 0, 59, 1, 5, 62, 4, 4, 63, 0, 3, 65, 5, 0, 67, 2, 0, 72, 0, 2, 74, 2, 1, 75, 2, 3, 78, 1, 2, 80, 2, 1, 83, 1, 3, 85, 5, 2, 85, 5, 0, 86, 3, 3, 90, 5, 0, 93, 5, 4, 98, 5, 1, 98, 5, 1, 109, 1, 1, 110, 2, 1, 114, 5, 1, 117, 2, 3, 117, 4, 2, 118, 2, 4, 118, 4, 4, 119, 3, 4, 120, 5, 3, 121, 5, 4, 121, 1, 2, 122, 1, 1, 124, 1, 4, 124, 2, 2, 127, 4, 2, 128, 0, 3, 130, 3, 0, 132, 2, 5, 134, 1, 0, 135, 1, 2, 136, 5, 1]);
