n_res = 4;
rc = [ 30, 28, 36, 44 ];
n_tasks = 62;
d = [0, 8, 8, 4, 1, 5, 2, 9, 8, 9, 2, 5, 2, 8, 1, 9, 5, 9, 6, 2, 5, 2, 1, 3, 1, 9, 4, 7, 6, 7, 3, 4, 6, 5, 8, 7, 6, 6, 1, 10, 3, 4, 2, 10, 4, 3, 6, 3, 1, 3, 6, 10, 10, 4, 6, 1, 5, 6, 7, 7, 5, 0];
rr = array2d(1..4, 1..62, [0, 9, 2, 1, 2, 9, 4, 0, 8, 0, 2, 0, 0, 7, 4, 0, 7, 0, 0, 1, 0, 0, 8, 3, 0, 0, 0, 0, 0, 2, 8, 0, 8, 0, 4, 8, 9, 4, 5, 7, 4, 0, 1, 0, 0, 0, 3, 0, 4, 0, 8, 0, 8, 0, 3, 0, 0, 0, 8, 6, 0, 0, 0, 0, 0, 9, 0, 0, 0, 8, 0, 9, 0, 5, 0, 0, 0, 0, 5, 7, 2, 0, 10, 0, 0, 0, 0, 9, 5, 0, 0, 0, 1, 0, 4, 0, 0, 0, 7, 8, 0, 0, 5, 0, 0, 3, 10, 10, 0, 3, 0, 1, 4, 6, 0, 0, 8, 9, 0, 0, 6, 2, 4, 0, 0, 1, 8, 0, 5, 1, 0, 0, 0, 10, 6, 0, 9, 5, 8, 0, 0, 0, 9, 0, 9, 1, 4, 0, 3, 0, 0, 0, 3, 6, 0, 0, 0, 0, 3, 0, 4, 0, 0, 3, 2, 0, 6, 3, 0, 0, 0, 5, 0, 0, 0, 0, 6, 0, 5, 0, 10, 0, 0, 0, 0, 0, 0, 5, 3, 1, 0, 4, 0, 0, 3, 0, 4, 10, 4, 1, 7, 10, 0, 0, 0, 4, 7, 0, 6, 0, 5, 3, 0, 1, 5, 9, 0, 3, 0, 7, 6, 0, 0, 6, 10, 7, 5, 2, 0, 10, 0, 5, 0, 0, 7, 0, 8, 5, 0, 3, 0, 7, 4, 8, 0, 0, 0, 0]);

suc = [
   {2, 3, 4},
   {9, 5, 7},
   {56, 34},
   {50, 6},
   {10},
   {18, 20, 14},
   {8, 10, 40},
   {11},
   {51, 12},
   {16, 35},
   {57, 13, 15},
   {17, 26, 22},
   {31},
   {23},
   {25, 30, 33},
   {27, 21},
   {55},
   {19, 28, 44},
   {24},
   {59, 37},
   {59, 38, 23},
   {47},
   {39},
   {34},
   {38},
   {32, 49, 29},
   {29},
   {46},
   {60},
   {41},
   {50},
   {39},
   {48},
   {36, 52},
   {39},
   {47},
   {40, 42},
   {43},
   {41, 45},
   {54},
   {53},
   {58},
   {49, 45},
   {48},
   {48, 53},
   {52, 54},
   {54},
   {58},
   {55},
   {51},
   {52},
   {58},
   {55},
   {60},
   {61},
   {57},
   {60},
   {61},
   {62},
   {62},
   {62},
   {  } ];

deadline = array2d(1..62, 1..3, [3, 4, 2, 6, 4, 2, 6, 1, 4, 7, 0, 4, 10, 1, 5, 12, 3, 5, 12, 2, 3, 13, 3, 2, 14, 3, 3, 18, 3, 3, 23, 4, 3, 23, 1, 4, 24, 0, 2, 26, 3, 3, 28, 0, 3, 35, 2, 2, 41, 2, 0, 46, 2, 5, 47, 1, 2, 48, 3, 5, 48, 2, 2, 49, 1, 0, 52, 0, 5, 53, 3, 3, 57, 2, 1, 63, 2, 3, 65, 0, 0, 67, 2, 1, 69, 0, 4, 70, 4, 5, 77, 1, 0, 82, 3, 0, 83, 3, 4, 89, 3, 0, 89, 0, 2, 93, 0, 3, 94, 4, 4, 101, 2, 1, 102, 0, 0, 102, 2, 5, 104, 4, 1, 104, 2, 4, 108, 1, 1, 110, 2, 4, 110, 5, 4, 112, 2, 4, 115, 0, 1, 117, 1, 2, 119, 2, 0, 121, 0, 4, 126, 0, 1, 126, 4, 4, 136, 3, 1, 139, 4, 3, 144, 1, 4, 148, 4, 4, 153, 5, 3, 155, 2, 2, 160, 0, 4, 162, 5, 3, 164, 4, 1, 165, 3, 0]);
