n_res = 4;
rc = [ 30, 23, 20, 31 ];
n_tasks = 62;
d = [0, 4, 1, 7, 1, 8, 3, 6, 3, 5, 4, 10, 10, 6, 6, 10, 4, 1, 6, 5, 6, 2, 4, 2, 7, 6, 3, 2, 1, 7, 9, 6, 3, 3, 10, 10, 6, 7, 9, 4, 7, 6, 8, 10, 1, 9, 3, 3, 9, 1, 4, 10, 4, 4, 5, 9, 7, 10, 2, 5, 2, 0];
rr = array2d(1..4, 1..62, [0, 0, 5, 0, 0, 9, 10, 0, 7, 8, 0, 0, 0, 7, 8, 0, 1, 0, 10, 7, 0, 0, 0, 0, 0, 10, 1, 1, 0, 0, 0, 10, 0, 0, 2, 6, 0, 0, 7, 9, 5, 10, 7, 0, 9, 0, 9, 0, 4, 7, 5, 0, 7, 7, 0, 1, 1, 0, 4, 0, 0, 0, 0, 0, 0, 5, 0, 0, 8, 7, 0, 3, 0, 0, 8, 4, 0, 3, 3, 8, 0, 0, 0, 10, 3, 9, 2, 0, 0, 0, 10, 0, 0, 0, 5, 2, 0, 4, 1, 0, 8, 0, 0, 0, 0, 9, 0, 7, 0, 6, 0, 0, 6, 0, 0, 4, 9, 0, 5, 1, 4, 5, 0, 0, 0, 10, 1, 0, 3, 0, 0, 0, 5, 8, 6, 0, 0, 1, 0, 0, 3, 5, 0, 0, 8, 0, 0, 0, 0, 0, 0, 6, 10, 9, 0, 3, 4, 1, 2, 0, 0, 3, 1, 7, 9, 6, 2, 0, 0, 0, 0, 8, 6, 8, 5, 2, 8, 0, 6, 0, 0, 7, 8, 0, 8, 0, 0, 10, 9, 0, 0, 5, 0, 0, 0, 0, 0, 8, 10, 5, 1, 5, 0, 4, 1, 10, 0, 7, 0, 0, 0, 10, 0, 0, 0, 6, 7, 0, 8, 2, 7, 0, 0, 2, 0, 5, 1, 3, 0, 0, 0, 0, 1, 0, 7, 6, 0, 0, 0, 0, 8, 0, 3, 10, 0, 0, 0, 0]);

suc = [
   {2, 3, 4},
   {10, 5, 6},
   {9, 14, 7},
   {16, 40, 11},
   {24, 19, 53},
   {25, 26, 36},
   {8, 16, 15},
   {11, 12, 13},
   {41, 20, 23},
   {40, 18, 37},
   {41},
   {23},
   {17},
   {32, 55},
   {44, 21, 31},
   {58},
   {18, 43},
   {51},
   {22},
   {33, 55},
   {36, 47},
   {32, 51},
   {30},
   {32, 34, 28},
   {44, 52, 47},
   {33, 27, 29},
   {48, 35, 61},
   {46},
   {34, 42},
   {46, 38},
   {39},
   {56, 44},
   {35, 37, 38},
   {45},
   {49, 54},
   {42, 50, 52},
   {48},
   {60},
   {60},
   {49, 50},
   {42, 58},
   {49, 51},
   {48},
   {59},
   {52, 46},
   {57, 47},
   {55},
   {53},
   {57},
   {56, 53},
   {61},
   {57, 54},
   {60, 54},
   {58},
   {56},
   {61},
   {59},
   {59},
   {62},
   {62},
   {62},
   {  } ];

deadline = array2d(1..62, 1..3, [5, 2, 4, 7, 4, 2, 8, 3, 0, 12, 3, 5, 14, 2, 0, 15, 4, 4, 21, 5, 1, 24, 2, 4, 28, 2, 2, 31, 1, 5, 38, 4, 0, 39, 5, 0, 40, 1, 2, 49, 3, 1, 51, 5, 4, 51, 2, 4, 52, 3, 3, 54, 5, 5, 54, 4, 3, 54, 4, 0, 56, 3, 2, 56, 5, 2, 57, 5, 4, 59, 1, 5, 61, 3, 0, 64, 0, 4, 65, 3, 1, 67, 5, 3, 68, 5, 1, 69, 4, 4, 70, 3, 4, 71, 3, 1, 75, 2, 1, 76, 0, 1, 77, 0, 4, 77, 1, 2, 78, 0, 3, 80, 4, 0, 91, 4, 4, 94, 3, 4, 96, 2, 0, 98, 4, 2, 101, 2, 0, 103, 3, 1, 103, 4, 3, 107, 1, 1, 109, 5, 5, 113, 1, 4, 114, 3, 1, 117, 0, 5, 120, 4, 3, 126, 5, 1, 127, 4, 2, 135, 1, 4, 136, 5, 1, 140, 4, 1, 141, 1, 2, 143, 0, 0, 144, 5, 5, 144, 3, 5, 144, 4, 1, 145, 5, 3]);
