n_res = 4;
rc = [ 52, 41, 49, 49 ];
n_tasks = 62;
d = [0, 6, 4, 4, 3, 9, 9, 1, 1, 9, 5, 4, 7, 6, 8, 9, 7, 7, 2, 2, 7, 4, 10, 10, 8, 9, 4, 9, 4, 6, 10, 5, 10, 1, 2, 4, 3, 3, 10, 7, 10, 2, 8, 10, 9, 5, 4, 10, 3, 7, 8, 9, 3, 3, 9, 10, 1, 10, 10, 6, 7, 0];
rr = array2d(1..4, 1..62, [0, 4, 7, 1, 1, 5, 9, 8, 7, 3, 2, 9, 10, 5, 9, 3, 6, 6, 6, 7, 1, 4, 8, 3, 1, 8, 10, 1, 8, 8, 10, 5, 2, 6, 2, 10, 1, 5, 2, 3, 7, 3, 1, 7, 4, 8, 3, 6, 2, 5, 6, 4, 10, 8, 7, 8, 5, 6, 8, 1, 3, 0, 0, 2, 1, 6, 2, 9, 3, 7, 4, 1, 6, 7, 3, 1, 6, 2, 2, 10, 10, 5, 3, 10, 2, 3, 9, 2, 7, 8, 2, 3, 6, 5, 1, 1, 4, 9, 10, 5, 1, 1, 5, 9, 4, 8, 6, 3, 6, 1, 5, 1, 4, 5, 2, 7, 10, 4, 5, 4, 10, 9, 8, 0, 0, 2, 6, 8, 1, 9, 4, 5, 9, 1, 5, 10, 1, 7, 1, 7, 9, 9, 5, 7, 4, 3, 6, 5, 8, 10, 9, 1, 3, 7, 1, 1, 5, 4, 6, 9, 3, 2, 2, 6, 5, 8, 2, 5, 4, 4, 7, 10, 8, 6, 7, 1, 3, 7, 2, 6, 7, 7, 9, 4, 5, 0, 0, 8, 10, 1, 3, 3, 2, 10, 9, 8, 5, 3, 5, 1, 6, 4, 3, 2, 9, 7, 2, 8, 2, 5, 8, 1, 7, 10, 3, 3, 9, 6, 10, 4, 3, 6, 8, 6, 8, 8, 2, 4, 7, 8, 9, 4, 6, 4, 10, 2, 10, 3, 8, 1, 10, 10, 9, 3, 1, 6, 9, 0]);

suc = [
   {2, 3, 4},
   {8, 5, 6},
   {20, 7},
   {24},
   {10, 18, 14},
   {9},
   {9, 28, 30},
   {18, 11, 12},
   {40, 13, 15},
   {40, 55},
   {26, 19},
   {27, 23},
   {16, 17, 45},
   {29, 22},
   {25, 53, 41},
   {24, 43, 37},
   {33, 42},
   {30, 39},
   {34, 27, 46},
   {42, 45, 21},
   {30},
   {26},
   {35, 28},
   {60, 53},
   {49, 36, 52},
   {32},
   {59},
   {51, 29, 31},
   {32, 47},
   {54, 38},
   {37, 46, 39},
   {33},
   {50, 36},
   {41},
   {50, 51, 36},
   {57},
   {44, 61},
   {41, 49},
   {47},
   {52, 53},
   {56, 60},
   {48, 44, 52},
   {50},
   {49},
   {58},
   {54, 55},
   {55},
   {51},
   {58},
   {56},
   {59, 54},
   {58, 59},
   {56},
   {61},
   {57},
   {57},
   {61},
   {60},
   {62},
   {62},
   {62},
   {  } ];

deadline = array2d(1..62, 1..3, [3, 5, 5, 11, 2, 1, 12, 4, 3, 14, 4, 3, 21, 4, 3, 24, 5, 5, 26, 3, 0, 30, 5, 2, 31, 0, 4, 32, 3, 1, 35, 3, 1, 38, 1, 5, 41, 4, 2, 44, 5, 3, 44, 4, 5, 44, 1, 5, 49, 4, 1, 49, 3, 5, 55, 1, 0, 58, 5, 3, 58, 2, 3, 58, 3, 4, 67, 2, 1, 67, 5, 2, 67, 2, 0, 69, 2, 2, 73, 2, 3, 82, 3, 5, 83, 4, 0, 83, 0, 4, 91, 2, 4, 93, 4, 1, 95, 3, 1, 96, 0, 3, 98, 4, 1, 100, 2, 3, 104, 2, 2, 107, 2, 0, 108, 4, 3, 113, 3, 4, 115, 0, 4, 122, 4, 3, 130, 1, 3, 145, 2, 5, 147, 3, 0, 148, 0, 5, 148, 0, 1, 151, 0, 2, 154, 4, 4, 160, 4, 0, 161, 2, 2, 162, 1, 3, 168, 1, 3, 171, 1, 0, 171, 5, 2, 172, 0, 2, 173, 1, 3, 176, 2, 4, 177, 0, 3, 178, 4, 4, 182, 3, 1, 184, 1, 2]);
