n_res = 4;
rc = [ 23, 24, 34, 29 ];
n_tasks = 62;
d = [0, 3, 5, 6, 6, 8, 2, 4, 9, 5, 2, 9, 1, 1, 2, 3, 4, 9, 8, 7, 6, 3, 10, 1, 8, 2, 2, 4, 10, 9, 4, 8, 7, 5, 9, 6, 8, 7, 10, 3, 4, 3, 3, 6, 6, 9, 1, 4, 7, 6, 3, 5, 3, 1, 7, 8, 2, 2, 1, 7, 9, 0];
rr = array2d(1..4, 1..62, [0, 0, 9, 1, 6, 7, 8, 0, 6, 0, 1, 10, 5, 2, 8, 1, 8, 0, 10, 1, 1, 0, 0, 9, 4, 0, 0, 0, 6, 2, 3, 1, 2, 8, 0, 5, 0, 0, 8, 9, 0, 10, 10, 5, 5, 0, 8, 7, 5, 5, 0, 5, 0, 3, 0, 2, 7, 6, 3, 0, 6, 0, 0, 8, 8, 6, 0, 5, 8, 6, 5, 0, 8, 0, 0, 10, 10, 3, 0, 0, 5, 9, 10, 0, 10, 3, 9, 6, 2, 4, 0, 0, 6, 1, 9, 4, 4, 4, 5, 0, 0, 2, 0, 2, 2, 1, 5, 3, 1, 0, 8, 0, 3, 10, 0, 1, 2, 0, 0, 0, 7, 7, 3, 0, 0, 8, 5, 10, 3, 4, 0, 3, 1, 2, 0, 10, 3, 1, 0, 9, 1, 0, 5, 9, 5, 3, 4, 4, 3, 3, 1, 7, 1, 10, 7, 0, 8, 8, 4, 5, 8, 0, 7, 9, 0, 9, 4, 0, 1, 2, 8, 8, 0, 4, 6, 4, 0, 8, 7, 6, 3, 4, 0, 2, 6, 0, 0, 7, 2, 5, 9, 8, 1, 5, 7, 10, 2, 3, 0, 8, 4, 0, 0, 6, 6, 6, 10, 9, 8, 8, 5, 5, 7, 2, 0, 0, 0, 0, 6, 8, 3, 0, 5, 1, 9, 5, 4, 8, 8, 7, 9, 7, 0, 0, 10, 7, 2, 0, 2, 1, 10, 5, 6, 0, 3, 2, 2, 0]);

suc = [
   {2, 3, 4},
   {12, 6, 7},
   {33, 5, 47},
   {54, 28, 22},
   {9, 30},
   {19, 13, 39},
   {8, 10, 11},
   {50, 14, 15},
   {16, 17, 35},
   {23},
   {41, 34, 42},
   {46, 30, 39},
   {31},
   {16, 26, 32},
   {20, 28},
   {40, 57, 55},
   {24, 18, 38},
   {51, 20},
   {33, 34, 21},
   {42, 29},
   {24, 27, 52},
   {27, 36, 37},
   {35, 36, 30},
   {48, 25, 49},
   {40, 28, 29},
   {42, 27, 39},
   {53, 29, 47},
   {37, 31},
   {60, 31},
   {61, 38},
   {44},
   {34, 37, 38},
   {56, 41},
   {40, 57, 46},
   {41, 44, 45},
   {50, 53, 46},
   {44, 45},
   {43, 52, 45},
   {48, 43},
   {43, 54},
   {50},
   {48, 49},
   {56},
   {61},
   {51, 53, 55},
   {49, 47},
   {58, 51},
   {57, 54},
   {58},
   {58, 52},
   {56},
   {55},
   {59},
   {61},
   {59},
   {60},
   {60},
   {59},
   {62},
   {62},
   {62},
   {  } ];

deadline = array2d(1..62, 1..3, [6, 4, 2, 11, 0, 4, 13, 0, 5, 13, 4, 5, 14, 5, 0, 20, 3, 2, 23, 1, 3, 25, 2, 2, 26, 3, 5, 28, 4, 0, 30, 4, 2, 33, 3, 5, 34, 4, 0, 34, 3, 2, 37, 5, 3, 38, 3, 4, 45, 5, 4, 47, 4, 4, 49, 2, 0, 56, 5, 2, 56, 4, 4, 62, 4, 1, 67, 0, 4, 68, 3, 0, 71, 1, 0, 72, 4, 3, 72, 4, 1, 78, 5, 4, 81, 5, 5, 83, 1, 0, 83, 3, 5, 84, 3, 1, 84, 5, 3, 85, 4, 4, 86, 5, 2, 87, 2, 2, 91, 1, 0, 93, 0, 3, 94, 0, 4, 95, 1, 1, 98, 4, 1, 106, 4, 5, 107, 0, 0, 112, 4, 4, 114, 2, 3, 119, 1, 3, 120, 1, 4, 120, 3, 3, 121, 0, 3, 126, 1, 5, 133, 2, 3, 139, 1, 0, 140, 1, 3, 143, 2, 4, 144, 2, 2, 149, 2, 2, 151, 0, 1, 153, 0, 5, 158, 1, 0, 159, 4, 0, 162, 0, 5, 163, 1, 0]);
