n_res = 4;
rc = [ 61, 69, 69, 94 ];
n_tasks = 62;
d = [0, 8, 1, 2, 1, 1, 3, 4, 5, 1, 9, 10, 5, 3, 2, 2, 5, 7, 8, 1, 2, 10, 2, 9, 7, 8, 10, 9, 3, 9, 10, 4, 6, 9, 1, 9, 6, 3, 8, 5, 2, 6, 9, 5, 10, 1, 8, 5, 5, 9, 2, 5, 8, 7, 1, 4, 1, 2, 7, 1, 2, 0];
rr = array2d(1..4, 1..62, [0, 8, 4, 5, 2, 6, 9, 9, 1, 2, 6, 7, 8, 6, 6, 2, 3, 1, 5, 5, 1, 5, 1, 5, 4, 2, 9, 4, 8, 2, 1, 7, 7, 9, 6, 5, 8, 5, 3, 2, 2, 9, 2, 2, 3, 10, 9, 8, 8, 10, 3, 4, 7, 2, 9, 10, 4, 8, 7, 9, 1, 0, 0, 5, 2, 8, 2, 9, 1, 6, 6, 1, 9, 6, 7, 3, 7, 3, 6, 4, 3, 5, 5, 6, 8, 1, 9, 3, 3, 10, 3, 1, 5, 2, 10, 6, 2, 10, 7, 8, 6, 5, 3, 4, 1, 10, 6, 3, 4, 4, 3, 5, 4, 5, 5, 2, 4, 1, 9, 7, 2, 3, 6, 0, 0, 1, 4, 4, 9, 1, 4, 8, 1, 10, 5, 6, 3, 4, 6, 1, 2, 5, 7, 2, 6, 4, 3, 5, 10, 9, 9, 8, 10, 1, 9, 6, 1, 10, 7, 5, 5, 7, 9, 9, 4, 7, 10, 5, 1, 9, 4, 8, 9, 5, 10, 10, 2, 2, 8, 3, 6, 5, 7, 5, 1, 0, 0, 8, 3, 9, 6, 7, 5, 8, 10, 1, 10, 10, 7, 8, 8, 5, 8, 8, 4, 1, 3, 10, 9, 7, 10, 7, 8, 8, 3, 9, 6, 8, 3, 5, 7, 7, 2, 2, 2, 6, 7, 6, 7, 10, 5, 10, 5, 6, 10, 6, 2, 6, 3, 5, 7, 9, 7, 9, 7, 7, 8, 0]);

suc = [
   {2, 3, 4},
   {16, 18, 6},
   {5},
   {11, 12},
   {36, 29, 7},
   {22, 14, 15},
   {8, 32, 20},
   {9, 10},
   {19},
   {49},
   {46, 13, 30},
   {25, 26},
   {57},
   {17, 61},
   {34},
   {56, 57},
   {44, 45},
   {24, 38},
   {58, 39, 23},
   {26, 21},
   {40, 47},
   {42, 27},
   {53},
   {28},
   {37},
   {33, 35},
   {54},
   {37},
   {43, 60, 31},
   {56},
   {56},
   {52},
   {48},
   {43},
   {41},
   {58},
   {58},
   {42},
   {52},
   {42},
   {45},
   {50, 44},
   {44, 53},
   {49},
   {48, 50},
   {48, 53},
   {51},
   {52},
   {59},
   {55},
   {61, 54},
   {54},
   {61},
   {55},
   {57},
   {59},
   {60},
   {59},
   {62},
   {62},
   {62},
   {  } ];

deadline = array2d(1..62, 1..3, [5, 2, 2, 6, 4, 3, 7, 1, 4, 7, 0, 5, 8, 0, 0, 9, 5, 1, 10, 0, 1, 17, 2, 0, 19, 1, 4, 19, 5, 3, 20, 3, 4, 21, 3, 3, 23, 5, 2, 28, 4, 0, 34, 1, 5, 34, 0, 5, 35, 0, 5, 41, 3, 0, 45, 5, 1, 46, 4, 5, 47, 3, 2, 48, 5, 5, 49, 2, 5, 50, 4, 2, 52, 2, 3, 52, 3, 3, 53, 2, 5, 61, 1, 2, 61, 4, 4, 63, 4, 3, 68, 5, 2, 69, 4, 0, 69, 1, 2, 76, 0, 1, 76, 0, 0, 83, 3, 0, 83, 4, 4, 83, 4, 5, 84, 2, 2, 86, 5, 1, 88, 0, 0, 92, 5, 2, 94, 5, 5, 95, 0, 1, 100, 5, 0, 101, 0, 1, 101, 2, 4, 101, 5, 0, 105, 1, 5, 107, 4, 5, 108, 2, 0, 108, 1, 1, 114, 2, 3, 121, 5, 4, 121, 3, 3, 124, 3, 0, 124, 0, 3, 125, 2, 1, 126, 2, 4, 130, 0, 2, 131, 1, 4, 131, 1, 5]);
