n_res = 4;
rc = [ 27, 18, 22, 24 ];
n_tasks = 62;
d = [0, 10, 8, 8, 10, 10, 5, 9, 1, 6, 3, 4, 9, 1, 6, 10, 3, 8, 6, 7, 7, 3, 1, 6, 2, 3, 5, 5, 6, 9, 8, 9, 7, 8, 2, 9, 3, 9, 7, 3, 7, 3, 5, 7, 4, 9, 10, 6, 8, 9, 8, 5, 8, 8, 2, 8, 2, 9, 9, 2, 8, 0];
rr = array2d(1..4, 1..62, [0, 0, 0, 6, 0, 4, 0, 8, 0, 0, 0, 0, 0, 0, 0, 0, 1, 0, 0, 4, 0, 2, 0, 0, 0, 2, 0, 0, 0, 0, 0, 2, 8, 5, 0, 7, 0, 0, 0, 0, 9, 0, 0, 5, 2, 0, 0, 0, 0, 6, 0, 0, 0, 2, 0, 0, 6, 0, 0, 0, 5, 0, 0, 0, 0, 0, 0, 0, 0, 0, 0, 0, 0, 7, 0, 0, 0, 0, 0, 0, 0, 0, 0, 0, 0, 0, 2, 0, 2, 0, 0, 0, 0, 0, 0, 0, 0, 0, 6, 0, 8, 0, 0, 9, 7, 0, 0, 0, 0, 2, 0, 0, 0, 3, 10, 0, 0, 9, 0, 0, 0, 0, 0, 0, 0, 0, 3, 0, 0, 0, 0, 0, 0, 2, 0, 0, 0, 0, 8, 0, 0, 1, 0, 0, 8, 0, 0, 0, 0, 0, 0, 3, 0, 0, 0, 0, 0, 0, 0, 0, 0, 9, 0, 10, 0, 0, 0, 0, 0, 0, 4, 0, 0, 0, 0, 0, 0, 0, 8, 0, 0, 5, 2, 3, 0, 0, 0, 8, 0, 0, 2, 0, 6, 0, 10, 0, 7, 0, 2, 5, 0, 2, 0, 0, 9, 0, 0, 0, 5, 4, 0, 0, 0, 0, 7, 3, 8, 0, 0, 0, 8, 0, 0, 0, 0, 0, 0, 0, 0, 0, 0, 4, 0, 0, 6, 0, 7, 0, 0, 0, 0, 0, 0, 0, 0, 0, 0, 0]);

suc = [
   {2, 3, 4},
   {11, 15, 7},
   {34, 19, 5},
   {16, 24},
   {10, 12, 6},
   {8, 9},
   {17, 21},
   {44, 21},
   {18, 14},
   {46, 30, 23},
   {40, 13, 22},
   {18},
   {20, 36},
   {25, 59},
   {51},
   {26, 45},
   {43, 54, 31},
   {46},
   {45},
   {33},
   {42, 27},
   {32, 43},
   {44},
   {32, 38, 31},
   {47},
   {35},
   {28},
   {37, 29},
   {58, 45},
   {41},
   {34},
   {48, 39},
   {61},
   {39},
   {49},
   {42},
   {52},
   {44},
   {56},
   {61},
   {53},
   {47},
   {50},
   {53},
   {48},
   {53},
   {56},
   {56},
   {60},
   {59, 51},
   {52},
   {55},
   {55},
   {59, 55},
   {57, 60},
   {60},
   {58},
   {61},
   {62},
   {62},
   {62},
   {  } ];

deadline = array2d(1..62, 1..3, [4, 3, 5, 10, 4, 0, 18, 1, 3, 27, 0, 5, 27, 5, 3, 32, 1, 4, 47, 1, 2, 47, 2, 3, 48, 2, 3, 49, 1, 5, 53, 3, 2, 56, 2, 0, 58, 0, 0, 59, 3, 1, 61, 4, 1, 61, 5, 5, 62, 1, 1, 62, 1, 4, 63, 2, 0, 68, 1, 2, 79, 2, 4, 80, 0, 5, 84, 0, 3, 84, 4, 3, 88, 3, 3, 92, 3, 0, 96, 1, 0, 97, 2, 2, 99, 4, 4, 99, 4, 1, 106, 3, 3, 112, 2, 0, 113, 3, 5, 119, 4, 4, 119, 3, 5, 121, 2, 0, 124, 4, 0, 126, 3, 1, 138, 1, 3, 146, 1, 2, 147, 0, 5, 150, 2, 0, 152, 4, 5, 157, 2, 1, 159, 4, 0, 161, 5, 3, 162, 3, 3, 164, 5, 1, 169, 0, 3, 170, 2, 0, 179, 2, 0, 182, 0, 3, 183, 1, 5, 191, 3, 0, 193, 1, 2, 194, 1, 3, 194, 1, 2, 197, 0, 3, 198, 4, 5, 200, 4, 1, 202, 1, 5, 203, 4, 5]);
