n_res = 4;
rc = [ 36, 47, 59, 40 ];
n_tasks = 62;
d = [0, 7, 5, 6, 10, 8, 1, 1, 9, 4, 6, 1, 2, 10, 1, 4, 8, 7, 2, 4, 1, 6, 8, 4, 5, 5, 3, 2, 3, 7, 8, 2, 9, 10, 5, 5, 9, 3, 9, 8, 1, 6, 6, 5, 1, 7, 6, 6, 8, 4, 1, 4, 8, 3, 7, 6, 5, 1, 2, 8, 3, 0];
rr = array2d(1..4, 1..62, [0, 1, 0, 0, 0, 7, 10, 3, 5, 0, 0, 0, 0, 7, 8, 0, 7, 0, 8, 2, 0, 0, 0, 0, 0, 0, 0, 8, 3, 0, 1, 9, 2, 5, 0, 8, 0, 0, 0, 0, 0, 9, 0, 9, 5, 0, 0, 5, 1, 0, 4, 0, 7, 0, 10, 0, 0, 2, 1, 0, 4, 0, 0, 3, 0, 1, 5, 0, 8, 2, 0, 0, 0, 6, 10, 0, 9, 10, 5, 0, 0, 0, 2, 2, 6, 10, 0, 10, 1, 8, 10, 0, 0, 0, 0, 0, 0, 0, 7, 3, 0, 7, 9, 2, 7, 5, 10, 4, 0, 1, 8, 0, 1, 0, 0, 0, 10, 0, 3, 0, 0, 0, 0, 0, 0, 0, 0, 2, 0, 0, 0, 0, 2, 0, 0, 3, 1, 3, 2, 4, 9, 7, 2, 0, 0, 0, 8, 0, 10, 7, 0, 2, 6, 10, 10, 0, 0, 0, 10, 0, 0, 5, 2, 2, 7, 0, 0, 0, 0, 0, 9, 2, 3, 0, 4, 0, 1, 6, 0, 0, 7, 6, 0, 0, 0, 0, 0, 0, 2, 0, 7, 0, 0, 7, 7, 2, 5, 2, 0, 0, 8, 1, 0, 0, 2, 3, 7, 0, 9, 0, 0, 0, 6, 0, 0, 0, 0, 0, 0, 10, 0, 0, 4, 7, 5, 1, 0, 8, 7, 8, 0, 3, 6, 0, 0, 4, 0, 10, 8, 2, 8, 4, 0, 0, 0, 3, 0, 0]);

suc = [
   {2, 3, 4},
   {24, 5, 6},
   {8, 17, 11},
   {9, 10, 7},
   {33, 43},
   {35},
   {12, 13, 22},
   {18, 35},
   {40, 19},
   {25, 34, 15},
   {16, 14, 15},
   {32, 20, 23},
   {25, 26},
   {26, 53},
   {19},
   {29},
   {56, 27},
   {29, 52, 21},
   {31},
   {42},
   {25, 23},
   {44, 30, 39},
   {24, 42, 38},
   {48, 50},
   {28, 37, 46},
   {59},
   {32, 33, 35},
   {43, 36},
   {39},
   {41, 34},
   {41},
   {58},
   {49, 60},
   {54},
   {57, 50, 61},
   {42, 53, 45},
   {51, 44, 38},
   {53},
   {45},
   {51, 47},
   {49},
   {57, 50},
   {48, 61, 54},
   {58, 45},
   {49, 47},
   {47},
   {55},
   {56, 51},
   {61},
   {59, 54},
   {57},
   {56},
   {55},
   {55},
   {60},
   {60},
   {58},
   {59},
   {62},
   {62},
   {62},
   {  } ];

deadline = array2d(1..62, 1..3, [1, 5, 0, 2, 3, 3, 3, 3, 0, 6, 0, 4, 12, 0, 4, 16, 0, 5, 18, 3, 0, 22, 3, 4, 24, 3, 4, 27, 3, 1, 27, 2, 0, 28, 5, 5, 30, 1, 4, 31, 4, 0, 31, 5, 0, 32, 2, 4, 33, 3, 3, 33, 3, 5, 34, 2, 4, 34, 4, 5, 38, 0, 1, 40, 0, 1, 40, 5, 3, 47, 5, 4, 47, 0, 4, 47, 5, 3, 52, 4, 5, 53, 3, 5, 59, 4, 1, 69, 1, 4, 77, 3, 3, 79, 2, 5, 79, 1, 4, 81, 2, 2, 82, 4, 1, 88, 4, 2, 89, 5, 3, 89, 3, 1, 89, 5, 2, 90, 0, 4, 92, 1, 3, 95, 3, 3, 95, 1, 5, 95, 5, 4, 95, 0, 5, 98, 3, 0, 100, 0, 1, 101, 2, 0, 102, 4, 0, 104, 4, 2, 105, 1, 3, 107, 1, 0, 113, 1, 2, 115, 0, 4, 116, 2, 5, 121, 3, 0, 122, 0, 1, 123, 5, 5, 126, 4, 2, 134, 4, 4, 135, 1, 1, 135, 4, 1]);
