n_res = 4;
rc = [ 69, 62, 67, 69 ];
n_tasks = 62;
d = [0, 6, 8, 5, 7, 1, 2, 1, 9, 5, 6, 2, 7, 6, 7, 3, 5, 3, 6, 9, 3, 8, 7, 10, 5, 10, 8, 8, 5, 3, 8, 10, 9, 5, 5, 9, 1, 10, 7, 8, 10, 8, 9, 5, 2, 9, 5, 4, 7, 3, 7, 9, 2, 1, 10, 8, 9, 5, 3, 8, 4, 0];
rr = array2d(1..4, 1..62, [0, 10, 3, 6, 8, 9, 3, 9, 6, 10, 7, 8, 5, 6, 5, 2, 9, 2, 10, 6, 10, 9, 1, 4, 9, 7, 2, 4, 8, 8, 3, 5, 10, 3, 5, 4, 5, 2, 4, 1, 9, 4, 6, 3, 8, 1, 10, 2, 2, 2, 4, 8, 3, 3, 5, 3, 9, 2, 3, 8, 10, 0, 0, 2, 1, 3, 7, 5, 4, 1, 8, 6, 7, 5, 4, 9, 4, 7, 4, 5, 9, 8, 8, 5, 1, 8, 7, 9, 4, 8, 5, 10, 4, 3, 3, 9, 4, 5, 1, 4, 7, 8, 1, 10, 10, 5, 4, 4, 5, 6, 1, 3, 7, 10, 5, 7, 8, 9, 5, 2, 3, 8, 4, 0, 0, 4, 7, 7, 1, 4, 10, 7, 9, 4, 9, 5, 6, 2, 9, 6, 9, 1, 3, 5, 4, 8, 1, 10, 1, 1, 7, 8, 4, 7, 8, 5, 10, 2, 8, 8, 9, 3, 5, 1, 8, 4, 2, 3, 8, 5, 6, 5, 3, 1, 4, 5, 4, 4, 1, 4, 1, 6, 7, 4, 7, 0, 0, 4, 3, 6, 4, 1, 6, 7, 5, 2, 3, 6, 7, 10, 3, 7, 6, 7, 5, 1, 5, 9, 6, 9, 5, 9, 3, 3, 8, 9, 9, 7, 6, 2, 3, 1, 5, 4, 6, 5, 5, 8, 2, 2, 3, 4, 10, 2, 8, 2, 8, 7, 3, 8, 5, 9, 2, 10, 4, 7, 3, 0]);

suc = [
   {2, 3, 4},
   {8, 24, 20},
   {9, 6, 15},
   {5},
   {11, 12, 29},
   {7},
   {25},
   {19},
   {10},
   {16, 60, 14},
   {13},
   {17, 39},
   {47, 38, 23},
   {23},
   {48, 31},
   {33, 18, 22},
   {41, 27, 43},
   {29},
   {58, 52},
   {21},
   {26},
   {61},
   {51},
   {34, 43, 39},
   {35, 36},
   {32, 37, 30},
   {28},
   {45, 46},
   {55},
   {34},
   {40, 45, 37},
   {40, 50, 44},
   {57},
   {48},
   {42},
   {42},
   {53, 39},
   {42},
   {49},
   {47},
   {52},
   {45},
   {55},
   {57},
   {58},
   {57},
   {51},
   {52},
   {56},
   {59, 54, 55},
   {53},
   {54},
   {61},
   {56},
   {56},
   {61},
   {59},
   {59},
   {62},
   {62},
   {62},
   {  } ];

deadline = array2d(1..62, 1..3, [4, 3, 3, 4, 5, 5, 6, 4, 1, 7, 1, 4, 7, 0, 4, 11, 2, 1, 11, 0, 4, 12, 1, 3, 12, 4, 3, 13, 4, 4, 15, 5, 2, 16, 4, 5, 16, 3, 1, 20, 1, 1, 25, 2, 1, 28, 5, 0, 30, 2, 3, 32, 2, 2, 34, 0, 2, 36, 2, 3, 36, 1, 2, 38, 4, 1, 44, 1, 2, 45, 5, 0, 48, 1, 4, 49, 4, 0, 52, 4, 1, 54, 5, 4, 61, 5, 3, 61, 1, 3, 64, 1, 2, 70, 3, 4, 72, 3, 1, 75, 1, 1, 80, 5, 1, 82, 2, 3, 83, 0, 3, 83, 0, 0, 89, 1, 3, 89, 0, 5, 90, 3, 4, 91, 4, 3, 92, 5, 4, 95, 1, 1, 98, 3, 4, 99, 5, 3, 102, 5, 5, 104, 4, 1, 106, 1, 0, 111, 1, 2, 113, 0, 1, 114, 0, 0, 115, 1, 4, 127, 2, 5, 134, 3, 4, 135, 3, 2, 138, 2, 3, 141, 5, 5, 144, 2, 4, 149, 5, 3, 154, 5, 5, 156, 2, 3]);
