n_res = 4;
rc = [ 37, 27, 37, 45 ];
n_tasks = 62;
d = [0, 4, 6, 9, 8, 4, 2, 8, 2, 6, 8, 4, 1, 3, 5, 7, 8, 8, 9, 1, 2, 8, 5, 2, 4, 4, 9, 4, 1, 5, 9, 4, 1, 7, 7, 4, 5, 8, 3, 10, 7, 7, 9, 4, 5, 4, 8, 5, 2, 5, 3, 3, 3, 1, 7, 8, 2, 4, 2, 6, 8, 0];
rr = array2d(1..4, 1..62, [0, 0, 0, 1, 0, 0, 5, 0, 8, 3, 8, 0, 10, 0, 7, 0, 0, 0, 2, 0, 4, 2, 7, 9, 4, 0, 0, 1, 7, 0, 7, 0, 3, 0, 3, 0, 0, 0, 0, 8, 0, 0, 0, 0, 0, 0, 0, 10, 5, 1, 9, 1, 0, 0, 0, 0, 0, 0, 5, 0, 6, 0, 0, 0, 2, 2, 0, 0, 5, 0, 4, 0, 3, 7, 6, 0, 6, 0, 0, 0, 0, 0, 7, 0, 4, 0, 0, 2, 1, 5, 6, 7, 7, 7, 0, 0, 0, 9, 0, 0, 7, 8, 0, 4, 0, 8, 4, 3, 6, 8, 8, 0, 0, 7, 0, 0, 1, 3, 9, 2, 0, 10, 8, 0, 0, 0, 0, 3, 4, 0, 0, 1, 0, 10, 0, 0, 0, 0, 6, 3, 4, 4, 2, 8, 8, 0, 0, 0, 0, 3, 0, 0, 0, 3, 8, 5, 0, 0, 0, 9, 7, 0, 0, 0, 2, 0, 8, 5, 5, 0, 0, 8, 6, 0, 1, 0, 9, 7, 7, 0, 0, 0, 9, 5, 0, 0, 0, 9, 0, 0, 0, 8, 8, 0, 0, 0, 1, 7, 0, 6, 0, 4, 0, 0, 10, 5, 0, 0, 10, 6, 2, 0, 0, 6, 0, 0, 0, 0, 7, 10, 4, 0, 9, 1, 0, 8, 10, 2, 0, 6, 8, 0, 0, 0, 5, 2, 7, 1, 0, 7, 0, 8, 10, 4, 0, 6, 0, 0]);

suc = [
   {2, 3, 4},
   {8, 19},
   {9, 10, 5},
   {16, 13, 7},
   {24, 6},
   {17, 29, 25},
   {50, 11, 36},
   {26, 22},
   {50},
   {59, 35, 12},
   {34, 35, 42},
   {18, 27, 15},
   {21, 14},
   {17, 18, 20},
   {31},
   {57, 26, 53},
   {40, 37, 23},
   {43, 60},
   {30},
   {33, 49},
   {46},
   {28, 44, 39},
   {32, 34},
   {58, 35},
   {56, 26, 38},
   {44, 39},
   {41, 34, 28},
   {31},
   {46, 38, 47},
   {51, 47, 31},
   {32, 61, 45},
   {48, 49},
   {38},
   {43, 39},
   {43},
   {57},
   {45},
   {41, 44},
   {60},
   {57},
   {52},
   {46, 55},
   {61},
   {52},
   {49, 53},
   {59},
   {50, 54, 55},
   {52, 53},
   {56},
   {61},
   {54},
   {54},
   {55},
   {58},
   {56},
   {58},
   {59},
   {60},
   {62},
   {62},
   {62},
   {  } ];

deadline = array2d(1..62, 1..3, [1, 4, 2, 3, 1, 4, 7, 3, 5, 9, 4, 5, 10, 5, 3, 10, 2, 1, 23, 1, 2, 24, 5, 2, 26, 4, 5, 31, 0, 2, 32, 4, 4, 33, 3, 4, 36, 1, 0, 37, 1, 5, 40, 1, 2, 51, 3, 3, 55, 5, 0, 57, 0, 3, 58, 1, 1, 62, 1, 2, 63, 5, 3, 71, 4, 1, 71, 4, 2, 72, 4, 2, 74, 4, 1, 74, 5, 0, 75, 3, 0, 76, 5, 1, 82, 2, 2, 84, 0, 2, 91, 2, 2, 92, 2, 3, 96, 4, 4, 100, 4, 4, 100, 1, 4, 104, 3, 0, 105, 0, 1, 109, 4, 5, 111, 5, 5, 111, 3, 2, 117, 5, 1, 124, 3, 3, 124, 5, 3, 136, 3, 0, 138, 1, 0, 146, 1, 2, 152, 3, 1, 153, 2, 1, 155, 0, 0, 155, 3, 4, 159, 5, 2, 160, 0, 3, 161, 4, 5, 162, 1, 1, 163, 1, 5, 165, 3, 0, 165, 4, 2, 167, 4, 2, 169, 2, 5, 170, 3, 4, 171, 0, 5, 181, 2, 5]);
