n_res = 4;
rc = [ 52, 50, 54, 39 ];
n_tasks = 62;
d = [0, 7, 2, 4, 2, 4, 2, 1, 2, 7, 9, 1, 3, 6, 8, 9, 7, 9, 1, 4, 4, 6, 1, 9, 1, 6, 3, 10, 5, 8, 3, 7, 5, 7, 2, 10, 6, 3, 10, 8, 2, 7, 4, 10, 2, 1, 4, 6, 3, 2, 8, 2, 7, 7, 6, 9, 7, 8, 7, 5, 8, 0];
rr = array2d(1..4, 1..62, [0, 1, 9, 2, 9, 7, 3, 6, 2, 7, 3, 8, 9, 10, 10, 1, 9, 6, 2, 5, 4, 5, 2, 8, 7, 9, 4, 4, 6, 5, 4, 4, 2, 5, 4, 8, 4, 3, 1, 2, 5, 1, 10, 9, 1, 10, 10, 10, 8, 2, 1, 7, 8, 2, 10, 9, 1, 2, 3, 6, 7, 0, 0, 1, 8, 8, 2, 6, 8, 4, 4, 2, 5, 4, 7, 9, 7, 4, 2, 2, 2, 7, 1, 8, 10, 1, 10, 9, 4, 3, 9, 9, 8, 2, 5, 8, 5, 10, 1, 10, 7, 5, 7, 7, 1, 7, 2, 10, 4, 3, 8, 2, 9, 5, 9, 5, 2, 3, 7, 3, 8, 7, 3, 0, 0, 3, 10, 8, 9, 7, 7, 3, 4, 5, 3, 8, 3, 4, 10, 1, 4, 8, 6, 4, 2, 7, 8, 3, 3, 5, 8, 8, 10, 4, 3, 5, 3, 5, 2, 2, 1, 8, 7, 8, 6, 6, 5, 1, 5, 5, 5, 3, 2, 3, 3, 1, 5, 6, 7, 9, 3, 3, 7, 3, 4, 0, 0, 2, 7, 10, 4, 1, 5, 1, 10, 1, 2, 3, 6, 1, 1, 3, 10, 10, 6, 3, 8, 3, 5, 2, 2, 9, 1, 7, 2, 9, 10, 5, 5, 9, 4, 7, 3, 6, 5, 6, 9, 5, 4, 5, 7, 6, 1, 3, 3, 5, 1, 4, 5, 3, 7, 10, 10, 8, 8, 8, 4, 0]);

suc = [
   {2, 3, 4},
   {25, 6, 14},
   {8, 5, 7},
   {20, 13, 22},
   {38, 9, 17},
   {9, 51, 41},
   {59, 21, 30},
   {16, 10, 11},
   {48, 27, 54},
   {19, 12, 15},
   {32},
   {49, 18},
   {26, 43, 28},
   {24, 26, 19},
   {32, 44, 53},
   {24, 33, 29},
   {42, 19, 22},
   {24, 32, 23},
   {33, 45, 37},
   {28},
   {34, 27, 42},
   {43, 60},
   {25, 35, 30},
   {40, 34, 44},
   {34, 27, 37},
   {49, 58, 30},
   {40, 56, 46},
   {33, 47, 31},
   {41, 49, 39},
   {55},
   {48, 36, 46},
   {54, 52, 38},
   {48, 50, 44},
   {43, 39},
   {42, 45, 38},
   {53, 51, 37},
   {40, 59},
   {41, 39},
   {47},
   {60},
   {57},
   {52},
   {55, 47},
   {46},
   {50, 58},
   {61},
   {56},
   {56, 52, 53},
   {50},
   {51},
   {54},
   {60, 55},
   {57},
   {59},
   {61},
   {57},
   {58},
   {61},
   {62},
   {62},
   {62},
   {  } ];

deadline = array2d(1..62, 1..3, [2, 2, 2, 3, 3, 1, 3, 2, 3, 8, 2, 5, 26, 1, 2, 26, 0, 1, 33, 5, 3, 36, 0, 5, 37, 5, 0, 44, 3, 5, 50, 4, 4, 52, 2, 2, 57, 4, 5, 59, 0, 2, 64, 3, 4, 69, 3, 2, 69, 4, 2, 75, 3, 3, 90, 0, 3, 94, 4, 4, 96, 5, 5, 97, 3, 1, 98, 5, 4, 101, 1, 5, 107, 2, 0, 107, 2, 3, 108, 3, 4, 108, 5, 1, 109, 0, 3, 119, 0, 2, 123, 1, 1, 139, 4, 5, 141, 4, 2, 142, 4, 4, 143, 3, 0, 144, 0, 1, 144, 5, 5, 150, 3, 4, 151, 4, 4, 155, 4, 0, 155, 2, 4, 156, 0, 0, 160, 5, 3, 162, 4, 3, 164, 2, 4, 165, 1, 5, 166, 2, 2, 167, 5, 2, 167, 0, 5, 170, 2, 1, 170, 1, 5, 172, 1, 3, 175, 4, 0, 177, 4, 3, 177, 3, 4, 179, 5, 4, 184, 0, 2, 187, 2, 1, 195, 3, 1, 196, 0, 0, 199, 0, 5, 200, 5, 3]);
