n_res = 4;
rc = [ 87, 85, 85, 67 ];
n_tasks = 62;
d = [0, 9, 6, 6, 7, 3, 8, 4, 4, 2, 6, 4, 2, 9, 5, 7, 6, 1, 6, 8, 10, 4, 8, 5, 6, 6, 5, 1, 10, 1, 3, 7, 1, 8, 10, 1, 6, 9, 6, 9, 2, 8, 4, 10, 9, 8, 5, 6, 6, 3, 5, 8, 7, 2, 8, 5, 3, 2, 3, 3, 5, 0];
rr = array2d(1..4, 1..62, [0, 4, 9, 0, 5, 8, 0, 0, 4, 0, 0, 5, 6, 4, 0, 5, 5, 10, 2, 9, 10, 0, 7, 7, 8, 8, 4, 0, 4, 1, 7, 0, 0, 1, 0, 6, 8, 7, 0, 9, 0, 0, 10, 0, 0, 1, 1, 2, 9, 3, 1, 2, 10, 8, 0, 1, 3, 9, 0, 10, 8, 0, 0, 6, 0, 0, 4, 10, 2, 8, 4, 3, 7, 1, 0, 0, 2, 4, 9, 4, 6, 6, 0, 1, 4, 10, 5, 9, 0, 10, 8, 0, 6, 9, 0, 2, 3, 7, 9, 5, 0, 6, 0, 9, 1, 0, 1, 4, 10, 0, 9, 0, 6, 2, 4, 0, 6, 1, 1, 10, 1, 4, 0, 0, 0, 5, 0, 7, 10, 0, 2, 10, 0, 6, 7, 7, 0, 3, 0, 8, 2, 0, 4, 10, 6, 9, 9, 6, 4, 3, 5, 0, 4, 6, 7, 9, 4, 0, 0, 0, 3, 7, 5, 4, 10, 0, 2, 10, 5, 1, 5, 1, 8, 8, 8, 0, 5, 4, 7, 0, 5, 7, 2, 6, 0, 0, 0, 8, 6, 1, 6, 7, 7, 2, 2, 10, 6, 9, 9, 5, 5, 0, 6, 0, 9, 9, 0, 1, 0, 2, 2, 9, 0, 4, 1, 10, 4, 6, 0, 9, 0, 0, 9, 8, 2, 2, 8, 10, 0, 1, 0, 9, 6, 4, 8, 3, 6, 7, 8, 5, 0, 4, 5, 4, 0, 8, 9, 0]);

suc = [
   {2, 3, 4},
   {9, 5, 49},
   {8, 6, 7},
   {16, 11, 30},
   {10, 14, 23},
   {26, 45, 29},
   {34, 13, 47},
   {32, 12, 15},
   {48, 52},
   {24, 53},
   {19, 21},
   {18},
   {17, 20, 25},
   {59},
   {58, 27},
   {45},
   {54},
   {49},
   {38, 28, 22},
   {61},
   {51},
   {43},
   {32},
   {35},
   {41},
   {40, 33},
   {45},
   {31},
   {39},
   {41},
   {48},
   {36},
   {58},
   {37},
   {44},
   {51},
   {59},
   {52},
   {61},
   {42, 44, 46},
   {42},
   {58, 55},
   {50, 44},
   {52, 54},
   {56, 50},
   {57, 60},
   {48},
   {53},
   {59},
   {55},
   {53},
   {57},
   {55},
   {56},
   {60},
   {57},
   {61},
   {60},
   {62},
   {62},
   {62},
   {  } ];

deadline = array2d(1..62, 1..3, [1, 0, 4, 1, 2, 3, 11, 3, 1, 11, 5, 2, 13, 5, 3, 14, 1, 2, 15, 1, 4, 22, 3, 5, 27, 1, 5, 29, 3, 3, 33, 4, 2, 33, 2, 1, 38, 3, 1, 41, 2, 5, 46, 2, 0, 48, 5, 1, 48, 1, 1, 50, 5, 2, 53, 5, 5, 54, 3, 0, 66, 2, 4, 70, 0, 2, 72, 4, 0, 75, 2, 3, 78, 5, 3, 80, 5, 1, 81, 1, 2, 82, 1, 1, 88, 4, 2, 91, 0, 3, 94, 0, 1, 95, 5, 3, 99, 2, 4, 102, 3, 4, 104, 1, 4, 105, 5, 2, 106, 4, 5, 106, 0, 2, 107, 5, 0, 107, 2, 5, 108, 4, 0, 110, 4, 1, 112, 2, 4, 113, 0, 3, 113, 2, 2, 123, 4, 0, 125, 5, 1, 128, 4, 4, 128, 2, 5, 129, 5, 5, 130, 5, 5, 132, 4, 4, 133, 4, 0, 135, 4, 1, 139, 1, 0, 141, 1, 4, 141, 1, 0, 142, 2, 3, 142, 3, 1, 143, 2, 0, 147, 5, 4, 147, 2, 0]);
