n_res = 4;
rc = [ 19, 25, 16, 15 ];
n_tasks = 62;
d = [0, 1, 8, 5, 6, 9, 4, 1, 7, 6, 2, 9, 7, 7, 2, 2, 1, 2, 4, 3, 9, 10, 5, 10, 1, 9, 8, 2, 8, 4, 8, 1, 1, 9, 10, 10, 3, 2, 8, 6, 1, 10, 6, 1, 5, 4, 7, 1, 5, 10, 6, 5, 3, 3, 9, 4, 6, 10, 3, 2, 7, 0];
rr = array2d(1..4, 1..62, [0, 0, 7, 0, 9, 0, 0, 6, 0, 0, 0, 0, 6, 0, 2, 0, 0, 8, 0, 0, 0, 10, 7, 0, 0, 0, 0, 7, 0, 0, 0, 4, 4, 0, 9, 0, 0, 0, 0, 0, 0, 0, 0, 0, 2, 10, 4, 0, 0, 8, 0, 6, 0, 0, 8, 0, 0, 0, 0, 0, 0, 0, 0, 8, 0, 0, 0, 10, 0, 0, 5, 5, 0, 0, 0, 0, 0, 8, 1, 0, 4, 0, 3, 0, 0, 0, 0, 0, 0, 0, 0, 8, 10, 0, 0, 9, 0, 0, 3, 0, 0, 0, 0, 0, 0, 0, 0, 0, 0, 0, 0, 0, 0, 0, 0, 7, 0, 0, 0, 0, 0, 0, 0, 0, 0, 0, 0, 2, 0, 0, 0, 0, 0, 0, 8, 10, 0, 0, 0, 0, 0, 0, 0, 0, 0, 0, 0, 0, 0, 6, 9, 0, 9, 0, 0, 0, 0, 0, 0, 0, 0, 0, 8, 0, 3, 0, 8, 0, 0, 0, 0, 0, 0, 0, 4, 0, 0, 0, 0, 5, 0, 5, 1, 5, 0, 0, 0, 0, 0, 0, 0, 0, 4, 0, 0, 0, 0, 0, 0, 2, 0, 0, 0, 0, 0, 8, 0, 0, 0, 3, 1, 0, 0, 0, 0, 0, 0, 0, 0, 0, 0, 5, 0, 8, 0, 4, 0, 3, 0, 3, 0, 0, 0, 7, 5, 0, 0, 0, 1, 0, 0, 0, 10, 0, 0, 0, 5, 0]);

suc = [
   {2, 3, 4},
   {10, 5, 31},
   {11, 6, 7},
   {12, 15},
   {51, 20, 45},
   {26, 28, 39},
   {8, 51, 27},
   {9, 22},
   {33, 20, 14},
   {16, 35, 21},
   {32, 25, 30},
   {24, 42, 13},
   {17, 26},
   {34, 45, 39},
   {51, 55},
   {18, 19, 22},
   {27},
   {40, 27, 36},
   {44, 29},
   {25, 53, 23},
   {40, 43, 46},
   {24, 26, 32},
   {40, 35, 37},
   {34, 29},
   {48, 41, 47},
   {43, 38},
   {44, 29},
   {35, 36},
   {33, 38, 39},
   {57, 59, 37},
   {34, 42, 38},
   {33, 43},
   {52, 45},
   {41, 36, 46},
   {56, 41, 50},
   {53},
   {42, 47},
   {54},
   {48, 49, 56},
   {52},
   {61, 54},
   {49},
   {44, 47},
   {48},
   {53, 46},
   {56, 50},
   {49},
   {52},
   {50, 60},
   {61},
   {57},
   {57, 55},
   {58, 54},
   {59, 55},
   {60},
   {58, 59},
   {58, 61},
   {60},
   {62},
   {62},
   {62},
   {  } ];

deadline = array2d(1..62, 1..3, [2, 2, 2, 3, 1, 1, 5, 1, 2, 9, 3, 2, 10, 3, 3, 14, 0, 1, 16, 4, 0, 18, 1, 5, 24, 1, 1, 25, 4, 0, 27, 1, 0, 37, 3, 1, 40, 0, 3, 43, 1, 2, 54, 2, 2, 56, 0, 3, 57, 0, 3, 58, 4, 1, 58, 2, 0, 59, 3, 1, 61, 5, 2, 61, 4, 4, 62, 0, 0, 63, 5, 3, 65, 0, 4, 66, 5, 1, 67, 5, 2, 68, 3, 0, 71, 3, 4, 73, 4, 5, 83, 4, 0, 83, 0, 1, 84, 0, 0, 85, 0, 1, 86, 2, 1, 86, 1, 0, 88, 2, 5, 91, 1, 2, 92, 1, 3, 98, 5, 5, 111, 5, 3, 118, 4, 5, 119, 2, 2, 120, 5, 5, 120, 4, 2, 122, 5, 2, 122, 3, 5, 126, 4, 3, 128, 0, 0, 137, 1, 2, 137, 0, 5, 139, 1, 4, 141, 2, 3, 154, 4, 5, 161, 1, 5, 163, 2, 5, 165, 1, 1, 172, 2, 0, 177, 3, 5, 180, 0, 1, 181, 0, 3, 182, 2, 4]);
