n_res = 4;
rc = [ 23, 22, 18, 24 ];
n_tasks = 62;
d = [0, 6, 10, 10, 3, 5, 2, 4, 6, 10, 3, 9, 5, 6, 8, 1, 3, 3, 3, 2, 10, 6, 6, 4, 7, 10, 2, 8, 7, 9, 7, 3, 6, 8, 5, 3, 8, 6, 6, 7, 10, 9, 2, 7, 5, 9, 5, 8, 10, 4, 9, 6, 4, 8, 10, 5, 6, 5, 6, 2, 5, 0];
rr = array2d(1..4, 1..62, [0, 0, 0, 2, 0, 0, 0, 2, 0, 0, 0, 0, 0, 0, 0, 0, 0, 10, 0, 7, 0, 8, 0, 0, 0, 0, 0, 0, 0, 0, 0, 0, 10, 0, 0, 0, 0, 7, 3, 0, 8, 0, 0, 0, 0, 4, 0, 0, 0, 0, 0, 0, 7, 9, 0, 0, 0, 0, 0, 0, 8, 0, 0, 3, 0, 0, 6, 0, 0, 0, 6, 4, 0, 0, 0, 0, 0, 0, 0, 0, 0, 0, 4, 0, 0, 0, 0, 7, 0, 2, 0, 0, 0, 0, 0, 0, 9, 7, 0, 0, 0, 0, 0, 0, 3, 0, 0, 0, 0, 0, 0, 0, 8, 0, 0, 0, 0, 6, 10, 6, 10, 0, 0, 0, 0, 0, 0, 0, 0, 2, 0, 0, 0, 0, 9, 8, 4, 0, 0, 0, 0, 0, 3, 0, 0, 0, 2, 1, 0, 0, 7, 0, 0, 0, 8, 0, 0, 6, 0, 0, 10, 0, 0, 0, 0, 5, 0, 0, 1, 0, 0, 0, 0, 0, 0, 0, 0, 0, 0, 0, 0, 0, 0, 5, 0, 0, 0, 0, 8, 0, 0, 0, 1, 0, 0, 0, 0, 0, 0, 3, 1, 1, 4, 0, 0, 0, 0, 0, 0, 0, 2, 0, 0, 0, 5, 7, 0, 1, 0, 0, 0, 0, 0, 0, 0, 7, 0, 0, 0, 8, 0, 0, 9, 3, 9, 1, 0, 6, 0, 0, 9, 0, 0, 0, 0, 0, 0, 0]);

suc = [
   {2, 3, 4},
   {5, 7},
   {8, 25, 10},
   {20, 39},
   {11, 6, 14},
   {18, 27},
   {9, 12, 17},
   {29},
   {42, 13, 15},
   {19, 20, 55},
   {43, 35, 49},
   {37},
   {16, 24},
   {32},
   {25},
   {26, 21},
   {22, 23},
   {30},
   {56, 34, 44},
   {50, 38},
   {52, 45, 31},
   {46},
   {29},
   {40, 57},
   {48},
   {28, 47},
   {61},
   {53},
   {54},
   {51, 36},
   {35},
   {33},
   {50, 36},
   {35, 36},
   {59},
   {61},
   {55},
   {40},
   {41},
   {43},
   {42},
   {48},
   {60},
   {54},
   {48},
   {51, 47},
   {61},
   {54},
   {59},
   {57, 53},
   {53},
   {56},
   {58},
   {59},
   {57},
   {60},
   {58},
   {60},
   {62},
   {62},
   {62},
   {  } ];

deadline = array2d(1..62, 1..3, [1, 3, 5, 4, 3, 2, 9, 5, 5, 13, 4, 0, 13, 5, 5, 16, 4, 0, 17, 3, 3, 18, 4, 0, 19, 5, 0, 22, 3, 4, 24, 0, 2, 26, 5, 1, 31, 1, 4, 31, 0, 3, 34, 0, 3, 36, 4, 1, 37, 1, 2, 38, 2, 1, 42, 1, 3, 45, 2, 2, 47, 0, 1, 48, 2, 2, 53, 3, 3, 56, 1, 2, 57, 2, 1, 62, 5, 4, 63, 5, 2, 63, 3, 3, 66, 1, 2, 70, 1, 4, 71, 0, 0, 71, 0, 4, 76, 4, 4, 78, 2, 0, 79, 5, 2, 83, 0, 4, 87, 0, 3, 88, 3, 0, 89, 1, 2, 89, 4, 0, 91, 0, 1, 95, 0, 1, 98, 4, 4, 100, 5, 2, 107, 5, 2, 114, 4, 3, 118, 3, 1, 119, 5, 3, 120, 3, 2, 125, 1, 3, 126, 4, 5, 128, 2, 0, 128, 4, 2, 128, 4, 0, 129, 0, 0, 131, 1, 1, 134, 1, 5, 136, 1, 3, 136, 5, 5, 140, 5, 4, 141, 1, 5, 142, 3, 2]);
