n_res = 4;
rc = [ 23, 23, 21, 23 ];
n_tasks = 62;
d = [0, 9, 3, 8, 5, 1, 6, 1, 3, 8, 4, 9, 8, 10, 3, 1, 4, 9, 10, 2, 7, 7, 8, 6, 10, 9, 8, 5, 8, 2, 9, 2, 7, 6, 4, 10, 2, 9, 4, 1, 3, 7, 5, 10, 4, 10, 10, 6, 4, 2, 6, 10, 2, 4, 1, 9, 3, 8, 8, 3, 10, 0];
rr = array2d(1..4, 1..62, [0, 0, 9, 9, 9, 7, 10, 0, 6, 7, 0, 0, 1, 2, 0, 0, 7, 2, 0, 0, 1, 7, 3, 1, 0, 9, 8, 0, 0, 8, 8, 3, 0, 5, 0, 10, 0, 0, 0, 3, 2, 0, 7, 0, 0, 5, 2, 10, 8, 2, 0, 0, 4, 5, 7, 0, 0, 0, 0, 8, 0, 0, 0, 0, 0, 0, 2, 0, 0, 0, 4, 9, 0, 7, 4, 0, 8, 7, 0, 2, 1, 7, 0, 0, 10, 3, 4, 7, 0, 0, 0, 9, 0, 9, 0, 0, 0, 3, 0, 3, 7, 2, 0, 7, 0, 10, 1, 1, 0, 0, 0, 6, 8, 9, 7, 0, 0, 1, 6, 9, 10, 5, 3, 0, 0, 1, 0, 0, 4, 10, 10, 3, 0, 10, 2, 6, 1, 0, 0, 0, 4, 7, 0, 0, 0, 4, 5, 1, 0, 0, 0, 9, 0, 0, 0, 5, 8, 0, 0, 0, 9, 8, 3, 0, 2, 0, 8, 0, 3, 0, 7, 0, 0, 0, 0, 0, 0, 2, 0, 0, 0, 0, 0, 0, 0, 0, 0, 0, 0, 6, 0, 9, 7, 0, 0, 0, 2, 0, 10, 0, 2, 0, 7, 7, 10, 1, 0, 0, 0, 0, 0, 0, 6, 10, 5, 0, 7, 0, 3, 2, 5, 2, 3, 6, 0, 0, 6, 0, 0, 0, 0, 0, 3, 0, 1, 0, 0, 0, 0, 6, 0, 0, 6, 6, 9, 2, 0, 0]);

suc = [
   {2, 3, 4},
   {11, 20, 14},
   {17, 30, 7},
   {8, 5, 6},
   {29},
   {9, 10, 22},
   {23, 15},
   {24, 52, 15},
   {49, 27, 38},
   {33, 18, 50},
   {12, 13, 15},
   {16, 61},
   {25, 35, 45},
   {33, 18, 34},
   {34},
   {48, 43, 28},
   {19, 21, 39},
   {32, 26, 56},
   {25, 42, 28},
   {32, 27},
   {31, 37, 23},
   {34, 31, 23},
   {26, 28, 54},
   {45, 29, 47},
   {58, 36, 44},
   {40, 42, 35},
   {33, 30},
   {32, 44},
   {42, 51, 31},
   {41, 36, 37},
   {50, 38},
   {57, 53, 55},
   {40, 59, 51},
   {35, 36, 39},
   {49, 47},
   {43, 55},
   {40, 54},
   {44, 46},
   {48, 46, 47},
   {52, 45},
   {56, 58, 52},
   {48},
   {50, 46},
   {56},
   {58},
   {57, 54},
   {51},
   {49},
   {53},
   {53},
   {61, 55},
   {57},
   {59},
   {60},
   {60},
   {59},
   {60},
   {61},
   {62},
   {62},
   {62},
   {  } ];

deadline = array2d(1..62, 1..3, [9, 2, 2, 9, 1, 1, 13, 1, 1, 18, 1, 4, 21, 4, 5, 24, 3, 0, 27, 1, 3, 31, 5, 4, 32, 0, 2, 34, 3, 3, 36, 5, 3, 39, 4, 4, 45, 2, 0, 51, 4, 0, 56, 5, 3, 57, 2, 1, 57, 4, 5, 58, 1, 4, 58, 4, 1, 58, 4, 3, 60, 2, 1, 60, 5, 1, 66, 1, 5, 68, 5, 1, 69, 4, 1, 70, 5, 5, 74, 0, 0, 75, 3, 0, 76, 3, 3, 84, 3, 1, 87, 0, 1, 87, 3, 5, 90, 0, 0, 91, 0, 1, 92, 3, 5, 93, 3, 2, 97, 4, 0, 98, 5, 0, 98, 3, 2, 98, 5, 3, 103, 5, 2, 106, 3, 2, 108, 1, 1, 108, 4, 4, 108, 2, 5, 110, 5, 0, 114, 1, 5, 116, 4, 0, 119, 3, 5, 120, 3, 4, 121, 1, 1, 122, 5, 4, 128, 5, 5, 139, 4, 1, 139, 1, 4, 141, 2, 0, 142, 2, 0, 149, 1, 0, 158, 0, 2, 162, 2, 0, 167, 3, 4, 169, 0, 1]);
