n_res = 4;
rc = [ 19, 18, 19, 20 ];
n_tasks = 62;
d = [0, 10, 6, 5, 8, 3, 6, 6, 10, 9, 6, 1, 7, 6, 2, 9, 9, 3, 3, 9, 5, 4, 2, 9, 4, 3, 2, 9, 7, 4, 3, 9, 8, 8, 1, 9, 10, 3, 6, 6, 3, 1, 5, 2, 2, 6, 6, 10, 4, 1, 10, 4, 9, 2, 9, 2, 2, 2, 4, 9, 5, 0];
rr = array2d(1..4, 1..62, [0, 4, 6, 5, 1, 1, 7, 6, 1, 4, 2, 6, 3, 10, 7, 7, 1, 2, 3, 1, 10, 1, 7, 7, 9, 2, 10, 4, 9, 8, 10, 10, 2, 9, 10, 8, 3, 10, 9, 10, 9, 7, 6, 6, 1, 10, 4, 3, 4, 3, 9, 2, 1, 2, 8, 10, 10, 1, 6, 6, 8, 0, 0, 9, 7, 1, 6, 9, 3, 1, 7, 5, 5, 5, 4, 2, 6, 4, 5, 2, 9, 9, 1, 4, 3, 10, 6, 8, 4, 5, 7, 6, 10, 4, 7, 6, 10, 7, 10, 6, 2, 7, 5, 5, 3, 6, 9, 10, 8, 7, 7, 7, 3, 4, 1, 9, 1, 7, 9, 8, 2, 1, 10, 0, 0, 4, 7, 4, 8, 9, 7, 3, 3, 1, 8, 5, 9, 6, 7, 3, 4, 4, 7, 1, 1, 3, 5, 1, 3, 5, 10, 8, 7, 6, 5, 8, 6, 10, 5, 6, 4, 8, 8, 5, 7, 1, 6, 9, 3, 2, 3, 4, 5, 2, 9, 7, 9, 8, 6, 6, 10, 8, 8, 8, 8, 0, 0, 10, 6, 1, 9, 3, 6, 6, 10, 9, 4, 4, 3, 6, 3, 4, 7, 7, 9, 6, 7, 2, 8, 6, 2, 4, 6, 10, 10, 7, 2, 9, 2, 3, 9, 3, 6, 3, 3, 3, 4, 4, 8, 4, 7, 2, 6, 1, 5, 1, 8, 4, 8, 1, 7, 9, 5, 4, 3, 9, 4, 0]);

suc = [
   {2, 3, 4},
   {13, 5, 6},
   {9, 18, 12},
   {24, 17, 7},
   {8, 11, 22},
   {50, 12, 20},
   {10, 14, 23},
   {50, 27, 15},
   {10, 37, 22},
   {34, 19, 29},
   {26, 18, 19},
   {16, 32, 31},
   {42, 58, 30},
   {43, 19, 44},
   {51},
   {33, 42, 58},
   {40, 43, 27},
   {32},
   {40, 52, 39},
   {44, 21},
   {57, 35, 29},
   {25, 41, 33},
   {25},
   {34, 37},
   {36, 29, 38},
   {51, 35, 28},
   {49, 34},
   {33, 50, 37},
   {42},
   {32, 51, 36},
   {53, 38, 47},
   {41, 46},
   {54, 39},
   {41, 38},
   {36, 45, 54},
   {39},
   {40, 48, 47},
   {56, 44, 46},
   {48},
   {56, 45},
   {60},
   {48, 60, 45},
   {49, 46, 47},
   {52, 55},
   {53},
   {57, 54},
   {52},
   {49, 59},
   {53},
   {56, 55},
   {59, 55},
   {58},
   {61},
   {61},
   {61},
   {57},
   {60},
   {59},
   {62},
   {62},
   {62},
   {  } ];

deadline = array2d(1..62, 1..3, [3, 1, 5, 12, 5, 1, 13, 0, 4, 15, 3, 1, 20, 4, 2, 22, 1, 4, 23, 4, 3, 24, 0, 4, 30, 3, 5, 33, 2, 0, 46, 4, 2, 48, 0, 0, 48, 2, 0, 49, 0, 4, 57, 5, 5, 60, 0, 0, 63, 5, 5, 66, 1, 3, 67, 3, 1, 69, 3, 2, 69, 2, 3, 69, 5, 3, 75, 1, 4, 80, 1, 1, 83, 0, 2, 83, 5, 3, 84, 2, 5, 88, 2, 0, 88, 2, 0, 98, 3, 5, 98, 4, 1, 99, 0, 0, 103, 5, 1, 104, 3, 4, 104, 5, 2, 112, 4, 4, 118, 5, 2, 122, 2, 4, 122, 0, 2, 122, 0, 0, 124, 1, 3, 130, 4, 1, 130, 2, 5, 144, 0, 0, 147, 3, 2, 150, 3, 4, 154, 0, 2, 156, 0, 3, 156, 0, 0, 158, 4, 5, 158, 2, 0, 162, 5, 5, 164, 4, 1, 164, 1, 0, 169, 3, 2, 174, 0, 2, 174, 4, 5, 183, 2, 3, 189, 0, 5, 191, 4, 0, 195, 2, 1, 195, 5, 0]);
