n_res = 4;
rc = [ 26, 25, 25, 27 ];
n_tasks = 62;
d = [0, 9, 10, 8, 4, 5, 10, 6, 3, 1, 10, 9, 6, 3, 8, 2, 2, 6, 8, 4, 2, 4, 8, 5, 10, 1, 7, 2, 3, 1, 6, 6, 7, 9, 10, 1, 7, 6, 4, 3, 5, 1, 1, 9, 2, 4, 5, 1, 7, 1, 9, 5, 10, 2, 7, 5, 1, 4, 2, 2, 9, 0];
rr = array2d(1..4, 1..62, [0, 10, 3, 9, 6, 8, 9, 9, 7, 5, 9, 5, 5, 8, 1, 3, 3, 4, 10, 9, 10, 10, 1, 3, 8, 6, 2, 7, 2, 3, 9, 1, 3, 8, 6, 6, 1, 5, 9, 4, 2, 5, 2, 3, 5, 1, 10, 7, 7, 6, 7, 1, 10, 7, 6, 9, 8, 10, 10, 10, 1, 0, 0, 6, 3, 9, 6, 6, 7, 3, 3, 8, 5, 5, 5, 6, 10, 3, 9, 1, 1, 2, 6, 10, 3, 3, 8, 4, 10, 1, 6, 3, 4, 6, 1, 1, 1, 9, 9, 3, 2, 6, 8, 4, 5, 3, 1, 3, 10, 7, 10, 4, 2, 7, 4, 5, 5, 1, 7, 4, 7, 1, 3, 0, 0, 7, 7, 2, 4, 8, 6, 3, 4, 8, 6, 10, 8, 3, 7, 5, 8, 2, 1, 7, 7, 1, 3, 3, 9, 8, 1, 4, 3, 2, 5, 2, 7, 1, 6, 9, 10, 1, 6, 9, 9, 2, 1, 5, 3, 8, 2, 4, 7, 6, 9, 9, 9, 5, 1, 2, 6, 7, 4, 10, 10, 0, 0, 3, 9, 8, 8, 8, 1, 3, 10, 6, 4, 7, 5, 8, 1, 10, 10, 3, 9, 6, 5, 7, 7, 9, 9, 1, 3, 7, 8, 6, 5, 6, 7, 4, 8, 9, 3, 6, 4, 5, 3, 2, 5, 4, 9, 3, 8, 5, 10, 6, 8, 7, 2, 10, 10, 5, 5, 4, 9, 2, 9, 0]);

suc = [
   {2, 3, 4},
   {49, 11, 21},
   {5, 6, 7},
   {57, 19},
   {48, 9, 28},
   {32, 19, 55},
   {8, 27, 15},
   {48, 28, 22},
   {17, 10, 12},
   {16, 14},
   {25, 36, 15},
   {25, 21, 13},
   {16, 50, 14},
   {45, 37, 30},
   {18, 34},
   {24, 27, 23},
   {33, 20, 29},
   {24, 37},
   {51, 21},
   {40, 26, 44},
   {40, 58},
   {25, 35, 23},
   {33, 42, 31},
   {54, 30},
   {32, 34, 46},
   {35, 36, 30},
   {32, 46, 38},
   {33, 47, 39},
   {35, 52, 31},
   {59, 47, 31},
   {61, 38},
   {56},
   {49, 34, 60},
   {40, 53},
   {57, 43},
   {42, 43},
   {41, 44, 38},
   {51},
   {49, 44, 45},
   {52, 61},
   {42},
   {54, 46},
   {50, 51, 45},
   {53, 55},
   {60},
   {52, 47},
   {56},
   {50},
   {53},
   {54},
   {60},
   {59},
   {56},
   {59, 55},
   {58},
   {57},
   {58},
   {61},
   {62},
   {62},
   {62},
   {  } ];

deadline = array2d(1..62, 1..3, [1, 1, 3, 2, 4, 5, 4, 3, 1, 7, 5, 5, 8, 1, 0, 22, 4, 2, 22, 3, 5, 23, 3, 1, 31, 0, 0, 33, 2, 3, 36, 2, 1, 38, 5, 0, 39, 0, 1, 41, 2, 2, 43, 3, 1, 50, 2, 3, 54, 2, 4, 54, 5, 0, 58, 4, 3, 63, 1, 5, 64, 2, 2, 75, 5, 2, 75, 4, 3, 75, 2, 3, 75, 5, 5, 79, 1, 1, 80, 0, 4, 89, 3, 1, 91, 0, 1, 98, 3, 5, 100, 0, 5, 102, 4, 0, 103, 1, 0, 105, 2, 2, 109, 3, 3, 119, 3, 1, 120, 5, 4, 125, 0, 2, 127, 0, 0, 127, 1, 0, 134, 0, 3, 135, 5, 1, 140, 3, 3, 145, 3, 0, 147, 3, 5, 148, 0, 5, 152, 2, 4, 156, 5, 3, 171, 5, 0, 178, 1, 2, 182, 0, 0, 186, 3, 0, 187, 4, 3, 189, 5, 1, 189, 0, 4, 191, 0, 1, 203, 5, 5, 203, 5, 5, 204, 4, 1, 209, 1, 5, 210, 4, 5, 216, 0, 1]);
