n_res = 4;
rc = [ 17, 20, 17, 20 ];
n_tasks = 62;
d = [0, 3, 2, 5, 5, 2, 6, 10, 9, 1, 6, 3, 9, 10, 1, 1, 6, 9, 1, 3, 2, 1, 6, 9, 8, 8, 4, 5, 3, 10, 8, 1, 1, 4, 2, 4, 3, 10, 5, 9, 9, 2, 7, 3, 2, 6, 9, 5, 9, 5, 7, 3, 10, 10, 6, 4, 6, 7, 1, 6, 10, 0];
rr = array2d(1..4, 1..62, [0, 5, 3, 4, 0, 4, 4, 8, 2, 9, 7, 2, 1, 0, 2, 0, 7, 9, 9, 10, 1, 9, 0, 5, 0, 6, 8, 0, 6, 0, 6, 0, 3, 2, 0, 3, 0, 5, 9, 4, 5, 10, 9, 5, 0, 1, 0, 3, 0, 5, 3, 0, 0, 0, 1, 5, 5, 1, 3, 9, 8, 0, 0, 8, 5, 6, 0, 4, 9, 9, 0, 0, 3, 8, 10, 10, 8, 0, 0, 10, 6, 3, 6, 7, 3, 10, 10, 5, 0, 9, 3, 0, 2, 9, 7, 1, 3, 0, 0, 0, 1, 6, 2, 7, 2, 7, 3, 0, 0, 2, 5, 10, 9, 7, 7, 7, 5, 3, 0, 4, 2, 9, 4, 0, 0, 1, 0, 0, 3, 1, 10, 7, 0, 0, 0, 3, 2, 3, 3, 0, 0, 4, 5, 7, 9, 1, 1, 2, 6, 8, 10, 6, 0, 0, 3, 0, 3, 4, 5, 9, 4, 4, 3, 0, 0, 1, 4, 8, 0, 7, 8, 9, 1, 0, 0, 0, 7, 0, 1, 0, 6, 6, 10, 10, 8, 0, 0, 2, 10, 7, 3, 2, 9, 8, 6, 4, 1, 7, 4, 10, 0, 7, 0, 10, 7, 0, 0, 8, 7, 9, 0, 7, 0, 9, 0, 8, 6, 9, 4, 2, 4, 0, 1, 4, 9, 3, 7, 8, 0, 6, 2, 0, 4, 6, 8, 5, 2, 10, 9, 0, 6, 2, 10, 0, 9, 4, 3, 0]);

suc = [
   {2, 3, 4},
   {10, 11, 55},
   {8, 16, 5},
   {53, 6, 7},
   {15},
   {17, 27, 30},
   {9, 12, 13},
   {58, 28},
   {19, 61, 23},
   {13},
   {41, 18, 39},
   {20, 14},
   {44, 15},
   {40, 42, 46},
   {51},
   {21},
   {34},
   {47},
   {25},
   {24, 32},
   {22},
   {26, 35, 52},
   {56},
   {28},
   {48, 31},
   {46},
   {29},
   {33},
   {34},
   {50, 36, 37},
   {43},
   {57},
   {45},
   {49, 38},
   {50},
   {60},
   {42, 39},
   {47},
   {48},
   {41, 54},
   {59},
   {43},
   {52},
   {49, 54},
   {57},
   {55},
   {48},
   {54},
   {56},
   {55},
   {58, 59},
   {59},
   {57},
   {58},
   {56},
   {60},
   {61},
   {60},
   {62},
   {62},
   {62},
   {  } ];

deadline = array2d(1..62, 1..3, [1, 1, 4, 6, 2, 3, 7, 1, 4, 8, 2, 2, 8, 2, 1, 10, 5, 0, 16, 1, 4, 19, 4, 2, 22, 1, 0, 32, 1, 1, 33, 1, 5, 37, 1, 4, 41, 5, 5, 42, 0, 2, 44, 4, 0, 49, 0, 4, 49, 1, 5, 55, 5, 0, 56, 0, 1, 56, 4, 2, 59, 1, 2, 66, 4, 5, 69, 5, 4, 70, 3, 3, 70, 4, 1, 71, 3, 5, 71, 5, 0, 74, 4, 1, 78, 1, 1, 80, 5, 2, 81, 4, 0, 82, 0, 4, 86, 0, 2, 86, 2, 2, 93, 1, 5, 93, 2, 1, 93, 4, 5, 97, 1, 0, 103, 5, 0, 104, 0, 3, 113, 1, 3, 124, 3, 5, 124, 5, 3, 125, 2, 5, 126, 5, 2, 126, 2, 0, 127, 1, 2, 128, 5, 4, 129, 3, 1, 131, 0, 5, 133, 0, 2, 135, 1, 3, 138, 4, 4, 138, 2, 5, 142, 1, 4, 143, 1, 3, 148, 0, 5, 150, 2, 4, 156, 0, 0, 158, 3, 5, 158, 0, 5, 161, 0, 3]);
