n_res = 4;
rc = [ 20, 14, 24, 13 ];
n_tasks = 62;
d = [0, 6, 2, 3, 4, 6, 8, 5, 2, 6, 7, 2, 2, 1, 9, 7, 4, 2, 9, 1, 10, 7, 9, 7, 8, 4, 1, 3, 6, 5, 5, 1, 3, 9, 5, 7, 7, 7, 1, 6, 10, 10, 9, 7, 9, 10, 3, 5, 4, 3, 9, 1, 2, 3, 6, 4, 10, 10, 8, 7, 5, 0];
rr = array2d(1..4, 1..62, [0, 0, 0, 0, 8, 0, 0, 0, 0, 2, 10, 2, 9, 0, 0, 0, 4, 0, 0, 0, 0, 0, 3, 0, 9, 0, 2, 5, 0, 4, 0, 0, 0, 0, 0, 0, 0, 0, 0, 8, 0, 0, 0, 0, 0, 0, 5, 0, 7, 0, 0, 8, 0, 9, 0, 0, 0, 10, 0, 0, 0, 0, 0, 10, 0, 0, 0, 0, 0, 0, 0, 0, 0, 0, 0, 0, 0, 0, 0, 10, 0, 0, 7, 0, 0, 0, 0, 0, 0, 0, 0, 0, 0, 5, 0, 0, 6, 0, 1, 3, 1, 0, 0, 7, 0, 0, 6, 0, 0, 3, 0, 0, 0, 0, 5, 0, 8, 4, 0, 0, 7, 0, 0, 0, 0, 0, 7, 8, 0, 5, 8, 4, 4, 0, 0, 0, 0, 0, 7, 0, 0, 0, 0, 0, 0, 5, 0, 2, 0, 1, 0, 0, 0, 0, 8, 0, 0, 10, 0, 5, 0, 0, 0, 0, 0, 0, 5, 3, 0, 0, 0, 0, 0, 0, 0, 0, 0, 0, 0, 0, 0, 0, 0, 0, 0, 0, 0, 0, 0, 0, 0, 0, 0, 0, 0, 0, 0, 0, 0, 6, 0, 4, 0, 0, 6, 8, 0, 0, 0, 0, 0, 0, 0, 0, 3, 0, 0, 0, 4, 0, 0, 0, 0, 0, 0, 0, 3, 0, 0, 0, 0, 3, 0, 0, 0, 6, 2, 0, 0, 0, 0, 0, 10, 0, 0, 5, 6, 0]);

suc = [
   {2, 3, 4},
   {42, 12},
   {20, 5, 14},
   {16, 23},
   {8, 6, 7},
   {9},
   {33, 13},
   {11, 29},
   {10},
   {61, 38},
   {26},
   {18, 43, 52},
   {17, 19, 15},
   {24},
   {40},
   {53},
   {35, 21},
   {36},
   {48},
   {32, 30},
   {22},
   {27, 36, 37},
   {55},
   {25, 28, 41},
   {57, 45},
   {49},
   {29},
   {37},
   {56, 57},
   {31},
   {40, 33},
   {34, 46, 39},
   {43},
   {44},
   {51, 47},
   {58},
   {60},
   {41},
   {59},
   {60},
   {45, 47},
   {44, 53},
   {56, 49},
   {50},
   {50},
   {49},
   {54},
   {50, 55},
   {59},
   {51},
   {54},
   {59},
   {57, 54},
   {58},
   {56},
   {58},
   {61},
   {60},
   {62},
   {62},
   {62},
   {  } ];

deadline = array2d(1..62, 1..3, [1, 4, 1, 2, 0, 2, 12, 1, 1, 19, 3, 4, 22, 1, 2, 22, 0, 2, 26, 3, 3, 28, 2, 1, 30, 4, 5, 50, 2, 5, 58, 1, 1, 61, 5, 4, 63, 3, 1, 64, 0, 5, 65, 3, 1, 66, 0, 2, 69, 4, 0, 69, 4, 5, 70, 4, 4, 74, 2, 2, 74, 5, 3, 79, 5, 1, 79, 5, 3, 79, 2, 2, 80, 3, 4, 82, 5, 4, 84, 1, 1, 87, 5, 5, 98, 1, 3, 98, 3, 1, 99, 5, 3, 99, 1, 3, 102, 2, 0, 108, 3, 0, 110, 5, 5, 111, 5, 0, 113, 1, 0, 117, 2, 0, 122, 5, 4, 124, 0, 4, 128, 4, 1, 130, 0, 1, 130, 2, 1, 132, 1, 4, 137, 3, 3, 138, 2, 0, 139, 3, 1, 139, 3, 3, 140, 5, 1, 146, 2, 2, 150, 4, 4, 150, 5, 0, 154, 1, 0, 159, 4, 1, 165, 3, 3, 166, 4, 0, 169, 3, 5, 170, 3, 4, 182, 1, 2, 185, 3, 2, 185, 3, 0, 188, 4, 2]);
