n_res = 4;
rc = [ 41, 43, 40, 30 ];
n_tasks = 62;
d = [0, 9, 6, 7, 5, 6, 1, 5, 8, 3, 6, 7, 9, 7, 3, 6, 4, 5, 2, 9, 5, 4, 1, 2, 2, 6, 1, 8, 1, 1, 9, 7, 3, 6, 7, 7, 1, 7, 9, 2, 8, 3, 4, 4, 2, 8, 8, 1, 8, 4, 3, 9, 9, 6, 5, 3, 7, 7, 1, 9, 7, 0];
rr = array2d(1..4, 1..62, [0, 6, 0, 6, 0, 0, 7, 0, 7, 6, 5, 0, 4, 1, 3, 5, 8, 0, 0, 10, 4, 1, 0, 6, 0, 2, 5, 4, 0, 0, 0, 0, 0, 0, 8, 9, 0, 3, 7, 9, 5, 0, 0, 0, 6, 0, 7, 0, 2, 2, 2, 8, 10, 6, 0, 0, 0, 6, 5, 0, 0, 0, 0, 0, 9, 7, 0, 10, 6, 0, 0, 1, 0, 0, 5, 0, 9, 9, 0, 7, 6, 4, 0, 0, 0, 6, 9, 0, 0, 0, 0, 0, 2, 0, 6, 4, 5, 0, 7, 0, 6, 4, 0, 0, 0, 0, 4, 6, 2, 1, 0, 9, 9, 0, 0, 0, 9, 0, 5, 0, 0, 3, 1, 0, 0, 1, 8, 0, 2, 2, 0, 10, 0, 0, 0, 9, 0, 0, 6, 10, 0, 4, 6, 4, 5, 0, 9, 3, 0, 5, 0, 3, 0, 3, 0, 0, 10, 0, 7, 7, 3, 7, 6, 2, 0, 7, 0, 2, 3, 8, 0, 0, 0, 0, 5, 7, 0, 10, 0, 1, 0, 8, 0, 0, 0, 0, 0, 0, 1, 9, 7, 0, 8, 0, 0, 0, 4, 0, 2, 2, 0, 10, 0, 4, 0, 0, 0, 0, 2, 0, 0, 8, 6, 0, 9, 2, 0, 9, 0, 1, 0, 7, 0, 0, 0, 2, 0, 0, 2, 0, 0, 4, 0, 3, 0, 0, 0, 0, 0, 0, 5, 0, 0, 7, 3, 0, 0, 0]);

suc = [
   {2, 3, 4},
   {43},
   {8, 9, 7},
   {26, 12, 5},
   {6, 55},
   {10},
   {38, 15},
   {19, 17, 11},
   {20, 14},
   {40, 21, 23},
   {16, 18, 29},
   {50, 59, 13},
   {16},
   {53, 31},
   {41, 51, 45},
   {60},
   {33},
   {37},
   {24, 25},
   {32, 22},
   {36, 44},
   {33, 30, 57},
   {49},
   {27, 28},
   {53},
   {44},
   {49, 35},
   {48},
   {34},
   {36, 60},
   {33},
   {41},
   {34},
   {54},
   {46, 39},
   {39},
   {48, 47},
   {42},
   {51},
   {56},
   {50},
   {46},
   {47},
   {47},
   {54},
   {58},
   {58, 52},
   {56},
   {57},
   {57},
   {53},
   {54},
   {56},
   {59},
   {60},
   {59, 61},
   {61},
   {61},
   {62},
   {62},
   {62},
   {  } ];

deadline = array2d(1..62, 1..3, [2, 2, 5, 3, 2, 2, 6, 1, 0, 10, 2, 5, 12, 0, 1, 16, 1, 1, 17, 5, 2, 18, 2, 2, 20, 2, 5, 26, 2, 5, 27, 4, 1, 29, 5, 1, 30, 3, 0, 39, 4, 1, 46, 0, 0, 54, 1, 4, 56, 1, 4, 65, 4, 5, 72, 2, 2, 72, 4, 3, 72, 2, 3, 73, 3, 1, 75, 5, 2, 77, 5, 0, 85, 2, 3, 85, 3, 2, 89, 0, 5, 96, 2, 3, 98, 4, 5, 99, 1, 1, 102, 4, 4, 103, 1, 4, 104, 5, 0, 109, 1, 5, 110, 5, 0, 111, 2, 4, 112, 4, 0, 112, 0, 4, 115, 4, 3, 115, 4, 3, 117, 3, 5, 118, 5, 4, 123, 4, 1, 123, 0, 0, 124, 2, 1, 126, 3, 1, 128, 4, 5, 131, 2, 5, 131, 0, 2, 133, 4, 4, 134, 2, 2, 139, 0, 2, 142, 1, 4, 143, 2, 3, 143, 3, 4, 146, 1, 3, 150, 3, 3, 155, 3, 3, 160, 1, 2, 161, 4, 2, 164, 4, 5, 164, 3, 3]);
