n_res = 4;
rc = [ 23, 16, 14, 35 ];
n_tasks = 62;
d = [0, 10, 8, 6, 9, 7, 9, 10, 7, 8, 4, 5, 1, 1, 1, 1, 4, 7, 10, 8, 1, 8, 3, 5, 5, 6, 8, 5, 6, 3, 3, 6, 5, 7, 7, 9, 5, 5, 10, 6, 8, 1, 10, 9, 7, 6, 4, 2, 6, 6, 3, 1, 10, 2, 3, 5, 3, 6, 4, 1, 1, 0];
rr = array2d(1..4, 1..62, [0, 6, 0, 0, 4, 0, 0, 0, 0, 5, 0, 0, 8, 0, 0, 0, 4, 0, 0, 9, 10, 10, 0, 0, 10, 0, 0, 0, 0, 0, 0, 9, 0, 1, 0, 0, 0, 0, 0, 0, 0, 0, 0, 0, 0, 0, 0, 0, 0, 0, 10, 0, 0, 0, 0, 0, 0, 0, 0, 7, 6, 0, 0, 0, 0, 0, 0, 0, 0, 3, 0, 0, 0, 2, 0, 5, 7, 0, 0, 8, 3, 0, 0, 0, 8, 0, 0, 0, 2, 0, 0, 0, 0, 0, 0, 0, 0, 0, 2, 7, 0, 0, 0, 0, 5, 0, 0, 0, 0, 7, 0, 2, 0, 0, 0, 0, 0, 9, 0, 1, 0, 0, 0, 0, 0, 0, 0, 5, 0, 0, 3, 0, 5, 0, 0, 0, 0, 0, 0, 1, 0, 0, 0, 0, 0, 0, 0, 0, 0, 0, 0, 0, 5, 3, 0, 0, 4, 0, 0, 6, 0, 0, 0, 0, 7, 8, 0, 0, 0, 4, 3, 0, 0, 0, 0, 0, 0, 0, 0, 0, 10, 0, 0, 0, 0, 0, 0, 0, 5, 0, 0, 5, 0, 0, 0, 0, 4, 0, 0, 0, 0, 0, 0, 0, 0, 0, 0, 0, 0, 7, 0, 10, 0, 10, 0, 0, 8, 0, 0, 0, 5, 0, 0, 0, 2, 4, 0, 0, 0, 2, 3, 0, 0, 0, 8, 0, 0, 1, 6, 4, 5, 0, 0, 0, 9, 0, 0, 0]);

suc = [
   {2, 3, 4},
   {17, 13, 5},
   {9, 11, 14},
   {8, 10, 5},
   {9, 11, 6},
   {24, 12, 7},
   {34, 47, 39},
   {15},
   {16, 28, 21},
   {19, 38, 47},
   {18, 22},
   {18, 36, 22},
   {25, 26, 27},
   {25, 27},
   {35, 20, 55},
   {26, 34, 22},
   {45, 37, 47},
   {40, 29},
   {54, 30, 23},
   {32, 42, 52},
   {42, 27, 31},
   {58, 44},
   {41, 26, 44},
   {40, 34, 38},
   {56, 37, 39},
   {32, 40, 43},
   {38, 45, 30},
   {33, 29},
   {42, 37, 30},
   {48, 43, 52},
   {48, 54, 46},
   {56, 39},
   {43},
   {35, 53},
   {49},
   {49, 45, 54},
   {41, 46},
   {41, 51, 44},
   {49, 51},
   {53},
   {48},
   {46},
   {50, 59},
   {52, 60},
   {56, 50},
   {59, 51},
   {55},
   {50, 60},
   {60, 61},
   {53, 55},
   {61},
   {59},
   {57},
   {57},
   {57},
   {58},
   {58},
   {61},
   {62},
   {62},
   {62},
   {  } ];

deadline = array2d(1..62, 1..3, [6, 1, 2, 10, 3, 4, 17, 5, 2, 19, 0, 3, 21, 4, 4, 21, 3, 3, 25, 4, 5, 25, 0, 5, 26, 2, 2, 28, 4, 2, 30, 3, 4, 30, 2, 0, 39, 5, 0, 39, 1, 3, 41, 2, 4, 42, 1, 1, 42, 2, 1, 43, 0, 4, 45, 1, 1, 46, 2, 5, 54, 3, 4, 57, 0, 1, 60, 4, 3, 71, 4, 0, 88, 2, 2, 91, 2, 5, 101, 2, 2, 104, 1, 4, 104, 5, 3, 105, 2, 1, 107, 1, 5, 108, 2, 1, 112, 2, 4, 114, 2, 1, 119, 3, 3, 125, 0, 4, 125, 4, 5, 126, 1, 2, 128, 5, 5, 131, 2, 5, 140, 0, 1, 146, 2, 5, 150, 0, 2, 151, 0, 0, 151, 3, 5, 151, 4, 2, 153, 5, 4, 158, 5, 4, 167, 5, 4, 168, 4, 3, 173, 0, 5, 173, 3, 3, 179, 5, 1, 184, 0, 0, 186, 4, 5, 191, 0, 1, 194, 3, 2, 198, 3, 0, 201, 3, 4, 204, 0, 1, 209, 4, 5, 212, 1, 2]);
