n_res = 4;
rc = [ 23, 22, 20, 30 ];
n_tasks = 62;
d = [0, 8, 2, 7, 7, 1, 7, 1, 6, 8, 2, 1, 2, 6, 2, 10, 1, 3, 8, 1, 7, 7, 7, 3, 6, 6, 9, 2, 4, 7, 5, 8, 10, 6, 9, 7, 1, 3, 2, 3, 5, 3, 6, 9, 4, 10, 8, 9, 6, 5, 8, 9, 7, 6, 4, 1, 4, 1, 9, 5, 1, 0];
rr = array2d(1..4, 1..62, [0, 3, 0, 4, 0, 0, 0, 0, 2, 0, 0, 8, 1, 0, 9, 3, 0, 4, 10, 6, 8, 0, 3, 0, 0, 9, 7, 0, 2, 0, 0, 0, 0, 0, 9, 0, 0, 4, 0, 0, 0, 0, 0, 7, 0, 0, 10, 0, 4, 0, 0, 5, 2, 2, 0, 3, 9, 2, 2, 0, 8, 0, 0, 5, 0, 0, 0, 0, 0, 10, 0, 8, 0, 0, 4, 0, 0, 0, 0, 7, 6, 0, 1, 4, 5, 4, 0, 7, 6, 0, 0, 0, 0, 2, 8, 0, 0, 0, 4, 0, 8, 9, 2, 0, 5, 1, 1, 0, 0, 3, 0, 3, 0, 7, 0, 0, 8, 7, 10, 4, 0, 8, 4, 0, 0, 0, 0, 0, 6, 0, 1, 0, 0, 0, 3, 0, 0, 3, 0, 8, 2, 5, 1, 4, 0, 0, 0, 2, 4, 0, 0, 2, 7, 4, 0, 0, 0, 7, 10, 0, 4, 4, 1, 10, 8, 0, 0, 1, 0, 0, 2, 0, 0, 2, 5, 5, 0, 9, 0, 0, 2, 7, 9, 6, 0, 0, 0, 0, 5, 0, 0, 8, 9, 0, 0, 2, 4, 0, 0, 0, 0, 0, 0, 10, 0, 3, 9, 0, 4, 7, 0, 1, 0, 4, 7, 0, 7, 2, 2, 5, 6, 2, 0, 0, 2, 2, 9, 10, 6, 0, 0, 9, 0, 10, 0, 0, 0, 9, 0, 4, 8, 5, 3, 0, 0, 6, 0, 0]);

suc = [
   {2, 3, 4},
   {10, 5, 14},
   {8, 9, 47},
   {18, 11, 6},
   {48, 17},
   {26, 12, 7},
   {19, 20, 22},
   {16, 11, 15},
   {24, 23},
   {29, 37, 13},
   {24, 17, 27},
   {52, 29, 30},
   {32, 50, 23},
   {28, 38},
   {40, 49},
   {18, 51, 30},
   {49, 58},
   {33, 35},
   {25, 27, 21},
   {28, 47},
   {61, 37, 54},
   {56, 41, 37},
   {36, 53, 46},
   {40, 41, 39},
   {33, 35, 29},
   {27, 44},
   {32, 55, 39},
   {44, 54},
   {43, 36, 38},
   {33, 34, 31},
   {50, 35, 39},
   {41, 36},
   {53},
   {40, 45},
   {54, 44, 38},
   {48, 42, 45},
   {42, 43, 47},
   {61},
   {49},
   {56, 43},
   {48, 42, 52},
   {51},
   {58, 46},
   {45, 46},
   {56},
   {55},
   {50, 52},
   {51},
   {57},
   {53},
   {58},
   {59, 60},
   {57, 55},
   {57, 60},
   {60},
   {61},
   {59},
   {59},
   {62},
   {62},
   {62},
   {  } ];

deadline = array2d(1..62, 1..3, [4, 5, 1, 8, 5, 1, 8, 5, 2, 15, 4, 0, 15, 2, 4, 15, 1, 5, 22, 5, 1, 24, 5, 5, 25, 3, 4, 35, 1, 3, 35, 2, 4, 41, 2, 4, 49, 4, 3, 50, 3, 3, 54, 3, 3, 56, 1, 4, 56, 4, 5, 59, 0, 3, 60, 4, 4, 60, 3, 1, 66, 1, 2, 66, 5, 4, 68, 1, 1, 71, 4, 0, 73, 3, 1, 74, 1, 4, 77, 4, 2, 78, 3, 0, 83, 1, 5, 88, 0, 3, 91, 2, 0, 92, 2, 5, 95, 5, 4, 97, 1, 0, 100, 1, 3, 107, 1, 5, 120, 1, 5, 120, 5, 5, 120, 0, 0, 124, 3, 1, 130, 5, 2, 135, 0, 0, 135, 0, 1, 136, 1, 4, 139, 5, 4, 142, 1, 0, 142, 3, 5, 144, 1, 2, 144, 3, 0, 145, 3, 3, 145, 3, 3, 146, 1, 5, 146, 0, 1, 147, 4, 1, 153, 2, 0, 154, 4, 0, 175, 0, 3, 175, 3, 5, 177, 0, 3, 179, 0, 3, 184, 0, 0, 185, 1, 2]);
