n_res = 4;
rc = [ 15, 13, 13, 16 ];
n_tasks = 62;
d = [0, 3, 2, 5, 9, 7, 7, 2, 8, 3, 4, 10, 5, 3, 6, 3, 9, 5, 4, 4, 5, 1, 2, 10, 2, 5, 2, 5, 4, 7, 10, 8, 9, 9, 10, 10, 9, 3, 10, 6, 8, 6, 2, 2, 5, 10, 9, 8, 1, 2, 2, 5, 10, 5, 10, 2, 9, 9, 9, 8, 2, 0];
rr = array2d(1..4, 1..62, [0, 7, 6, 0, 10, 10, 0, 0, 7, 0, 8, 0, 3, 0, 3, 0, 2, 5, 10, 2, 3, 6, 0, 0, 0, 9, 5, 6, 10, 0, 0, 6, 5, 0, 0, 0, 2, 0, 0, 8, 5, 0, 0, 7, 7, 0, 4, 9, 4, 0, 7, 0, 9, 0, 0, 0, 2, 8, 10, 3, 10, 0, 0, 0, 9, 0, 2, 0, 6, 8, 0, 4, 10, 7, 9, 0, 2, 0, 0, 1, 0, 1, 5, 7, 0, 5, 7, 0, 9, 0, 0, 0, 0, 5, 0, 0, 2, 3, 0, 0, 9, 0, 0, 3, 0, 0, 0, 3, 0, 3, 4, 0, 2, 0, 8, 0, 1, 1, 6, 0, 4, 9, 0, 0, 0, 5, 0, 0, 5, 0, 1, 0, 0, 1, 0, 0, 0, 3, 10, 5, 0, 8, 0, 3, 0, 5, 1, 0, 7, 0, 0, 0, 5, 0, 10, 0, 0, 6, 2, 0, 1, 0, 0, 5, 0, 5, 0, 0, 0, 4, 0, 0, 6, 1, 0, 7, 9, 4, 0, 3, 0, 0, 0, 0, 8, 0, 0, 0, 0, 4, 0, 0, 0, 0, 9, 0, 0, 1, 0, 0, 0, 5, 0, 0, 5, 6, 2, 0, 0, 0, 0, 0, 10, 0, 2, 10, 0, 0, 2, 8, 0, 10, 0, 3, 6, 0, 8, 5, 9, 9, 2, 3, 0, 6, 0, 10, 0, 0, 0, 0, 8, 5, 2, 10, 0, 0, 8, 0]);

suc = [
   {2, 3, 4},
   {56, 10, 11},
   {8, 6},
   {5, 14, 7},
   {32, 12, 21},
   {9, 58},
   {15},
   {18, 28, 50},
   {44, 47},
   {53, 31},
   {13},
   {25, 23, 15},
   {17},
   {20},
   {16, 19, 29},
   {24},
   {20, 22},
   {45, 37},
   {24, 34},
   {27},
   {26},
   {28},
   {27, 36, 61},
   {40},
   {54},
   {33, 30},
   {35},
   {39},
   {37},
   {50},
   {55},
   {37},
   {35},
   {38},
   {41, 43},
   {51},
   {40},
   {52},
   {40, 43},
   {42, 52, 46},
   {53},
   {51, 44},
   {49, 57, 47},
   {55},
   {56},
   {60},
   {48, 52},
   {54},
   {58},
   {54},
   {60},
   {60},
   {57},
   {59},
   {61},
   {58},
   {59},
   {59},
   {62},
   {62},
   {62},
   {  } ];

deadline = array2d(1..62, 1..3, [1, 2, 1, 6, 3, 0, 8, 2, 2, 8, 2, 0, 32, 0, 1, 35, 3, 4, 42, 3, 5, 42, 1, 4, 45, 5, 3, 49, 4, 4, 55, 3, 2, 55, 2, 3, 57, 2, 3, 57, 1, 0, 59, 3, 5, 61, 1, 1, 61, 3, 5, 65, 1, 0, 70, 5, 5, 74, 2, 1, 79, 2, 0, 80, 3, 0, 80, 4, 3, 83, 3, 0, 85, 5, 5, 87, 4, 1, 89, 3, 1, 90, 3, 0, 91, 2, 0, 99, 5, 4, 102, 3, 3, 102, 0, 1, 105, 2, 3, 105, 1, 0, 108, 1, 2, 108, 3, 1, 110, 5, 1, 119, 2, 2, 119, 2, 0, 120, 3, 1, 125, 2, 4, 127, 4, 0, 128, 5, 1, 129, 5, 1, 134, 4, 4, 136, 2, 4, 137, 1, 5, 138, 2, 5, 149, 2, 3, 150, 2, 2, 150, 3, 4, 155, 2, 5, 155, 5, 1, 162, 5, 3, 167, 0, 5, 168, 0, 3, 181, 3, 3, 182, 3, 1, 188, 1, 2, 189, 2, 3, 194, 3, 2, 195, 0, 0]);
