n_res = 4;
rc = [ 30, 26, 30, 25 ];
n_tasks = 62;
d = [0, 2, 6, 5, 3, 8, 4, 10, 6, 2, 6, 9, 1, 4, 5, 5, 6, 9, 10, 2, 8, 10, 10, 10, 10, 5, 8, 7, 3, 9, 6, 7, 10, 9, 10, 2, 10, 3, 10, 2, 10, 8, 6, 6, 5, 8, 3, 3, 7, 4, 1, 8, 10, 8, 3, 4, 3, 10, 8, 1, 6, 0];
rr = array2d(1..4, 1..62, [0, 0, 0, 8, 10, 6, 0, 2, 0, 3, 0, 0, 10, 0, 10, 0, 0, 0, 9, 9, 2, 6, 0, 7, 2, 0, 7, 0, 0, 0, 7, 8, 0, 8, 0, 0, 8, 4, 0, 0, 10, 2, 0, 0, 0, 0, 0, 1, 1, 0, 0, 0, 0, 0, 0, 3, 0, 8, 2, 6, 0, 0, 0, 0, 0, 8, 2, 0, 7, 10, 0, 8, 8, 0, 0, 0, 0, 0, 8, 7, 0, 5, 0, 0, 0, 0, 0, 0, 2, 0, 9, 1, 0, 7, 0, 0, 0, 0, 0, 0, 2, 0, 4, 0, 1, 0, 10, 1, 0, 0, 0, 0, 8, 5, 5, 0, 10, 0, 3, 0, 1, 9, 1, 0, 0, 1, 3, 0, 0, 9, 9, 0, 3, 4, 0, 10, 0, 9, 2, 9, 3, 0, 6, 2, 0, 0, 3, 10, 0, 0, 0, 7, 6, 3, 1, 9, 8, 8, 0, 1, 0, 0, 0, 1, 0, 4, 4, 4, 8, 0, 0, 0, 2, 2, 3, 4, 2, 0, 7, 0, 7, 0, 6, 6, 0, 0, 0, 1, 6, 0, 4, 0, 0, 0, 0, 0, 5, 0, 0, 9, 0, 2, 0, 0, 10, 0, 10, 6, 8, 0, 6, 6, 1, 0, 0, 0, 9, 0, 6, 0, 5, 9, 0, 0, 9, 1, 0, 0, 0, 2, 8, 0, 2, 3, 0, 2, 5, 9, 0, 10, 0, 2, 0, 8, 10, 0, 1, 0]);

suc = [
   {2, 3, 4},
   {15, 5, 7},
   {10, 21, 14},
   {17, 53, 31},
   {58, 45, 6},
   {8, 11, 31},
   {16, 9, 12},
   {32, 41, 13},
   {24, 18, 22},
   {20},
   {27, 28, 38},
   {17, 52, 61},
   {36},
   {48, 56, 59},
   {24, 26, 19},
   {30, 22, 23},
   {26},
   {35, 23},
   {51, 30, 39},
   {44, 29},
   {25, 28},
   {58, 37, 38},
   {45, 29, 54},
   {34, 39},
   {34},
   {49, 60, 55},
   {48},
   {42},
   {53},
   {50},
   {35, 37},
   {33, 35},
   {36},
   {49, 45},
   {36},
   {42, 50},
   {57},
   {42, 46},
   {40, 49, 46},
   {44, 55},
   {57},
   {43, 47},
   {54},
   {53},
   {46},
   {50},
   {52, 61, 54},
   {52},
   {59},
   {56},
   {55},
   {57},
   {61},
   {56},
   {58},
   {60},
   {60},
   {59},
   {62},
   {62},
   {62},
   {  } ];

deadline = array2d(1..62, 1..3, [5, 2, 2, 8, 4, 2, 11, 5, 3, 12, 4, 4, 13, 3, 3, 16, 3, 2, 17, 4, 0, 21, 0, 2, 27, 4, 5, 28, 0, 4, 31, 4, 5, 33, 0, 3, 39, 4, 0, 41, 0, 1, 41, 2, 3, 41, 0, 4, 43, 5, 3, 47, 5, 5, 52, 2, 0, 55, 0, 1, 63, 1, 1, 63, 4, 4, 65, 0, 4, 72, 4, 2, 73, 4, 5, 76, 2, 0, 76, 0, 0, 77, 4, 2, 78, 2, 0, 81, 3, 0, 84, 4, 3, 84, 5, 1, 86, 1, 1, 90, 1, 4, 93, 4, 5, 97, 0, 1, 103, 5, 3, 104, 1, 0, 104, 3, 2, 107, 4, 3, 112, 5, 5, 122, 4, 1, 124, 0, 2, 130, 3, 3, 132, 2, 4, 133, 3, 1, 135, 3, 1, 136, 4, 1, 137, 3, 0, 138, 4, 3, 143, 1, 5, 149, 4, 5, 150, 2, 2, 152, 4, 2, 156, 5, 4, 159, 5, 1, 160, 5, 5, 162, 1, 4, 163, 3, 5, 164, 5, 5, 165, 0, 3, 166, 5, 1]);
