n_res = 4;
rc = [ 39, 47, 40, 41 ];
n_tasks = 62;
d = [0, 6, 1, 10, 2, 10, 8, 9, 10, 4, 1, 4, 4, 5, 6, 3, 9, 6, 9, 1, 7, 4, 1, 10, 9, 4, 10, 8, 1, 7, 2, 8, 2, 1, 10, 2, 1, 3, 1, 4, 10, 2, 8, 9, 2, 9, 5, 5, 4, 4, 9, 3, 7, 8, 8, 2, 10, 4, 9, 10, 1, 0];
rr = array2d(1..4, 1..62, [0, 10, 8, 6, 3, 5, 10, 3, 2, 3, 5, 5, 2, 7, 3, 9, 6, 7, 7, 2, 5, 9, 2, 9, 6, 2, 5, 3, 7, 7, 6, 6, 3, 3, 6, 8, 5, 7, 3, 1, 8, 10, 6, 5, 5, 3, 9, 9, 1, 9, 9, 4, 2, 1, 10, 3, 7, 2, 3, 9, 6, 0, 0, 8, 8, 8, 1, 4, 8, 8, 6, 7, 3, 5, 4, 7, 9, 2, 7, 7, 3, 2, 2, 1, 8, 9, 1, 4, 7, 7, 8, 1, 10, 10, 3, 6, 2, 2, 6, 2, 7, 9, 9, 8, 6, 6, 1, 1, 6, 10, 8, 1, 6, 3, 4, 1, 10, 5, 5, 7, 6, 6, 6, 0, 0, 6, 5, 10, 7, 3, 10, 4, 1, 8, 8, 3, 7, 6, 6, 9, 8, 2, 10, 2, 7, 1, 7, 1, 5, 8, 5, 7, 5, 7, 10, 7, 2, 1, 8, 10, 3, 6, 8, 1, 2, 5, 2, 3, 9, 9, 1, 6, 8, 2, 1, 3, 4, 10, 6, 10, 4, 10, 6, 3, 9, 0, 0, 6, 6, 6, 5, 4, 3, 9, 10, 2, 4, 7, 6, 7, 7, 2, 10, 10, 7, 7, 10, 4, 9, 1, 1, 6, 8, 7, 2, 4, 7, 6, 2, 4, 2, 2, 10, 3, 5, 5, 1, 10, 10, 7, 1, 2, 6, 7, 4, 9, 6, 10, 7, 7, 6, 9, 3, 10, 6, 2, 7, 0]);

suc = [
   {2, 3, 4},
   {19},
   {5},
   {8, 9, 17},
   {11, 6, 7},
   {24, 10, 14},
   {32, 12, 22},
   {20, 61},
   {16, 21, 13},
   {18, 29},
   {30},
   {18, 15},
   {43, 45, 46},
   {41, 58},
   {31},
   {33},
   {25, 26},
   {19},
   {57},
   {28, 36},
   {40, 49},
   {48, 35, 23},
   {29},
   {27, 60},
   {54},
   {28},
   {39},
   {34, 51, 50},
   {44, 38},
   {51},
   {37},
   {36},
   {52},
   {53},
   {38},
   {53},
   {42, 45},
   {47},
   {45},
   {51, 55},
   {42},
   {44},
   {57, 47},
   {56},
   {50},
   {54},
   {56, 59, 55},
   {54},
   {50},
   {57},
   {58},
   {58},
   {60},
   {55},
   {61},
   {61},
   {59},
   {59},
   {62},
   {62},
   {62},
   {  } ];

deadline = array2d(1..62, 1..3, [1, 5, 5, 4, 4, 2, 5, 4, 5, 6, 5, 5, 7, 3, 3, 9, 0, 3, 11, 2, 0, 12, 4, 4, 12, 2, 2, 13, 4, 3, 13, 2, 5, 15, 5, 3, 18, 2, 5, 18, 5, 3, 20, 5, 3, 20, 5, 4, 21, 4, 0, 23, 3, 5, 24, 5, 1, 24, 4, 4, 31, 3, 5, 32, 2, 1, 35, 1, 5, 40, 3, 4, 40, 5, 4, 44, 2, 0, 44, 5, 5, 49, 5, 4, 54, 4, 5, 59, 1, 0, 64, 1, 3, 66, 3, 5, 66, 5, 5, 69, 2, 3, 71, 2, 4, 71, 5, 1, 73, 2, 4, 75, 4, 3, 77, 3, 0, 80, 3, 0, 81, 0, 0, 82, 3, 1, 85, 4, 1, 85, 4, 3, 95, 0, 5, 97, 4, 1, 97, 4, 5, 100, 1, 1, 111, 1, 5, 116, 2, 0, 117, 5, 5, 118, 3, 2, 118, 1, 5, 120, 1, 3, 127, 2, 1, 128, 1, 4, 129, 4, 5, 135, 1, 2, 136, 0, 0, 136, 3, 4, 138, 5, 4, 139, 1, 2]);
