n_res = 4;
rc = [ 28, 27, 29, 19 ];
n_tasks = 62;
d = [0, 6, 7, 10, 9, 10, 8, 7, 5, 4, 10, 1, 10, 7, 7, 1, 9, 9, 10, 7, 10, 2, 7, 7, 2, 3, 7, 1, 2, 6, 10, 9, 1, 5, 8, 4, 1, 3, 8, 8, 1, 4, 6, 4, 10, 1, 5, 1, 5, 2, 4, 7, 8, 1, 3, 4, 10, 3, 1, 8, 5, 0];
rr = array2d(1..4, 1..62, [0, 0, 0, 0, 0, 4, 0, 6, 0, 10, 0, 0, 0, 4, 0, 10, 0, 7, 0, 0, 3, 7, 7, 2, 0, 0, 8, 5, 9, 5, 0, 9, 0, 0, 0, 3, 0, 0, 3, 7, 6, 4, 10, 9, 0, 0, 10, 0, 0, 0, 0, 0, 3, 5, 5, 8, 7, 0, 9, 3, 1, 0, 0, 0, 2, 0, 2, 0, 6, 5, 1, 4, 6, 10, 3, 7, 0, 1, 2, 0, 1, 0, 8, 0, 0, 0, 2, 0, 8, 0, 10, 0, 0, 2, 0, 0, 10, 9, 9, 2, 10, 0, 0, 0, 10, 0, 8, 0, 3, 0, 0, 0, 6, 1, 7, 0, 2, 0, 8, 3, 0, 0, 8, 0, 0, 8, 0, 0, 0, 0, 0, 0, 2, 5, 2, 10, 8, 0, 0, 6, 2, 7, 1, 6, 0, 0, 5, 4, 4, 5, 0, 0, 3, 9, 10, 7, 0, 0, 3, 0, 2, 0, 3, 10, 3, 9, 5, 3, 0, 2, 0, 6, 4, 3, 0, 9, 0, 0, 5, 0, 0, 10, 0, 0, 0, 0, 0, 2, 3, 2, 2, 0, 0, 0, 0, 0, 10, 0, 0, 0, 6, 0, 5, 4, 0, 9, 0, 0, 0, 0, 0, 4, 0, 0, 0, 0, 0, 0, 2, 4, 0, 0, 4, 5, 0, 0, 0, 0, 0, 9, 10, 0, 8, 1, 0, 0, 4, 0, 0, 7, 6, 2, 0, 0, 0, 8, 0, 0]);

suc = [
   {2, 3, 4},
   {10, 11, 12},
   {5, 6},
   {9, 41, 7},
   {17, 10, 28},
   {8, 58, 46},
   {61},
   {36, 60},
   {34, 35, 45},
   {52, 37, 38},
   {53, 13, 15},
   {18, 22, 47},
   {28, 14},
   {16, 27},
   {55},
   {24, 17, 19},
   {43},
   {27, 21, 31},
   {25, 20, 23},
   {32, 42, 29},
   {44},
   {33, 51, 30},
   {41, 35, 30},
   {56},
   {40, 26, 48},
   {51, 45, 29},
   {32},
   {42, 38, 39},
   {56, 37},
   {32},
   {49, 34, 36},
   {34, 58},
   {45},
   {48, 38},
   {55},
   {42},
   {50, 43},
   {54},
   {54},
   {44, 46},
   {51},
   {44},
   {47},
   {59},
   {59},
   {50, 52, 47},
   {57},
   {50},
   {57},
   {60},
   {56, 52},
   {54},
   {57, 61},
   {55},
   {59},
   {58},
   {60},
   {61},
   {62},
   {62},
   {62},
   {  } ];

deadline = array2d(1..62, 1..3, [3, 3, 5, 7, 2, 5, 8, 4, 2, 8, 1, 2, 9, 2, 1, 9, 4, 1, 11, 2, 1, 15, 3, 3, 18, 5, 4, 19, 4, 4, 19, 1, 3, 22, 0, 5, 27, 1, 1, 32, 5, 3, 36, 5, 5, 38, 2, 2, 57, 5, 4, 59, 4, 2, 68, 1, 0, 74, 0, 0, 80, 3, 5, 83, 2, 1, 85, 3, 3, 89, 1, 2, 91, 1, 3, 99, 2, 1, 99, 0, 5, 101, 5, 5, 104, 0, 0, 109, 4, 2, 111, 1, 0, 113, 5, 5, 123, 1, 5, 124, 3, 2, 128, 1, 4, 132, 3, 1, 135, 4, 2, 135, 4, 2, 135, 3, 1, 137, 1, 0, 144, 0, 1, 150, 2, 0, 152, 1, 5, 155, 4, 1, 156, 3, 0, 159, 3, 4, 161, 3, 5, 165, 4, 0, 166, 3, 0, 166, 5, 1, 167, 5, 3, 167, 2, 1, 167, 3, 3, 175, 1, 0, 176, 4, 1, 182, 1, 4, 183, 0, 0, 186, 4, 1, 187, 3, 2, 197, 1, 4, 200, 1, 1, 201, 4, 2]);
