n_res = 4;
rc = [ 44, 39, 41, 31 ];
n_tasks = 62;
d = [0, 7, 7, 9, 3, 7, 2, 9, 9, 3, 5, 4, 7, 10, 3, 10, 7, 5, 9, 3, 1, 9, 2, 8, 6, 2, 3, 6, 10, 6, 6, 1, 2, 7, 7, 4, 7, 9, 9, 6, 7, 9, 4, 6, 5, 4, 7, 5, 6, 2, 3, 4, 10, 5, 9, 3, 4, 10, 5, 8, 7, 0];
rr = array2d(1..4, 1..62, [0, 0, 9, 1, 0, 6, 0, 1, 9, 6, 7, 0, 5, 2, 0, 6, 6, 4, 2, 10, 0, 4, 6, 10, 4, 5, 0, 5, 6, 6, 3, 0, 4, 0, 0, 7, 8, 7, 1, 4, 0, 3, 0, 0, 6, 8, 8, 0, 8, 2, 8, 4, 8, 0, 6, 10, 2, 6, 8, 10, 7, 0, 0, 6, 0, 0, 8, 10, 2, 3, 4, 3, 9, 4, 0, 0, 0, 4, 10, 6, 0, 6, 1, 0, 0, 1, 10, 10, 4, 8, 1, 8, 0, 0, 8, 1, 2, 7, 0, 0, 0, 9, 0, 1, 1, 9, 6, 3, 4, 9, 0, 7, 2, 6, 5, 4, 0, 0, 0, 10, 10, 0, 3, 0, 0, 6, 1, 7, 8, 10, 5, 9, 6, 7, 8, 8, 2, 1, 4, 3, 8, 1, 0, 4, 0, 0, 10, 8, 1, 6, 1, 8, 2, 0, 10, 3, 8, 9, 0, 10, 0, 8, 10, 9, 1, 3, 8, 4, 7, 0, 9, 9, 6, 0, 8, 0, 10, 2, 6, 7, 4, 5, 1, 0, 1, 0, 0, 8, 2, 1, 1, 9, 3, 6, 0, 3, 4, 4, 6, 0, 7, 0, 2, 3, 3, 0, 10, 0, 7, 0, 4, 6, 0, 7, 3, 3, 5, 7, 0, 8, 0, 0, 8, 3, 4, 1, 2, 4, 4, 0, 5, 3, 0, 0, 0, 10, 9, 5, 3, 3, 3, 0, 9, 4, 2, 7, 1, 0]);

suc = [
   {2, 3, 4},
   {9, 10, 7},
   {37, 5, 6},
   {17, 12, 14},
   {13, 31},
   {60},
   {8, 41, 15},
   {19, 36, 22},
   {16},
   {11},
   {18, 38},
   {27, 20, 30},
   {18, 21},
   {57},
   {24, 25, 46},
   {59},
   {34, 39},
   {45},
   {32, 37},
   {51},
   {23},
   {26},
   {48},
   {33, 35, 52},
   {47},
   {29},
   {42, 28},
   {49, 43},
   {50},
   {59},
   {39},
   {40},
   {43},
   {51},
   {55},
   {57},
   {59},
   {54},
   {48, 44, 45},
   {61, 47},
   {53, 47},
   {57},
   {50},
   {50},
   {56, 49},
   {56},
   {60},
   {54},
   {54, 55},
   {58, 53},
   {52},
   {55},
   {56},
   {58},
   {58},
   {61},
   {60},
   {61},
   {62},
   {62},
   {62},
   {  } ];

deadline = array2d(1..62, 1..3, [3, 2, 0, 4, 1, 1, 6, 2, 0, 7, 4, 2, 9, 4, 5, 13, 4, 3, 18, 5, 4, 20, 1, 3, 20, 4, 1, 25, 0, 5, 25, 3, 5, 26, 3, 5, 26, 1, 5, 44, 4, 3, 53, 1, 5, 57, 3, 1, 57, 2, 4, 58, 4, 1, 62, 1, 5, 62, 5, 3, 64, 2, 4, 64, 5, 0, 68, 1, 2, 72, 1, 1, 73, 4, 0, 75, 0, 0, 78, 0, 2, 81, 1, 1, 82, 0, 0, 84, 0, 0, 86, 5, 2, 86, 4, 2, 88, 0, 0, 92, 4, 3, 97, 2, 1, 100, 1, 0, 100, 4, 4, 101, 5, 4, 104, 2, 3, 113, 3, 4, 113, 5, 5, 117, 4, 2, 117, 5, 1, 121, 4, 1, 121, 0, 4, 123, 4, 5, 123, 4, 0, 123, 1, 4, 124, 4, 1, 125, 5, 5, 126, 1, 3, 132, 2, 0, 134, 5, 2, 134, 0, 0, 139, 5, 1, 143, 1, 0, 145, 3, 0, 147, 3, 5, 147, 5, 2, 148, 0, 5, 148, 1, 0, 155, 5, 3]);
