n_res = 4;
rc = [ 27, 24, 30, 28 ];
n_tasks = 62;
d = [0, 9, 4, 3, 3, 8, 6, 2, 8, 4, 4, 1, 5, 6, 9, 2, 2, 7, 6, 5, 10, 4, 7, 4, 9, 2, 1, 1, 1, 4, 8, 10, 6, 8, 5, 1, 1, 3, 4, 10, 3, 7, 6, 10, 6, 5, 3, 7, 8, 2, 4, 1, 5, 2, 3, 3, 3, 5, 7, 3, 4, 0];
rr = array2d(1..4, 1..62, [0, 8, 0, 2, 4, 0, 0, 0, 4, 0, 2, 0, 0, 0, 0, 5, 10, 8, 0, 7, 6, 9, 3, 0, 2, 0, 0, 0, 2, 3, 0, 2, 0, 10, 6, 7, 0, 0, 8, 7, 0, 1, 0, 9, 5, 0, 0, 0, 2, 0, 0, 0, 4, 0, 0, 0, 0, 5, 2, 8, 0, 0, 0, 7, 3, 0, 7, 3, 0, 10, 0, 4, 1, 2, 0, 0, 0, 3, 0, 5, 10, 0, 0, 3, 0, 0, 3, 10, 0, 9, 0, 0, 8, 0, 0, 0, 1, 0, 6, 0, 0, 0, 9, 0, 2, 1, 0, 0, 5, 0, 0, 1, 3, 0, 5, 3, 0, 0, 10, 9, 5, 0, 5, 0, 0, 3, 6, 0, 0, 0, 9, 0, 6, 0, 4, 8, 3, 0, 0, 0, 3, 9, 7, 10, 6, 0, 0, 0, 0, 0, 0, 1, 1, 0, 8, 0, 3, 6, 0, 0, 10, 1, 0, 0, 0, 3, 7, 6, 2, 4, 0, 0, 1, 10, 4, 6, 0, 0, 7, 7, 4, 5, 6, 0, 0, 0, 0, 0, 0, 1, 6, 9, 0, 0, 0, 6, 0, 2, 0, 5, 8, 0, 0, 0, 0, 7, 0, 0, 0, 10, 0, 0, 10, 0, 8, 0, 4, 0, 10, 5, 0, 9, 0, 0, 0, 7, 0, 2, 2, 0, 0, 0, 9, 6, 2, 6, 7, 5, 10, 0, 6, 6, 0, 9, 0, 0, 5, 0]);

suc = [
   {2, 3, 4},
   {8, 16, 27},
   {5},
   {10, 6, 7},
   {32, 38},
   {9},
   {18, 42, 13},
   {20},
   {17, 26, 11},
   {33, 36, 15},
   {33, 12, 20},
   {30},
   {19, 14, 55},
   {24, 25, 50},
   {57, 34},
   {44, 29, 22},
   {53},
   {40, 45},
   {23},
   {21, 55},
   {57, 28},
   {24, 42},
   {35, 28},
   {39},
   {41, 34, 52},
   {32, 52, 38},
   {56},
   {51, 52},
   {49, 30, 31},
   {56},
   {56, 35, 36},
   {48, 45, 47},
   {54},
   {49},
   {40, 41, 57},
   {40, 37},
   {41, 50, 45},
   {46},
   {48},
   {53},
   {43, 47},
   {59, 46, 47},
   {46},
   {49, 50, 58},
   {55},
   {48},
   {61},
   {51, 60},
   {51},
   {54},
   {53},
   {61},
   {54},
   {61},
   {59, 60},
   {58},
   {58, 60},
   {59},
   {62},
   {62},
   {62},
   {  } ];

deadline = array2d(1..62, 1..3, [1, 0, 3, 2, 3, 1, 13, 2, 0, 15, 3, 2, 20, 0, 5, 23, 5, 2, 28, 3, 5, 32, 5, 5, 33, 2, 2, 33, 1, 5, 35, 4, 4, 36, 5, 2, 38, 3, 0, 38, 3, 2, 41, 2, 2, 41, 5, 0, 42, 5, 4, 48, 0, 3, 57, 4, 5, 59, 3, 3, 60, 1, 5, 61, 5, 1, 62, 4, 0, 63, 3, 3, 68, 1, 3, 70, 0, 1, 72, 2, 1, 73, 5, 4, 76, 2, 4, 78, 4, 1, 79, 3, 5, 80, 0, 4, 85, 1, 5, 87, 2, 4, 92, 3, 1, 95, 0, 3, 95, 1, 3, 97, 2, 4, 98, 4, 2, 98, 1, 4, 101, 2, 0, 104, 0, 1, 106, 1, 2, 108, 3, 4, 111, 1, 1, 111, 1, 0, 111, 4, 4, 112, 2, 3, 115, 3, 2, 117, 1, 3, 118, 3, 1, 122, 0, 3, 129, 5, 5, 130, 5, 5, 142, 5, 3, 143, 4, 2, 152, 3, 4, 152, 5, 5, 156, 5, 1, 161, 5, 0, 165, 4, 5, 167, 3, 5]);
