n_res = 4;
rc = [ 15, 15, 15, 18 ];
n_tasks = 62;
d = [0, 4, 3, 3, 10, 2, 1, 1, 6, 9, 8, 3, 9, 2, 3, 2, 6, 7, 1, 3, 1, 8, 5, 5, 5, 7, 4, 6, 4, 6, 2, 6, 9, 6, 1, 7, 9, 7, 1, 4, 1, 4, 7, 8, 1, 9, 2, 9, 10, 9, 5, 2, 6, 3, 3, 1, 3, 10, 7, 1, 5, 0];
rr = array2d(1..4, 1..62, [0, 7, 0, 4, 8, 7, 0, 7, 7, 3, 3, 8, 0, 5, 2, 0, 0, 5, 8, 2, 10, 8, 3, 2, 10, 4, 0, 5, 0, 3, 10, 9, 6, 6, 1, 4, 7, 9, 0, 1, 0, 3, 0, 8, 8, 4, 7, 8, 5, 0, 7, 0, 10, 0, 7, 3, 6, 6, 1, 7, 9, 0, 0, 0, 7, 0, 0, 2, 4, 1, 2, 5, 9, 6, 0, 5, 6, 4, 4, 6, 0, 6, 2, 7, 0, 1, 6, 9, 1, 6, 10, 5, 7, 10, 0, 1, 2, 3, 4, 6, 3, 0, 0, 0, 8, 8, 9, 0, 5, 10, 8, 0, 0, 10, 7, 9, 0, 7, 10, 1, 0, 3, 3, 0, 0, 8, 2, 10, 7, 10, 1, 0, 5, 3, 6, 10, 6, 0, 1, 5, 10, 8, 2, 10, 5, 8, 1, 9, 4, 10, 0, 7, 5, 0, 2, 0, 0, 3, 0, 3, 1, 6, 4, 1, 9, 5, 0, 0, 1, 0, 0, 0, 0, 2, 0, 2, 1, 0, 2, 7, 0, 7, 0, 2, 4, 0, 0, 8, 8, 9, 1, 4, 4, 1, 0, 7, 8, 0, 7, 7, 10, 7, 10, 0, 1, 8, 6, 10, 10, 9, 6, 0, 0, 2, 9, 9, 5, 0, 1, 1, 0, 0, 4, 9, 9, 0, 5, 1, 9, 1, 1, 5, 8, 5, 0, 6, 6, 0, 7, 6, 10, 0, 6, 0, 1, 0, 7, 0]);

suc = [
   {2, 3, 4},
   {8, 28, 5},
   {11, 6, 7},
   {55},
   {61, 13, 7},
   {9, 45},
   {40, 10, 29},
   {33, 12, 39},
   {24, 21, 14},
   {14},
   {18, 19},
   {36},
   {19, 20, 15},
   {32, 26},
   {16, 17, 39},
   {48, 23},
   {38, 27, 30},
   {40, 22, 55},
   {34, 23},
   {41, 46},
   {41, 28},
   {34, 28, 23},
   {25},
   {36},
   {33, 57, 47},
   {41, 31},
   {34, 37},
   {49, 43, 51},
   {36, 54},
   {48, 35, 37},
   {44, 53},
   {48, 55},
   {44, 38},
   {58, 51},
   {52},
   {56},
   {40, 44, 47},
   {42, 53},
   {43},
   {42},
   {49},
   {54},
   {56},
   {51, 52},
   {57},
   {49, 47},
   {50},
   {56},
   {58},
   {52, 53},
   {54},
   {58},
   {59, 60},
   {60},
   {59},
   {57},
   {59},
   {60},
   {62},
   {62},
   {62},
   {  } ];

deadline = array2d(1..62, 1..3, [3, 0, 3, 4, 0, 2, 9, 1, 3, 9, 1, 4, 14, 3, 1, 16, 3, 1, 20, 4, 2, 21, 4, 1, 22, 1, 0, 30, 4, 0, 33, 5, 4, 37, 3, 4, 39, 5, 3, 42, 0, 1, 43, 1, 0, 43, 3, 5, 43, 3, 3, 50, 0, 4, 50, 0, 2, 54, 0, 1, 62, 4, 1, 65, 2, 1, 68, 1, 4, 70, 1, 0, 74, 5, 1, 78, 4, 0, 81, 3, 1, 90, 5, 4, 95, 5, 4, 96, 5, 3, 98, 3, 0, 98, 3, 5, 98, 3, 1, 104, 2, 0, 105, 1, 0, 106, 2, 0, 107, 0, 1, 109, 1, 3, 110, 3, 1, 117, 1, 4, 119, 2, 0, 121, 2, 4, 126, 0, 2, 129, 1, 5, 132, 1, 0, 138, 3, 0, 139, 0, 1, 139, 4, 1, 140, 4, 4, 140, 1, 0, 144, 1, 4, 144, 5, 5, 148, 3, 2, 151, 3, 5, 155, 4, 1, 156, 5, 2, 157, 1, 3, 161, 0, 3, 162, 0, 1, 165, 4, 3, 172, 2, 5, 174, 5, 4]);
