n_res = 4;
rc = [ 52, 51, 53, 47 ];
n_tasks = 62;
d = [0, 3, 6, 6, 6, 5, 10, 9, 7, 7, 7, 5, 10, 10, 8, 8, 10, 5, 2, 6, 4, 10, 3, 10, 1, 8, 10, 6, 10, 4, 10, 3, 8, 6, 10, 1, 6, 1, 9, 6, 8, 3, 9, 8, 3, 2, 9, 9, 9, 5, 4, 5, 10, 3, 3, 5, 10, 6, 9, 3, 9, 0];
rr = array2d(1..4, 1..62, [0, 10, 10, 7, 2, 7, 10, 9, 4, 10, 6, 6, 3, 3, 10, 3, 6, 1, 6, 4, 10, 7, 6, 4, 7, 10, 2, 2, 7, 9, 8, 2, 2, 10, 9, 9, 9, 8, 4, 9, 10, 3, 7, 9, 4, 5, 5, 8, 10, 7, 1, 3, 9, 7, 2, 5, 6, 8, 10, 10, 5, 0, 0, 10, 6, 8, 4, 1, 1, 1, 7, 1, 2, 1, 9, 4, 8, 9, 3, 6, 6, 5, 4, 5, 10, 9, 6, 2, 9, 10, 6, 2, 7, 7, 3, 6, 10, 4, 6, 3, 5, 8, 4, 7, 7, 3, 1, 6, 5, 8, 6, 10, 10, 7, 7, 9, 1, 9, 8, 4, 4, 5, 8, 0, 0, 8, 1, 7, 3, 2, 10, 4, 10, 9, 4, 2, 2, 3, 3, 10, 5, 8, 7, 1, 7, 10, 6, 8, 9, 10, 4, 9, 9, 1, 10, 8, 1, 6, 6, 5, 5, 1, 8, 8, 2, 8, 9, 5, 4, 10, 6, 2, 6, 1, 8, 9, 7, 7, 3, 2, 1, 7, 7, 4, 9, 0, 0, 1, 10, 9, 9, 9, 4, 9, 5, 3, 9, 5, 4, 9, 10, 2, 7, 8, 1, 1, 3, 10, 1, 10, 5, 7, 6, 6, 3, 4, 10, 4, 2, 3, 4, 5, 5, 3, 8, 6, 3, 7, 10, 5, 1, 5, 6, 2, 6, 10, 10, 6, 6, 10, 3, 3, 4, 4, 4, 6, 8, 0]);

suc = [
   {2, 3, 4},
   {8, 45, 7},
   {47, 14, 15},
   {11, 5, 6},
   {24, 25, 45},
   {33, 18, 13},
   {9, 12, 17},
   {33, 10, 49},
   {16, 49},
   {27},
   {37, 47},
   {37, 38, 39},
   {41, 36, 23},
   {19, 20, 45},
   {25, 22, 57},
   {30, 55},
   {19, 28, 22},
   {59, 21, 23},
   {35},
   {23},
   {49, 46},
   {50},
   {31},
   {26, 27},
   {42, 30, 55},
   {61},
   {29},
   {34},
   {32, 34, 51},
   {56, 39},
   {57},
   {56, 44, 39},
   {36, 53},
   {48, 50, 58},
   {40},
   {37, 54},
   {46},
   {48, 57},
   {43, 54},
   {46},
   {42},
   {53},
   {52},
   {52, 47},
   {50},
   {48, 51},
   {59},
   {52},
   {51, 55},
   {53},
   {61},
   {60},
   {59, 54},
   {60},
   {56},
   {58, 61},
   {58},
   {60},
   {62},
   {62},
   {62},
   {  } ];

deadline = array2d(1..62, 1..3, [7, 5, 0, 12, 1, 2, 14, 1, 3, 18, 1, 4, 19, 2, 3, 29, 5, 2, 39, 4, 4, 41, 1, 0, 42, 4, 0, 54, 0, 4, 56, 3, 0, 56, 2, 4, 58, 4, 1, 59, 3, 5, 59, 1, 5, 60, 0, 2, 61, 4, 0, 61, 2, 4, 65, 1, 2, 67, 2, 1, 67, 0, 4, 68, 2, 4, 71, 0, 2, 72, 2, 2, 73, 5, 3, 77, 5, 4, 80, 2, 0, 83, 0, 4, 85, 5, 4, 87, 0, 2, 91, 1, 1, 93, 2, 5, 94, 1, 5, 98, 0, 0, 99, 0, 1, 100, 4, 1, 101, 2, 4, 103, 3, 2, 103, 1, 0, 106, 2, 2, 108, 2, 5, 108, 5, 3, 111, 0, 4, 111, 2, 5, 113, 2, 0, 115, 1, 0, 117, 3, 5, 121, 4, 1, 122, 4, 1, 126, 4, 4, 128, 3, 0, 131, 2, 0, 132, 2, 5, 147, 0, 0, 150, 1, 3, 155, 3, 2, 157, 4, 0, 165, 2, 4, 165, 2, 2, 167, 0, 1, 173, 3, 0, 178, 2, 3]);
