n_res = 4;
rc = [ 37, 32, 31, 30 ];
n_tasks = 62;
d = [0, 6, 5, 7, 6, 7, 9, 5, 7, 1, 5, 9, 2, 7, 3, 1, 4, 3, 4, 10, 2, 3, 3, 9, 8, 8, 6, 10, 8, 10, 10, 1, 1, 8, 9, 9, 8, 5, 5, 9, 10, 8, 3, 5, 3, 6, 9, 4, 4, 2, 5, 3, 2, 7, 7, 7, 10, 1, 10, 2, 6, 0];
rr = array2d(1..4, 1..62, [0, 1, 4, 6, 5, 8, 9, 4, 10, 7, 7, 10, 5, 3, 3, 10, 7, 6, 8, 2, 10, 2, 7, 8, 1, 6, 6, 1, 8, 6, 10, 6, 3, 4, 9, 9, 10, 3, 3, 3, 1, 4, 7, 6, 9, 7, 10, 7, 9, 4, 7, 4, 9, 4, 5, 9, 5, 4, 8, 10, 10, 0, 0, 8, 3, 10, 8, 8, 6, 6, 6, 2, 4, 1, 2, 6, 1, 5, 3, 7, 9, 5, 2, 6, 3, 8, 8, 8, 1, 2, 1, 2, 3, 8, 1, 10, 9, 7, 3, 1, 8, 7, 8, 4, 5, 1, 10, 8, 8, 4, 4, 6, 8, 1, 10, 4, 10, 8, 9, 10, 8, 9, 6, 0, 0, 3, 3, 2, 4, 3, 1, 3, 1, 9, 9, 4, 7, 10, 9, 9, 6, 5, 6, 5, 7, 8, 5, 1, 10, 5, 9, 7, 3, 2, 10, 6, 4, 5, 2, 1, 8, 3, 7, 10, 6, 1, 2, 6, 9, 9, 7, 10, 8, 8, 5, 3, 8, 2, 6, 1, 3, 6, 8, 10, 7, 0, 0, 6, 6, 3, 2, 3, 2, 9, 1, 1, 3, 1, 9, 3, 3, 5, 4, 2, 6, 9, 1, 4, 9, 2, 3, 2, 7, 6, 1, 1, 8, 6, 4, 6, 3, 7, 2, 8, 5, 1, 8, 3, 3, 10, 5, 9, 4, 5, 7, 4, 4, 9, 10, 3, 7, 6, 5, 3, 10, 8, 7, 0]);

suc = [
   {2, 3, 4},
   {35, 5, 7},
   {11, 21, 6},
   {8, 17, 10},
   {32, 25, 12},
   {16, 32, 13},
   {9, 34, 14},
   {33, 34, 43},
   {61, 19, 29},
   {20, 28, 55},
   {43, 18, 27},
   {20, 44},
   {23, 30, 15},
   {49, 18, 47},
   {33, 37, 31},
   {24, 51},
   {25, 44, 31},
   {53, 20, 28},
   {27, 28, 22},
   {54, 56, 38},
   {36, 31},
   {24, 40, 30},
   {26, 44, 47},
   {41, 42, 37},
   {51, 43, 45},
   {36, 38},
   {40, 59},
   {32, 50, 38},
   {42, 45, 30},
   {41, 54, 39},
   {58, 51, 45},
   {56},
   {35, 36},
   {59, 54},
   {52},
   {40, 58},
   {50, 39},
   {57, 42, 39},
   {58, 46},
   {41, 53},
   {48},
   {46},
   {48, 46, 47},
   {48, 53},
   {49, 55},
   {52},
   {52, 61},
   {49},
   {50},
   {56},
   {61},
   {59},
   {55},
   {57},
   {57},
   {60},
   {60},
   {60},
   {62},
   {62},
   {62},
   {  } ];

deadline = array2d(1..62, 1..3, [4, 5, 4, 8, 5, 0, 9, 4, 5, 12, 0, 0, 14, 0, 3, 17, 4, 1, 20, 1, 3, 27, 2, 3, 29, 3, 1, 32, 4, 0, 33, 3, 0, 35, 1, 0, 39, 4, 4, 41, 5, 0, 41, 3, 5, 45, 2, 0, 46, 2, 3, 47, 2, 0, 47, 5, 1, 48, 0, 4, 52, 0, 2, 53, 3, 2, 54, 0, 1, 54, 4, 2, 59, 1, 0, 63, 0, 3, 63, 5, 0, 66, 0, 3, 68, 2, 0, 75, 4, 1, 76, 0, 0, 78, 1, 5, 78, 3, 1, 80, 2, 1, 82, 0, 0, 88, 4, 1, 89, 2, 3, 99, 3, 5, 101, 5, 3, 102, 1, 2, 106, 3, 1, 112, 2, 5, 119, 4, 0, 119, 4, 1, 119, 2, 0, 120, 2, 1, 121, 0, 5, 124, 4, 4, 135, 0, 4, 135, 1, 3, 139, 2, 1, 145, 3, 3, 151, 0, 3, 153, 2, 1, 155, 1, 3, 158, 0, 5, 164, 2, 0, 168, 4, 1, 175, 2, 1, 179, 0, 0, 180, 0, 5, 180, 5, 3]);
