n_res = 4;
rc = [ 31, 31, 33, 24 ];
n_tasks = 62;
d = [0, 10, 8, 7, 3, 1, 2, 4, 10, 9, 3, 5, 3, 9, 6, 8, 3, 2, 1, 9, 6, 9, 6, 8, 7, 10, 7, 1, 10, 4, 1, 5, 10, 1, 7, 6, 5, 6, 3, 2, 6, 1, 8, 4, 9, 7, 10, 7, 10, 6, 5, 6, 6, 8, 10, 2, 2, 9, 3, 9, 7, 0];
rr = array2d(1..4, 1..62, [0, 9, 8, 6, 4, 3, 7, 9, 4, 8, 10, 1, 5, 9, 3, 4, 8, 9, 1, 3, 5, 9, 5, 1, 10, 5, 8, 3, 7, 4, 1, 4, 2, 4, 6, 8, 1, 3, 9, 6, 5, 5, 10, 10, 8, 6, 8, 5, 9, 6, 2, 1, 6, 7, 9, 3, 1, 10, 8, 2, 2, 0, 0, 3, 1, 1, 10, 2, 10, 4, 10, 3, 8, 5, 2, 6, 9, 6, 3, 2, 2, 7, 10, 7, 9, 4, 10, 7, 7, 2, 2, 4, 1, 8, 8, 3, 7, 4, 10, 6, 2, 6, 8, 5, 5, 4, 6, 10, 7, 2, 6, 4, 6, 4, 8, 8, 3, 3, 3, 1, 8, 1, 2, 0, 0, 3, 5, 5, 10, 4, 2, 5, 5, 3, 6, 4, 2, 9, 9, 5, 7, 4, 10, 4, 9, 4, 8, 4, 6, 10, 9, 10, 5, 9, 4, 5, 7, 10, 8, 4, 6, 4, 9, 7, 9, 3, 8, 9, 6, 9, 4, 6, 8, 8, 9, 7, 5, 9, 10, 4, 9, 3, 2, 9, 6, 0, 0, 1, 9, 8, 2, 3, 4, 10, 6, 8, 2, 10, 7, 1, 4, 1, 1, 4, 10, 3, 10, 6, 1, 8, 7, 9, 2, 6, 2, 10, 2, 6, 7, 6, 9, 2, 7, 3, 7, 4, 2, 4, 5, 6, 4, 5, 6, 6, 1, 9, 5, 5, 8, 2, 6, 10, 6, 6, 1, 5, 7, 0]);

suc = [
   {2, 3, 4},
   {5, 6},
   {26},
   {15, 21, 7},
   {8, 33},
   {16, 30, 47},
   {35, 27, 13},
   {9, 11, 14},
   {10, 46},
   {24, 32, 12},
   {17, 26, 31},
   {18, 45},
   {20, 38},
   {60, 37},
   {50, 47},
   {25, 61, 37},
   {32, 52, 39},
   {42, 19},
   {41, 34, 28},
   {29},
   {22, 31},
   {43, 55, 23},
   {25},
   {49},
   {59},
   {40, 27},
   {32, 42, 46},
   {35, 37},
   {48, 47, 39},
   {44},
   {40, 36},
   {48},
   {58, 53},
   {40, 55},
   {51, 38},
   {49, 44, 45},
   {54},
   {53},
   {43},
   {56},
   {49},
   {43, 52, 53},
   {51},
   {50},
   {56},
   {48, 57},
   {60, 54},
   {60, 54},
   {50},
   {57, 51, 52},
   {56},
   {55},
   {57},
   {59},
   {58},
   {58},
   {61},
   {59, 61},
   {62},
   {62},
   {62},
   {  } ];

deadline = array2d(1..62, 1..3, [4, 3, 0, 6, 5, 2, 13, 1, 5, 13, 4, 5, 18, 0, 3, 24, 1, 0, 26, 2, 5, 27, 2, 4, 28, 0, 5, 30, 4, 1, 36, 1, 2, 41, 2, 4, 47, 0, 0, 53, 5, 2, 55, 1, 1, 55, 4, 3, 55, 0, 2, 57, 4, 4, 66, 3, 1, 68, 4, 4, 70, 2, 3, 74, 0, 4, 77, 3, 4, 83, 4, 4, 87, 1, 0, 89, 2, 1, 95, 1, 0, 101, 0, 3, 102, 1, 1, 102, 4, 4, 103, 2, 5, 111, 4, 4, 127, 0, 4, 128, 5, 5, 132, 3, 0, 133, 5, 3, 135, 3, 0, 137, 1, 0, 141, 0, 3, 145, 4, 3, 154, 0, 4, 154, 5, 3, 161, 0, 5, 165, 1, 2, 167, 5, 2, 173, 5, 4, 183, 0, 5, 184, 5, 0, 186, 4, 4, 192, 1, 1, 197, 1, 3, 197, 4, 3, 206, 3, 2, 206, 4, 3, 206, 4, 0, 211, 4, 4, 214, 5, 2, 216, 1, 1, 224, 4, 0, 227, 1, 2, 238, 4, 5, 244, 1, 5]);
