n_res = 4;
rc = [ 13, 12, 14, 12 ];
n_tasks = 62;
d = [0, 10, 1, 9, 6, 10, 3, 5, 5, 10, 9, 10, 10, 10, 2, 6, 6, 1, 6, 7, 8, 3, 9, 9, 6, 3, 3, 8, 4, 2, 5, 8, 2, 2, 10, 8, 8, 8, 2, 8, 4, 4, 8, 6, 4, 8, 6, 3, 9, 3, 8, 7, 4, 6, 8, 5, 9, 10, 1, 7, 1, 0];
rr = array2d(1..4, 1..62, [0, 0, 0, 1, 0, 0, 0, 0, 7, 0, 0, 0, 6, 0, 0, 5, 10, 0, 0, 0, 0, 0, 0, 2, 0, 8, 0, 7, 0, 0, 0, 0, 0, 0, 0, 7, 0, 0, 0, 0, 0, 10, 1, 0, 0, 0, 2, 0, 0, 0, 0, 0, 0, 0, 0, 0, 0, 0, 0, 0, 0, 0, 0, 9, 0, 0, 0, 0, 0, 0, 0, 0, 0, 0, 0, 0, 0, 0, 0, 0, 0, 0, 0, 0, 8, 0, 0, 0, 0, 0, 0, 0, 8, 0, 0, 0, 0, 0, 10, 0, 5, 0, 0, 0, 0, 3, 0, 0, 0, 10, 0, 0, 0, 1, 0, 0, 0, 0, 2, 0, 8, 0, 0, 0, 0, 0, 1, 0, 6, 0, 0, 0, 0, 3, 8, 0, 0, 9, 5, 0, 0, 0, 10, 0, 0, 7, 0, 0, 6, 0, 0, 0, 0, 0, 0, 0, 0, 1, 0, 0, 0, 3, 0, 5, 10, 0, 0, 0, 2, 10, 0, 0, 0, 0, 0, 0, 5, 0, 0, 0, 0, 0, 0, 9, 0, 0, 0, 0, 0, 0, 0, 6, 7, 4, 0, 0, 0, 4, 0, 0, 0, 0, 0, 1, 0, 1, 10, 0, 0, 0, 0, 0, 7, 0, 8, 7, 0, 5, 7, 0, 8, 0, 0, 0, 0, 0, 0, 0, 0, 0, 0, 0, 0, 0, 1, 1, 4, 0, 0, 4, 5, 7, 0, 5, 0, 0, 5, 0]);

suc = [
   {2, 3, 4},
   {61},
   {20, 6, 7},
   {9, 10, 5},
   {28, 39},
   {17},
   {8, 16, 23},
   {12, 13},
   {24},
   {11, 21},
   {19},
   {15},
   {57, 14},
   {46},
   {25, 18},
   {25, 29, 22},
   {49, 42},
   {26},
   {54, 30},
   {41},
   {48},
   {44},
   {49, 55},
   {34, 35, 46},
   {34, 27},
   {40, 60},
   {43, 37, 31},
   {38},
   {56},
   {32},
   {32, 52},
   {33},
   {51},
   {49, 50},
   {36, 38},
   {48},
   {48},
   {41, 43},
   {57},
   {45},
   {53},
   {43},
   {54},
   {52},
   {50, 58, 47},
   {51, 47},
   {52},
   {57},
   {59},
   {59},
   {53},
   {59},
   {60},
   {56},
   {56, 60},
   {58},
   {61},
   {61},
   {62},
   {62},
   {62},
   {  } ];

deadline = array2d(1..62, 1..3, [4, 4, 3, 4, 4, 2, 8, 2, 5, 15, 2, 1, 15, 2, 2, 16, 2, 3, 16, 0, 5, 18, 3, 3, 22, 0, 1, 24, 5, 5, 25, 3, 1, 25, 0, 2, 26, 5, 1, 28, 5, 5, 29, 5, 0, 29, 0, 2, 40, 1, 0, 40, 2, 1, 41, 1, 4, 49, 2, 1, 51, 1, 5, 54, 2, 1, 59, 4, 4, 60, 4, 1, 61, 5, 4, 62, 1, 4, 62, 1, 0, 63, 1, 1, 66, 1, 2, 75, 2, 0, 84, 3, 4, 84, 2, 2, 85, 1, 2, 88, 0, 4, 94, 3, 0, 103, 4, 2, 103, 4, 3, 105, 5, 0, 109, 5, 0, 110, 2, 3, 114, 4, 2, 115, 1, 2, 123, 1, 1, 130, 5, 1, 131, 3, 0, 133, 2, 2, 137, 3, 4, 141, 4, 3, 143, 2, 3, 143, 1, 4, 149, 5, 3, 149, 4, 4, 150, 3, 3, 153, 4, 4, 153, 2, 0, 155, 2, 5, 155, 4, 2, 157, 3, 1, 159, 3, 1, 168, 5, 3, 170, 5, 4, 173, 2, 2]);
