n_res = 4;
rc = [ 28, 28, 31, 21 ];
n_tasks = 62;
d = [0, 2, 8, 4, 8, 10, 2, 6, 9, 10, 1, 1, 4, 2, 1, 5, 8, 6, 4, 6, 10, 10, 2, 6, 1, 3, 6, 9, 5, 8, 6, 7, 7, 2, 7, 10, 1, 5, 4, 1, 2, 1, 6, 4, 2, 8, 7, 7, 3, 7, 4, 6, 9, 7, 10, 7, 9, 1, 5, 10, 8, 0];
rr = array2d(1..4, 1..62, [0, 0, 7, 0, 2, 3, 6, 10, 0, 6, 0, 0, 2, 0, 7, 0, 5, 0, 6, 10, 0, 7, 1, 0, 0, 7, 2, 0, 1, 4, 0, 4, 2, 10, 8, 0, 0, 2, 5, 8, 3, 6, 10, 1, 0, 0, 3, 1, 0, 0, 0, 10, 8, 0, 0, 0, 0, 0, 9, 0, 1, 0, 0, 0, 0, 3, 0, 0, 0, 3, 0, 7, 0, 6, 0, 1, 8, 6, 0, 2, 5, 0, 0, 0, 0, 0, 1, 4, 0, 1, 10, 10, 2, 2, 0, 0, 7, 3, 10, 0, 2, 0, 4, 0, 0, 6, 4, 8, 4, 4, 0, 1, 6, 7, 0, 0, 0, 5, 0, 10, 0, 0, 0, 0, 0, 6, 0, 6, 2, 0, 0, 1, 10, 0, 7, 0, 2, 4, 0, 0, 0, 2, 6, 0, 9, 0, 7, 0, 0, 0, 7, 1, 10, 3, 0, 8, 10, 0, 0, 0, 0, 0, 0, 0, 0, 0, 10, 7, 0, 0, 3, 3, 5, 0, 0, 0, 5, 0, 2, 0, 0, 10, 0, 5, 2, 0, 0, 2, 0, 0, 0, 3, 0, 0, 0, 0, 1, 3, 6, 3, 3, 0, 5, 0, 0, 9, 0, 0, 0, 5, 9, 0, 1, 6, 0, 0, 6, 0, 4, 0, 5, 0, 0, 1, 0, 10, 7, 3, 4, 0, 5, 0, 10, 0, 0, 0, 0, 2, 0, 5, 0, 6, 10, 0, 0, 10, 0, 0]);

suc = [
   {2, 3, 4},
   {10, 20},
   {12, 6, 7},
   {21, 5, 54},
   {8, 9, 30},
   {19, 11},
   {40, 29, 23},
   {11, 14, 22},
   {43, 29, 39},
   {35, 19, 28},
   {24, 33, 38},
   {32, 13, 15},
   {46, 14},
   {24, 39},
   {16, 17, 18},
   {34, 36, 44},
   {56, 25, 31},
   {52, 21, 31},
   {32, 29, 55},
   {42, 27, 58},
   {53, 46},
   {24, 33, 34},
   {26, 27, 39},
   {26, 37},
   {41, 26, 36},
   {44},
   {48, 28, 45},
   {32, 49},
   {33, 42, 50},
   {34, 38},
   {41, 35, 37},
   {50},
   {57, 51},
   {35, 52, 45},
   {49, 58},
   {37, 54, 47},
   {57},
   {40, 47},
   {48, 51, 53},
   {43, 52},
   {42, 44, 54},
   {61},
   {53, 46},
   {51, 45},
   {47},
   {48},
   {55},
   {56, 49, 50},
   {55},
   {59},
   {60},
   {56, 57, 59},
   {59},
   {58},
   {61},
   {61},
   {60},
   {60},
   {62},
   {62},
   {62},
   {  } ];

deadline = array2d(1..62, 1..3, [2, 4, 1, 4, 5, 0, 4, 4, 1, 17, 2, 0, 25, 5, 1, 27, 1, 0, 32, 5, 4, 35, 4, 2, 40, 3, 2, 40, 2, 1, 42, 3, 5, 45, 0, 4, 46, 5, 4, 47, 1, 2, 52, 0, 5, 58, 0, 2, 58, 5, 4, 58, 2, 1, 61, 5, 0, 64, 0, 5, 67, 3, 2, 68, 3, 2, 69, 4, 2, 72, 1, 2, 75, 5, 1, 75, 2, 0, 77, 5, 1, 78, 0, 2, 81, 2, 4, 84, 0, 2, 85, 1, 3, 88, 1, 0, 88, 4, 4, 88, 1, 3, 89, 2, 4, 98, 2, 4, 101, 5, 1, 102, 4, 4, 105, 5, 4, 116, 3, 5, 117, 4, 5, 121, 2, 0, 121, 2, 3, 124, 3, 4, 125, 3, 0, 128, 2, 5, 130, 0, 4, 136, 4, 5, 144, 1, 3, 150, 5, 3, 153, 1, 2, 154, 1, 2, 158, 0, 0, 159, 1, 4, 160, 5, 3, 161, 3, 3, 161, 0, 2, 163, 5, 2, 163, 3, 5, 163, 3, 5, 164, 0, 4, 168, 1, 3]);
