n_res = 4;
rc = [ 44, 40, 35, 42 ];
n_tasks = 62;
d = [0, 9, 1, 8, 6, 2, 6, 3, 4, 2, 8, 6, 9, 4, 1, 5, 3, 1, 5, 10, 2, 2, 9, 8, 3, 8, 4, 4, 7, 1, 7, 10, 9, 3, 1, 9, 3, 2, 4, 6, 2, 2, 7, 2, 8, 1, 2, 9, 10, 5, 9, 6, 10, 9, 6, 6, 10, 4, 9, 7, 4, 0];
rr = array2d(1..4, 1..62, [0, 4, 6, 3, 7, 0, 9, 0, 7, 6, 0, 4, 8, 0, 7, 1, 2, 2, 0, 6, 8, 10, 9, 3, 10, 0, 7, 8, 9, 7, 0, 4, 0, 0, 0, 7, 0, 8, 8, 7, 9, 10, 0, 9, 1, 10, 1, 4, 9, 2, 0, 2, 1, 1, 7, 9, 9, 8, 7, 6, 8, 0, 0, 3, 0, 6, 9, 1, 3, 2, 1, 9, 8, 10, 7, 5, 3, 3, 0, 1, 1, 6, 2, 10, 7, 4, 1, 10, 0, 7, 7, 2, 1, 1, 8, 0, 4, 2, 0, 3, 3, 0, 5, 10, 6, 1, 2, 10, 8, 0, 7, 10, 1, 0, 6, 0, 8, 2, 0, 3, 3, 0, 10, 0, 0, 0, 0, 5, 9, 1, 3, 10, 1, 0, 9, 0, 3, 5, 7, 4, 0, 0, 3, 0, 6, 6, 1, 2, 4, 8, 0, 0, 6, 3, 8, 4, 2, 8, 3, 0, 4, 0, 9, 5, 10, 4, 1, 0, 0, 0, 7, 9, 0, 0, 0, 0, 1, 3, 1, 10, 1, 7, 2, 3, 4, 0, 0, 0, 1, 0, 0, 10, 1, 0, 8, 7, 0, 0, 5, 7, 2, 4, 0, 9, 9, 7, 2, 6, 0, 10, 2, 3, 9, 0, 2, 3, 3, 2, 9, 0, 6, 4, 5, 0, 6, 7, 10, 5, 3, 10, 10, 8, 1, 0, 0, 0, 2, 1, 0, 5, 2, 0, 7, 0, 1, 9, 2, 0]);

suc = [
   {2, 3, 4},
   {32, 18, 11},
   {14, 6, 7},
   {16, 36, 5},
   {8, 9, 22},
   {53, 13, 38},
   {25, 28, 47},
   {10, 19, 12},
   {48, 17, 28},
   {33, 20, 38},
   {41, 45},
   {28, 14, 15},
   {57, 29, 21},
   {32, 26, 34},
   {17, 61, 30},
   {17, 27, 21},
   {56, 20, 29},
   {24, 19, 23},
   {50, 35},
   {26},
   {42, 52, 47},
   {33, 49},
   {43, 27, 46},
   {33, 50, 35},
   {39, 30, 31},
   {46, 31},
   {42, 51, 44},
   {29, 30},
   {40},
   {49, 43, 46},
   {40, 57},
   {45, 37, 39},
   {44, 53},
   {42, 50, 53},
   {40, 37, 39},
   {54, 38},
   {51, 44, 60},
   {41, 60},
   {41, 49},
   {43, 52},
   {51},
   {45},
   {55},
   {47},
   {48, 59, 54},
   {55},
   {48, 58},
   {61},
   {56, 52},
   {59, 60},
   {56},
   {55},
   {54},
   {61},
   {58},
   {57},
   {58},
   {59},
   {62},
   {62},
   {62},
   {  } ];

deadline = array2d(1..62, 1..3, [1, 4, 5, 4, 1, 3, 4, 3, 4, 4, 1, 4, 8, 4, 1, 9, 1, 4, 14, 5, 2, 22, 3, 2, 22, 5, 4, 22, 2, 0, 31, 2, 0, 32, 4, 3, 36, 1, 5, 40, 0, 1, 41, 5, 1, 43, 2, 3, 47, 4, 0, 50, 2, 0, 55, 1, 0, 59, 2, 2, 62, 4, 1, 65, 4, 2, 71, 2, 0, 71, 3, 0, 75, 4, 2, 83, 1, 3, 83, 5, 2, 85, 0, 5, 86, 0, 0, 86, 4, 3, 88, 2, 1, 93, 2, 3, 96, 0, 5, 102, 4, 1, 102, 5, 0, 103, 1, 3, 107, 5, 2, 110, 1, 0, 110, 4, 1, 110, 4, 3, 119, 0, 2, 120, 2, 2, 125, 0, 4, 126, 5, 3, 127, 0, 2, 128, 0, 3, 132, 2, 2, 141, 0, 5, 147, 0, 4, 152, 1, 3, 157, 2, 5, 166, 0, 0, 177, 1, 0, 178, 4, 1, 179, 0, 5, 196, 1, 1, 197, 1, 1, 200, 1, 5, 200, 3, 1, 205, 3, 3, 210, 4, 3, 210, 4, 0]);
