n_res = 4;
rc = [ 50, 44, 44, 43 ];
n_tasks = 62;
d = [0, 9, 5, 4, 1, 6, 1, 4, 9, 10, 9, 2, 2, 2, 5, 5, 2, 7, 5, 5, 3, 10, 1, 1, 8, 1, 10, 5, 9, 10, 10, 3, 6, 1, 7, 6, 3, 1, 9, 10, 6, 9, 2, 8, 6, 4, 9, 10, 3, 5, 6, 6, 9, 10, 1, 8, 7, 9, 2, 9, 6, 0];
rr = array2d(1..4, 1..62, [0, 4, 9, 5, 3, 1, 10, 10, 3, 8, 10, 10, 7, 8, 5, 1, 4, 9, 6, 5, 5, 9, 3, 8, 9, 5, 3, 4, 10, 4, 8, 6, 6, 7, 10, 10, 7, 7, 8, 4, 9, 3, 2, 8, 3, 2, 1, 2, 5, 9, 6, 10, 4, 1, 4, 3, 1, 6, 5, 10, 10, 0, 0, 5, 4, 3, 8, 9, 2, 3, 4, 4, 10, 4, 6, 3, 5, 10, 10, 3, 8, 8, 5, 4, 8, 6, 7, 6, 5, 4, 10, 8, 9, 10, 1, 5, 9, 8, 5, 8, 2, 1, 9, 6, 7, 10, 10, 7, 2, 1, 10, 9, 5, 6, 6, 3, 8, 9, 4, 4, 5, 9, 8, 0, 0, 7, 6, 5, 4, 5, 6, 8, 3, 4, 10, 1, 7, 5, 6, 5, 10, 3, 9, 3, 2, 1, 10, 5, 4, 8, 7, 8, 5, 7, 10, 5, 10, 7, 4, 8, 3, 5, 5, 6, 7, 2, 5, 3, 6, 9, 4, 2, 6, 2, 2, 10, 5, 3, 10, 2, 1, 5, 5, 5, 10, 0, 0, 4, 6, 4, 2, 4, 6, 7, 4, 6, 9, 5, 3, 2, 7, 2, 4, 5, 7, 9, 6, 2, 4, 8, 8, 2, 7, 8, 2, 7, 5, 2, 9, 7, 6, 4, 3, 3, 2, 1, 4, 2, 8, 2, 1, 2, 3, 6, 9, 8, 10, 8, 6, 6, 3, 3, 8, 3, 8, 8, 1, 0]);

suc = [
   {2, 3, 4},
   {10, 5, 6},
   {17, 39},
   {57, 53},
   {9, 19, 7},
   {8, 20, 14},
   {17, 26, 13},
   {24, 32, 51},
   {41, 52, 53},
   {41, 11, 13},
   {12, 21, 15},
   {16, 19, 14},
   {18, 34},
   {61, 29},
   {57, 29},
   {17, 27, 31},
   {49, 23},
   {36},
   {27, 23},
   {24, 45, 47},
   {46, 35, 22},
   {25},
   {48, 28, 53},
   {49},
   {38, 30, 47},
   {49},
   {28, 29},
   {40, 42},
   {32, 36},
   {40, 36, 39},
   {33, 34, 37},
   {56},
   {51, 52},
   {35},
   {38},
   {42},
   {43},
   {50, 59},
   {48, 43},
   {52},
   {50},
   {44},
   {61},
   {50},
   {59},
   {55},
   {57},
   {51},
   {56, 59, 55},
   {54},
   {54},
   {58},
   {60, 55},
   {56},
   {58},
   {60},
   {58, 60},
   {61},
   {62},
   {62},
   {62},
   {  } ];

deadline = array2d(1..62, 1..3, [3, 2, 1, 7, 5, 5, 13, 3, 1, 24, 1, 3, 30, 0, 5, 39, 0, 0, 46, 3, 1, 47, 4, 0, 51, 3, 3, 53, 3, 2, 61, 2, 1, 64, 0, 4, 68, 2, 2, 72, 1, 5, 76, 2, 5, 83, 4, 2, 90, 2, 5, 103, 5, 0, 107, 5, 4, 109, 5, 0, 111, 5, 0, 123, 1, 0, 126, 2, 0, 134, 4, 4, 136, 5, 5, 136, 0, 0, 144, 3, 3, 148, 3, 5, 149, 3, 2, 150, 2, 2, 158, 4, 0, 159, 4, 1, 161, 1, 3, 166, 0, 2, 172, 4, 2, 172, 2, 0, 195, 3, 2, 197, 2, 1, 199, 5, 2, 199, 3, 0, 200, 2, 3, 204, 1, 1, 206, 3, 3, 206, 4, 0, 209, 4, 1, 211, 5, 5, 212, 0, 5, 213, 4, 4, 221, 2, 3, 225, 2, 4, 231, 3, 4, 233, 1, 3, 235, 2, 4, 237, 4, 1, 238, 1, 3, 250, 1, 5, 251, 3, 3, 253, 3, 0, 254, 4, 1, 257, 5, 5, 271, 5, 5, 276, 2, 5]);
