n_res = 4;
rc = [ 26, 36, 32, 29 ];
n_tasks = 62;
d = [0, 8, 3, 4, 2, 6, 10, 9, 3, 10, 2, 6, 3, 9, 8, 7, 8, 1, 7, 5, 9, 4, 1, 2, 10, 2, 3, 10, 8, 5, 6, 4, 10, 4, 6, 10, 8, 8, 6, 7, 8, 6, 4, 2, 5, 9, 10, 3, 10, 4, 9, 6, 1, 7, 3, 5, 8, 3, 1, 5, 10, 0];
rr = array2d(1..4, 1..62, [0, 5, 8, 9, 0, 5, 0, 7, 2, 0, 8, 4, 2, 3, 5, 2, 6, 10, 5, 0, 8, 5, 8, 10, 9, 3, 0, 0, 5, 6, 6, 1, 0, 0, 1, 0, 8, 6, 10, 3, 0, 3, 6, 6, 4, 0, 6, 8, 10, 0, 6, 0, 1, 9, 8, 2, 6, 5, 0, 10, 1, 0, 0, 5, 10, 5, 2, 9, 3, 0, 7, 6, 6, 0, 0, 8, 10, 5, 7, 2, 0, 8, 10, 9, 0, 0, 0, 6, 6, 5, 0, 0, 10, 9, 7, 7, 8, 1, 2, 8, 2, 10, 7, 3, 3, 1, 3, 0, 0, 1, 0, 1, 3, 0, 5, 9, 10, 4, 8, 6, 8, 5, 6, 0, 0, 5, 0, 5, 3, 7, 2, 2, 10, 1, 0, 5, 4, 1, 4, 3, 0, 2, 1, 10, 6, 3, 3, 5, 1, 9, 7, 8, 6, 5, 0, 2, 0, 10, 7, 0, 3, 5, 5, 2, 5, 4, 5, 2, 6, 0, 10, 0, 0, 2, 0, 6, 3, 6, 6, 10, 0, 4, 4, 0, 1, 0, 0, 10, 10, 0, 0, 7, 0, 3, 9, 10, 0, 2, 2, 3, 7, 0, 0, 9, 3, 8, 8, 5, 0, 7, 2, 0, 7, 0, 4, 6, 7, 0, 10, 7, 5, 5, 8, 1, 0, 1, 2, 0, 8, 0, 0, 4, 0, 3, 2, 10, 6, 9, 9, 0, 0, 8, 0, 6, 0, 0, 9, 0]);

suc = [
   {2, 3, 4},
   {10, 20, 7},
   {9, 12, 38},
   {8, 5, 6},
   {19, 34, 11},
   {22},
   {26, 28, 36},
   {27, 54},
   {25},
   {29, 44, 13},
   {33, 55, 15},
   {50},
   {60, 14},
   {16, 17, 18},
   {24, 30},
   {35, 27, 22},
   {61},
   {24, 41, 21},
   {39, 23},
   {33},
   {46},
   {25},
   {32},
   {43, 47},
   {42, 47},
   {47},
   {41, 37},
   {31},
   {46},
   {40},
   {48},
   {56},
   {36},
   {56},
   {54},
   {43},
   {52},
   {59},
   {51, 43, 52},
   {45},
   {45},
   {53},
   {49},
   {58},
   {50},
   {58},
   {58},
   {61},
   {53},
   {52},
   {60, 53},
   {57},
   {57},
   {57},
   {60},
   {61},
   {59},
   {59},
   {62},
   {62},
   {62},
   {  } ];

deadline = array2d(1..62, 1..3, [2, 4, 5, 7, 5, 3, 9, 4, 4, 18, 4, 4, 18, 4, 0, 21, 2, 5, 22, 5, 1, 25, 1, 1, 27, 1, 5, 28, 3, 4, 28, 5, 1, 29, 3, 2, 30, 2, 5, 32, 4, 3, 33, 0, 0, 33, 3, 3, 33, 1, 2, 35, 0, 3, 39, 0, 2, 42, 1, 0, 45, 2, 5, 51, 1, 3, 52, 0, 1, 53, 1, 0, 55, 2, 1, 59, 3, 4, 59, 4, 0, 60, 1, 5, 60, 4, 4, 63, 2, 2, 67, 5, 5, 70, 3, 3, 77, 1, 5, 77, 2, 3, 78, 0, 2, 78, 1, 0, 80, 2, 1, 81, 4, 3, 85, 0, 1, 92, 4, 5, 101, 0, 0, 102, 4, 0, 103, 2, 1, 107, 5, 3, 110, 2, 3, 114, 4, 2, 117, 1, 0, 117, 5, 1, 119, 3, 4, 131, 0, 1, 138, 1, 0, 140, 2, 0, 140, 5, 4, 140, 0, 4, 148, 4, 4, 155, 1, 5, 156, 0, 2, 156, 3, 3, 159, 1, 3, 166, 2, 2, 173, 3, 3, 174, 4, 1]);
