n_res = 4;
rc = [ 46, 37, 34, 46 ];
n_tasks = 62;
d = [0, 2, 2, 9, 9, 1, 10, 8, 8, 8, 2, 1, 5, 5, 4, 7, 4, 6, 5, 10, 7, 9, 10, 3, 8, 10, 3, 3, 10, 6, 6, 7, 4, 6, 2, 5, 9, 5, 2, 7, 1, 2, 2, 10, 7, 1, 9, 7, 7, 4, 6, 1, 7, 10, 9, 7, 8, 3, 4, 4, 9, 0];
rr = array2d(1..4, 1..62, [0, 0, 0, 3, 2, 6, 7, 8, 0, 7, 1, 1, 0, 1, 6, 1, 10, 3, 9, 10, 7, 0, 9, 3, 8, 0, 0, 7, 0, 0, 6, 3, 1, 3, 4, 6, 3, 3, 3, 9, 5, 0, 10, 0, 1, 4, 9, 0, 0, 8, 3, 6, 9, 5, 8, 6, 8, 4, 0, 8, 0, 0, 0, 1, 8, 2, 0, 0, 10, 4, 0, 0, 5, 6, 10, 2, 1, 8, 6, 2, 10, 1, 4, 0, 0, 10, 0, 5, 4, 7, 0, 6, 7, 1, 0, 0, 1, 6, 8, 10, 3, 10, 4, 5, 10, 8, 0, 9, 4, 9, 5, 9, 6, 0, 7, 2, 8, 8, 7, 9, 0, 0, 1, 0, 0, 3, 0, 0, 9, 9, 0, 0, 2, 1, 9, 0, 3, 0, 7, 2, 0, 3, 1, 3, 3, 0, 8, 7, 0, 4, 5, 0, 2, 0, 7, 4, 8, 6, 7, 0, 3, 2, 0, 9, 0, 10, 0, 10, 5, 0, 7, 8, 7, 0, 9, 4, 0, 6, 0, 1, 3, 4, 5, 4, 9, 0, 0, 2, 3, 0, 0, 6, 2, 5, 7, 2, 0, 3, 6, 7, 3, 9, 4, 6, 3, 9, 7, 8, 2, 0, 6, 7, 7, 3, 6, 0, 0, 7, 6, 7, 0, 7, 10, 10, 0, 6, 3, 2, 0, 9, 7, 10, 0, 1, 3, 6, 4, 1, 5, 9, 2, 7, 3, 3, 8, 2, 0, 0]);

suc = [
   {2, 3, 4},
   {13, 20, 5},
   {12, 61, 15},
   {25, 6, 30},
   {24, 9, 10},
   {8, 20, 7},
   {34, 15},
   {16, 11, 46},
   {26},
   {40},
   {32, 14},
   {25, 18, 42},
   {30},
   {38, 22},
   {17, 42, 19},
   {29, 21},
   {58},
   {54},
   {24, 43},
   {36},
   {33, 27, 23},
   {47},
   {56},
   {26},
   {35, 28},
   {40},
   {32, 28, 39},
   {44, 38},
   {41, 39},
   {40, 37, 31},
   {59},
   {44, 47},
   {49, 50, 54},
   {37, 47},
   {36, 45, 52},
   {41, 43},
   {54, 44, 38},
   {51},
   {50, 55},
   {57, 52, 45},
   {57},
   {60, 46},
   {49, 53, 46},
   {45},
   {48, 49},
   {59},
   {56, 51},
   {59, 53},
   {51},
   {56, 58},
   {55},
   {53},
   {55},
   {57},
   {58},
   {61},
   {60},
   {60},
   {62},
   {62},
   {62},
   {  } ];

deadline = array2d(1..62, 1..3, [1, 3, 4, 1, 5, 5, 4, 2, 1, 17, 2, 5, 23, 4, 2, 26, 2, 2, 27, 5, 4, 28, 4, 2, 29, 0, 3, 32, 3, 1, 33, 3, 0, 37, 5, 3, 37, 3, 1, 39, 1, 0, 40, 1, 3, 41, 2, 1, 51, 1, 1, 57, 0, 0, 59, 4, 4, 59, 0, 3, 63, 3, 2, 65, 0, 0, 65, 2, 2, 73, 5, 5, 77, 2, 4, 82, 5, 4, 83, 1, 0, 85, 2, 4, 89, 0, 5, 92, 3, 2, 100, 0, 5, 105, 4, 1, 107, 1, 1, 111, 4, 0, 122, 3, 5, 132, 4, 0, 134, 3, 5, 138, 0, 5, 142, 5, 4, 147, 4, 4, 149, 0, 3, 154, 5, 4, 158, 3, 5, 158, 4, 1, 158, 5, 3, 159, 1, 4, 163, 4, 3, 167, 3, 2, 172, 3, 0, 173, 0, 2, 185, 0, 5, 185, 3, 4, 191, 5, 1, 199, 5, 2, 201, 1, 3, 204, 4, 1, 211, 4, 5, 215, 3, 5, 216, 3, 1, 217, 3, 1, 218, 5, 2, 218, 0, 4]);
