n_res = 4;
rc = [ 24, 27, 16, 16 ];
n_tasks = 62;
d = [0, 1, 8, 5, 5, 3, 4, 10, 3, 3, 2, 7, 7, 3, 9, 6, 8, 5, 7, 3, 10, 8, 8, 5, 3, 2, 9, 4, 6, 10, 3, 4, 4, 8, 7, 10, 2, 2, 3, 10, 8, 8, 5, 6, 1, 2, 5, 7, 4, 8, 1, 3, 7, 7, 6, 6, 8, 6, 10, 10, 1, 0];
rr = array2d(1..4, 1..62, [0, 0, 0, 0, 5, 10, 0, 0, 0, 0, 0, 0, 0, 0, 0, 0, 0, 0, 0, 0, 0, 0, 0, 10, 9, 7, 0, 0, 0, 9, 9, 0, 0, 0, 0, 0, 0, 0, 0, 0, 0, 7, 5, 0, 0, 0, 10, 0, 0, 0, 0, 0, 0, 0, 0, 0, 0, 0, 0, 1, 0, 0, 0, 4, 0, 2, 0, 0, 4, 0, 0, 0, 0, 0, 0, 0, 6, 3, 0, 8, 10, 0, 6, 0, 8, 0, 0, 0, 0, 0, 0, 0, 0, 0, 2, 9, 0, 0, 10, 0, 0, 0, 0, 0, 0, 0, 0, 0, 0, 3, 0, 0, 0, 1, 0, 0, 0, 0, 2, 1, 2, 0, 1, 0, 0, 0, 0, 0, 0, 0, 0, 5, 0, 1, 0, 6, 6, 0, 0, 0, 3, 0, 0, 0, 0, 10, 0, 0, 0, 0, 0, 9, 0, 0, 0, 10, 0, 0, 0, 0, 0, 0, 0, 0, 0, 0, 0, 0, 0, 0, 0, 0, 0, 1, 1, 0, 9, 5, 2, 0, 0, 0, 0, 0, 0, 0, 0, 0, 5, 0, 0, 0, 0, 0, 5, 0, 1, 0, 0, 4, 0, 0, 0, 0, 0, 10, 0, 0, 0, 0, 0, 0, 9, 0, 10, 0, 0, 0, 0, 0, 1, 2, 0, 3, 6, 6, 5, 0, 0, 1, 4, 2, 0, 0, 8, 0, 0, 0, 0, 0, 0, 3, 0, 0, 0, 0, 0, 0]);

suc = [
   {2, 3, 4},
   {17, 41, 23},
   {5, 6, 14},
   {8, 20, 39},
   {7},
   {9, 13, 15},
   {12},
   {10, 18, 21},
   {19, 11},
   {16, 30},
   {17},
   {57},
   {24, 27},
   {33, 26, 57},
   {25, 52, 31},
   {48},
   {45},
   {46, 25, 22},
   {29},
   {32, 37},
   {43, 35},
   {49, 58},
   {27},
   {36, 47},
   {44},
   {34, 28},
   {40},
   {47},
   {41, 51, 60},
   {42},
   {42, 59, 53},
   {55},
   {34},
   {48},
   {53},
   {38},
   {55},
   {45},
   {40},
   {44},
   {50},
   {61},
   {53},
   {50},
   {56},
   {47},
   {48},
   {58, 51},
   {51},
   {56, 54},
   {54},
   {57},
   {56},
   {55},
   {61},
   {61},
   {59},
   {60},
   {62},
   {62},
   {62},
   {  } ];

deadline = array2d(1..62, 1..3, [1, 5, 5, 2, 4, 5, 11, 2, 4, 15, 1, 3, 16, 4, 1, 21, 3, 0, 27, 0, 4, 27, 2, 3, 27, 3, 5, 33, 3, 2, 34, 3, 5, 36, 5, 5, 37, 3, 3, 41, 0, 1, 42, 2, 2, 43, 5, 2, 43, 5, 2, 44, 0, 0, 46, 2, 3, 47, 2, 5, 54, 2, 5, 54, 0, 3, 54, 2, 2, 55, 5, 2, 55, 3, 3, 58, 4, 2, 60, 4, 3, 61, 2, 5, 66, 1, 2, 68, 0, 2, 69, 5, 3, 72, 1, 2, 77, 2, 4, 77, 3, 5, 79, 5, 2, 85, 0, 0, 86, 4, 5, 88, 3, 2, 88, 1, 2, 96, 2, 0, 97, 5, 5, 98, 0, 1, 103, 5, 5, 103, 2, 4, 103, 2, 4, 104, 0, 2, 106, 3, 4, 112, 3, 2, 116, 4, 0, 122, 2, 3, 123, 2, 2, 124, 1, 0, 137, 2, 0, 137, 1, 5, 138, 4, 0, 139, 0, 4, 139, 3, 2, 139, 1, 2, 139, 0, 4, 146, 4, 5, 153, 5, 5, 157, 4, 1]);
