n_res = 4;
rc = [ 36, 36, 33, 45 ];
n_tasks = 62;
d = [0, 6, 2, 8, 9, 9, 7, 5, 3, 4, 10, 3, 6, 7, 4, 5, 9, 10, 6, 8, 1, 4, 1, 4, 7, 1, 1, 3, 1, 6, 9, 1, 6, 8, 6, 2, 7, 8, 5, 5, 4, 9, 1, 3, 4, 7, 9, 6, 6, 5, 5, 1, 2, 7, 4, 2, 2, 5, 2, 10, 7, 0];
rr = array2d(1..4, 1..62, [0, 5, 10, 5, 9, 2, 1, 2, 9, 1, 6, 1, 4, 1, 3, 8, 4, 4, 4, 1, 1, 3, 8, 8, 9, 5, 7, 4, 7, 1, 10, 7, 3, 2, 4, 4, 6, 1, 2, 3, 3, 4, 7, 7, 9, 2, 6, 6, 3, 1, 8, 2, 7, 10, 4, 1, 6, 8, 10, 3, 3, 0, 0, 7, 1, 6, 6, 5, 9, 10, 9, 9, 9, 3, 1, 2, 7, 6, 7, 1, 6, 1, 10, 8, 3, 3, 4, 4, 5, 2, 3, 7, 9, 6, 9, 6, 5, 7, 6, 1, 7, 1, 1, 6, 8, 1, 1, 4, 8, 4, 5, 9, 6, 5, 5, 3, 8, 4, 6, 2, 1, 10, 9, 0, 0, 1, 5, 10, 10, 5, 6, 2, 10, 6, 3, 8, 5, 8, 2, 1, 3, 2, 4, 3, 9, 2, 2, 2, 10, 2, 7, 5, 4, 10, 9, 1, 6, 5, 2, 3, 8, 2, 5, 6, 5, 6, 8, 3, 1, 2, 9, 8, 4, 2, 9, 8, 10, 2, 5, 10, 6, 3, 10, 2, 1, 0, 0, 6, 4, 7, 7, 1, 4, 2, 5, 9, 8, 4, 1, 1, 3, 10, 6, 10, 8, 9, 9, 6, 3, 5, 1, 10, 1, 9, 8, 8, 4, 3, 8, 6, 10, 9, 7, 2, 3, 1, 9, 9, 8, 7, 3, 6, 5, 10, 1, 9, 2, 1, 8, 9, 7, 3, 8, 8, 5, 2, 4, 0]);

suc = [
   {2, 3, 4},
   {17, 10, 7},
   {25, 34},
   {12, 5, 6},
   {49, 19, 44},
   {16, 9, 35},
   {8, 11, 13},
   {41, 22},
   {45, 23},
   {27, 21, 14},
   {28, 37, 47},
   {49},
   {16, 18, 43},
   {61, 15},
   {55},
   {52},
   {56},
   {24, 20, 30},
   {37},
   {48, 59},
   {33, 26},
   {40},
   {43},
   {46, 38},
   {46},
   {51},
   {57, 29},
   {39},
   {32, 31},
   {47},
   {58},
   {45},
   {54},
   {36},
   {36},
   {50},
   {59},
   {48},
   {53},
   {58},
   {42},
   {49, 61},
   {46},
   {50},
   {50, 51},
   {55},
   {56, 53},
   {56},
   {58},
   {61},
   {60},
   {57},
   {54},
   {55},
   {59},
   {57},
   {60},
   {60},
   {62},
   {62},
   {62},
   {  } ];

deadline = array2d(1..62, 1..3, [4, 5, 3, 5, 0, 4, 6, 2, 0, 9, 0, 0, 11, 2, 2, 18, 0, 1, 21, 2, 0, 22, 4, 0, 26, 4, 3, 26, 3, 2, 29, 5, 0, 32, 0, 0, 37, 3, 4, 39, 5, 4, 39, 5, 3, 40, 0, 3, 41, 3, 3, 42, 4, 2, 44, 0, 0, 44, 1, 5, 45, 5, 4, 46, 0, 3, 47, 5, 5, 47, 1, 4, 49, 3, 0, 51, 2, 4, 57, 4, 5, 61, 5, 2, 64, 0, 0, 71, 0, 3, 73, 4, 2, 77, 0, 0, 81, 4, 3, 82, 5, 4, 83, 5, 5, 84, 3, 0, 85, 2, 0, 86, 5, 1, 89, 5, 1, 90, 0, 3, 93, 0, 0, 94, 2, 3, 101, 4, 4, 108, 1, 4, 112, 0, 1, 113, 3, 2, 114, 4, 5, 114, 4, 3, 115, 5, 0, 115, 4, 0, 119, 3, 4, 121, 3, 3, 126, 1, 1, 134, 3, 0, 137, 1, 5, 138, 0, 2, 139, 1, 0, 140, 0, 3, 141, 2, 0, 142, 1, 1, 143, 1, 3, 145, 3, 3]);
