n_res = 4;
rc = [ 36, 34, 43, 25 ];
n_tasks = 62;
d = [0, 4, 4, 5, 2, 1, 1, 6, 2, 6, 7, 9, 4, 10, 6, 8, 3, 8, 8, 5, 6, 5, 3, 2, 3, 9, 2, 5, 4, 6, 3, 10, 7, 5, 8, 2, 2, 6, 10, 7, 5, 3, 8, 2, 4, 4, 8, 9, 5, 8, 3, 9, 2, 10, 6, 9, 3, 7, 8, 3, 6, 0];
rr = array2d(1..4, 1..62, [0, 7, 9, 0, 0, 0, 4, 0, 0, 6, 2, 3, 0, 4, 0, 2, 8, 0, 3, 0, 8, 6, 0, 6, 9, 4, 7, 0, 3, 0, 0, 5, 5, 4, 8, 3, 9, 4, 9, 0, 2, 0, 0, 0, 0, 8, 3, 4, 0, 6, 0, 9, 0, 2, 0, 10, 10, 0, 9, 0, 9, 0, 0, 3, 7, 0, 0, 0, 0, 0, 7, 3, 0, 0, 0, 0, 2, 0, 9, 10, 7, 0, 0, 1, 0, 10, 5, 0, 0, 0, 0, 8, 1, 7, 6, 6, 6, 2, 10, 0, 0, 0, 0, 0, 10, 0, 0, 9, 0, 0, 0, 0, 1, 2, 0, 1, 1, 2, 1, 6, 6, 0, 0, 0, 0, 0, 0, 1, 3, 1, 2, 0, 8, 0, 10, 8, 8, 0, 0, 0, 9, 0, 0, 10, 8, 0, 5, 0, 0, 0, 8, 2, 10, 0, 0, 0, 0, 0, 0, 9, 0, 0, 0, 4, 9, 1, 0, 5, 0, 0, 0, 3, 5, 10, 0, 0, 8, 0, 0, 0, 0, 10, 5, 9, 10, 0, 0, 0, 10, 0, 7, 0, 0, 4, 4, 6, 6, 9, 0, 0, 0, 0, 0, 1, 1, 4, 1, 0, 0, 3, 10, 5, 0, 5, 0, 1, 0, 0, 0, 6, 0, 3, 5, 6, 0, 0, 0, 10, 0, 0, 1, 0, 0, 0, 4, 0, 3, 1, 0, 9, 0, 0, 0, 10, 0, 4, 0, 0]);

suc = [
   {2, 3, 4},
   {11, 6, 14},
   {17, 5, 7},
   {8, 9, 30},
   {24, 15},
   {33, 18, 19},
   {51},
   {16, 37, 22},
   {10},
   {20, 21, 52},
   {27, 12, 13},
   {49, 28},
   {24, 48},
   {61, 55},
   {40},
   {57},
   {53},
   {25, 29},
   {43, 36},
   {24},
   {26, 50, 23},
   {32, 50},
   {35},
   {41},
   {35},
   {39},
   {34},
   {33, 31},
   {48},
   {36},
   {34},
   {33},
   {60},
   {42},
   {46},
   {46, 38},
   {60},
   {54, 39},
   {41},
   {42, 53},
   {45},
   {44, 55},
   {56, 47},
   {56},
   {59},
   {48},
   {59},
   {61},
   {54},
   {61},
   {57},
   {53},
   {60},
   {56, 55},
   {58},
   {58},
   {58},
   {59},
   {62},
   {62},
   {62},
   {  } ];

deadline = array2d(1..62, 1..3, [2, 1, 1, 3, 0, 5, 5, 2, 2, 8, 1, 3, 10, 3, 4, 12, 5, 3, 14, 0, 5, 19, 3, 2, 24, 1, 5, 27, 4, 1, 27, 0, 0, 28, 2, 5, 28, 2, 2, 29, 4, 0, 29, 0, 5, 30, 1, 4, 38, 3, 1, 40, 3, 4, 42, 5, 4, 42, 5, 1, 43, 3, 0, 51, 1, 0, 54, 4, 1, 54, 5, 3, 56, 1, 0, 57, 3, 3, 59, 1, 5, 60, 2, 3, 65, 4, 4, 67, 5, 1, 68, 0, 1, 71, 1, 2, 71, 3, 1, 75, 4, 1, 79, 3, 0, 81, 1, 1, 84, 4, 0, 85, 3, 0, 88, 1, 0, 92, 0, 3, 93, 2, 3, 94, 5, 5, 101, 0, 0, 102, 1, 1, 103, 0, 3, 113, 2, 1, 115, 3, 5, 122, 0, 1, 123, 5, 5, 127, 0, 0, 133, 5, 2, 135, 1, 2, 137, 3, 3, 139, 5, 3, 140, 4, 5, 143, 3, 3, 143, 0, 0, 144, 4, 3, 147, 1, 0, 147, 2, 5, 152, 1, 4, 152, 5, 0]);
