n_res = 4;
rc = [ 18, 13, 13, 13 ];
n_tasks = 62;
d = [0, 6, 2, 10, 7, 5, 1, 1, 10, 10, 5, 4, 8, 10, 7, 5, 7, 3, 1, 8, 10, 6, 10, 4, 3, 6, 6, 4, 4, 3, 9, 7, 3, 5, 3, 3, 2, 1, 4, 4, 2, 8, 5, 1, 7, 5, 8, 5, 3, 5, 8, 3, 8, 8, 7, 1, 5, 5, 2, 9, 8, 0];
rr = array2d(1..4, 1..62, [0, 0, 0, 0, 0, 4, 0, 0, 3, 0, 0, 0, 0, 7, 1, 0, 0, 0, 4, 0, 0, 0, 0, 7, 0, 0, 0, 0, 0, 3, 8, 0, 0, 8, 0, 0, 0, 6, 0, 0, 0, 9, 0, 1, 0, 0, 8, 8, 4, 0, 8, 0, 0, 0, 0, 0, 0, 5, 0, 8, 0, 0, 0, 0, 5, 0, 0, 0, 10, 0, 0, 0, 5, 0, 0, 0, 0, 0, 2, 0, 0, 6, 0, 0, 0, 0, 0, 0, 0, 0, 0, 0, 0, 0, 8, 0, 0, 0, 0, 0, 0, 0, 0, 0, 0, 0, 9, 6, 0, 0, 0, 0, 0, 0, 6, 0, 0, 0, 6, 0, 0, 0, 0, 0, 0, 3, 0, 8, 4, 0, 0, 7, 0, 0, 0, 0, 1, 0, 0, 0, 0, 0, 0, 0, 0, 0, 0, 0, 2, 0, 10, 2, 0, 0, 0, 2, 0, 0, 4, 0, 0, 0, 0, 2, 8, 0, 0, 0, 0, 0, 0, 0, 0, 0, 0, 0, 0, 0, 5, 8, 0, 0, 4, 0, 0, 0, 0, 0, 0, 0, 0, 0, 0, 0, 0, 3, 0, 6, 0, 0, 0, 4, 0, 1, 0, 0, 2, 3, 3, 0, 0, 8, 0, 0, 5, 0, 0, 0, 0, 0, 0, 9, 7, 0, 4, 0, 0, 0, 1, 0, 0, 0, 0, 0, 0, 1, 0, 8, 0, 2, 0, 0, 0, 0, 0, 0, 7, 0]);

suc = [
   {2, 3, 4},
   {18, 30, 7},
   {13, 52, 5},
   {17, 6},
   {17, 10, 19},
   {8, 42},
   {59, 60},
   {9, 12, 14},
   {35, 11},
   {25},
   {27, 46, 15},
   {16, 33, 20},
   {24, 51, 23},
   {52, 23},
   {21, 38},
   {41, 58, 23},
   {34},
   {56, 26},
   {26, 50},
   {28, 22},
   {45, 30},
   {32},
   {48},
   {26, 36, 39},
   {49, 29},
   {42},
   {56},
   {61, 53, 30},
   {32, 55, 31},
   {31},
   {36},
   {48, 36},
   {40, 44, 46},
   {37},
   {51, 39},
   {58},
   {41, 43, 44},
   {43, 44},
   {48},
   {43, 55},
   {56},
   {45, 47},
   {54},
   {45, 47},
   {49, 55},
   {49, 52, 47},
   {57, 54},
   {53},
   {57},
   {51, 54},
   {61},
   {59, 53},
   {60},
   {58},
   {57},
   {61},
   {59},
   {60},
   {62},
   {62},
   {62},
   {  } ];

deadline = array2d(1..62, 1..3, [1, 5, 5, 4, 3, 3, 10, 2, 3, 16, 5, 3, 18, 4, 5, 18, 5, 1, 20, 0, 2, 21, 4, 2, 21, 3, 0, 24, 0, 3, 31, 2, 0, 31, 5, 3, 34, 1, 4, 39, 4, 5, 39, 4, 0, 40, 5, 4, 47, 4, 2, 49, 1, 3, 53, 1, 2, 54, 0, 0, 55, 0, 5, 56, 1, 4, 57, 0, 0, 65, 3, 2, 68, 1, 5, 68, 1, 1, 72, 4, 1, 75, 3, 2, 79, 4, 2, 82, 3, 0, 84, 2, 3, 91, 0, 1, 91, 2, 0, 98, 2, 4, 99, 5, 5, 101, 5, 4, 103, 5, 2, 109, 0, 0, 111, 0, 4, 115, 2, 2, 116, 1, 5, 131, 1, 3, 132, 1, 0, 139, 0, 3, 145, 5, 4, 152, 3, 3, 157, 0, 4, 160, 3, 3, 168, 1, 3, 170, 4, 1, 170, 2, 1, 171, 1, 0, 171, 0, 5, 176, 1, 3, 177, 0, 3, 183, 4, 1, 186, 0, 3, 189, 4, 5, 189, 3, 0, 191, 0, 5, 191, 1, 3, 191, 2, 1]);
