n_res = 4;
rc = [ 27, 27, 24, 24 ];
n_tasks = 62;
d = [0, 1, 4, 5, 8, 8, 3, 3, 1, 5, 7, 3, 7, 5, 8, 3, 7, 9, 2, 3, 5, 1, 5, 2, 10, 5, 8, 8, 3, 2, 1, 10, 1, 5, 2, 10, 2, 1, 7, 9, 4, 8, 10, 9, 6, 1, 6, 3, 8, 4, 10, 5, 3, 3, 3, 5, 6, 1, 6, 1, 4, 0];
rr = array2d(1..4, 1..62, [0, 1, 0, 9, 1, 0, 0, 4, 3, 0, 7, 3, 10, 6, 7, 3, 1, 10, 0, 1, 3, 0, 4, 10, 5, 6, 4, 0, 0, 5, 0, 4, 1, 10, 8, 6, 4, 9, 6, 9, 6, 8, 0, 6, 10, 0, 1, 4, 1, 0, 0, 5, 8, 4, 0, 0, 1, 5, 3, 9, 5, 0, 0, 6, 0, 5, 0, 1, 7, 8, 0, 10, 10, 0, 10, 1, 2, 4, 2, 0, 3, 5, 3, 4, 3, 7, 0, 9, 7, 5, 7, 2, 9, 3, 5, 9, 0, 1, 9, 2, 2, 9, 3, 10, 0, 6, 5, 3, 0, 0, 0, 8, 5, 7, 0, 7, 4, 9, 10, 0, 6, 4, 0, 0, 0, 10, 0, 5, 0, 3, 1, 8, 1, 6, 0, 6, 0, 5, 7, 1, 3, 6, 0, 0, 4, 9, 0, 4, 0, 9, 0, 4, 6, 0, 3, 7, 10, 7, 0, 0, 1, 3, 8, 0, 10, 4, 2, 0, 5, 6, 3, 5, 0, 3, 4, 3, 1, 0, 2, 10, 8, 0, 3, 0, 8, 0, 0, 4, 3, 0, 8, 6, 10, 1, 7, 7, 0, 9, 5, 10, 0, 8, 0, 6, 1, 6, 9, 2, 0, 8, 10, 3, 0, 2, 0, 8, 0, 0, 1, 9, 0, 4, 6, 1, 1, 0, 5, 6, 6, 1, 0, 3, 5, 1, 6, 1, 10, 9, 3, 2, 6, 4, 7, 3, 8, 7, 3, 0]);

suc = [
   {2, 3, 4},
   {9, 50, 14},
   {13, 5, 6},
   {10, 29, 30},
   {8, 35, 7},
   {19, 12, 46},
   {53, 38, 23},
   {18, 12, 31},
   {58},
   {17, 11, 28},
   {25, 26, 38},
   {24},
   {16, 25, 20},
   {31, 15},
   {56, 19, 29},
   {24, 48, 21},
   {40},
   {33, 21, 39},
   {48},
   {29, 54},
   {22},
   {43, 30, 23},
   {52},
   {32, 36, 45},
   {27, 55, 31},
   {41, 34, 45},
   {43},
   {49},
   {37},
   {32},
   {48},
   {34},
   {45, 37, 54},
   {57},
   {53},
   {51, 44},
   {61},
   {46},
   {42},
   {41, 44, 46},
   {59},
   {50, 55},
   {49, 57, 47},
   {49, 59, 47},
   {53},
   {57},
   {52},
   {60},
   {50, 58, 54},
   {56},
   {52, 55},
   {58},
   {60},
   {61},
   {56},
   {60},
   {59},
   {61},
   {62},
   {62},
   {62},
   {  } ];

deadline = array2d(1..62, 1..3, [2, 1, 3, 9, 0, 1, 17, 2, 5, 18, 1, 4, 18, 2, 1, 23, 2, 1, 23, 1, 1, 25, 3, 2, 27, 5, 2, 29, 3, 3, 30, 3, 1, 33, 2, 4, 33, 5, 3, 36, 3, 4, 37, 2, 2, 37, 1, 3, 37, 0, 5, 46, 3, 0, 48, 0, 0, 49, 4, 2, 52, 3, 3, 54, 5, 3, 58, 5, 0, 61, 0, 4, 63, 2, 5, 64, 1, 2, 64, 2, 1, 66, 0, 2, 70, 2, 5, 73, 4, 5, 74, 2, 3, 76, 0, 3, 77, 5, 4, 81, 5, 4, 88, 1, 1, 90, 2, 2, 90, 3, 0, 91, 0, 1, 99, 3, 1, 103, 5, 3, 105, 5, 1, 108, 3, 1, 108, 5, 2, 109, 5, 0, 109, 1, 4, 112, 1, 3, 114, 2, 0, 126, 1, 4, 127, 0, 0, 127, 3, 3, 128, 4, 0, 130, 3, 5, 131, 3, 5, 132, 5, 4, 138, 1, 4, 140, 3, 4, 144, 3, 2, 146, 2, 0, 151, 4, 5, 152, 3, 5, 153, 1, 1, 154, 4, 0]);
