n_res = 4;
rc = [ 24, 23, 23, 22 ];
n_tasks = 62;
d = [0, 8, 3, 8, 6, 2, 1, 5, 10, 7, 7, 9, 5, 4, 3, 10, 7, 7, 6, 6, 9, 1, 8, 2, 9, 4, 3, 3, 6, 10, 9, 8, 7, 10, 5, 5, 2, 5, 8, 7, 10, 2, 4, 8, 3, 5, 5, 2, 10, 7, 1, 3, 8, 6, 7, 7, 6, 3, 10, 6, 9, 0];
rr = array2d(1..4, 1..62, [0, 10, 0, 0, 8, 0, 3, 8, 7, 7, 1, 5, 6, 1, 2, 6, 1, 10, 0, 0, 1, 1, 7, 0, 4, 0, 0, 10, 0, 0, 8, 0, 1, 9, 0, 0, 6, 1, 8, 7, 4, 8, 8, 7, 5, 7, 6, 0, 7, 6, 7, 3, 1, 6, 1, 0, 10, 0, 5, 10, 0, 0, 0, 4, 1, 4, 10, 3, 8, 0, 6, 1, 10, 0, 9, 0, 6, 4, 6, 3, 0, 0, 3, 4, 6, 5, 7, 10, 0, 10, 8, 6, 2, 2, 4, 5, 0, 6, 1, 5, 3, 0, 0, 0, 4, 0, 10, 10, 1, 4, 0, 3, 6, 0, 0, 0, 2, 0, 1, 8, 7, 8, 0, 0, 0, 5, 7, 6, 3, 5, 10, 10, 3, 1, 0, 2, 1, 6, 9, 0, 9, 2, 3, 6, 5, 0, 0, 2, 2, 6, 6, 0, 9, 10, 0, 5, 3, 4, 4, 1, 1, 0, 7, 4, 0, 7, 7, 9, 3, 8, 0, 5, 9, 0, 5, 8, 0, 4, 9, 10, 3, 0, 10, 0, 0, 0, 0, 1, 6, 5, 0, 5, 1, 6, 9, 2, 6, 3, 2, 7, 10, 7, 0, 0, 7, 6, 0, 5, 3, 10, 10, 6, 2, 7, 8, 5, 9, 1, 10, 6, 9, 0, 4, 1, 0, 0, 8, 3, 0, 7, 4, 8, 6, 0, 2, 9, 0, 9, 8, 10, 0, 4, 2, 7, 10, 5, 10, 0]);

suc = [
   {2, 3, 4},
   {32, 11, 5},
   {8, 46, 38},
   {8, 10, 6},
   {9, 20, 7},
   {33, 12, 14},
   {49, 36, 13},
   {24, 32, 15},
   {16},
   {50, 19, 22},
   {48, 12, 38},
   {51, 43, 15},
   {41, 37},
   {17, 29, 41},
   {58, 30, 39},
   {18, 21, 22},
   {24, 58, 23},
   {25, 19, 30},
   {61, 27, 29},
   {56, 27, 30},
   {25, 29, 31},
   {27, 36, 60},
   {32, 25, 26},
   {53, 55},
   {49, 51, 59},
   {40, 28, 31},
   {42},
   {34, 45, 46},
   {43, 44, 38},
   {57, 36, 52},
   {34, 35, 37},
   {34, 61},
   {48, 42, 37},
   {42, 44, 39},
   {43, 46, 39},
   {40},
   {44, 45, 55},
   {56},
   {52},
   {54},
   {50, 45},
   {52},
   {57},
   {47},
   {47},
   {49, 47},
   {56, 51, 53},
   {50, 54},
   {54},
   {58},
   {57},
   {53},
   {59},
   {55},
   {61},
   {60},
   {60},
   {59},
   {62},
   {62},
   {62},
   {  } ];

deadline = array2d(1..62, 1..3, [4, 3, 0, 4, 5, 1, 5, 1, 5, 6, 5, 5, 9, 4, 0, 12, 2, 3, 18, 2, 3, 24, 5, 5, 30, 5, 0, 32, 2, 5, 32, 5, 1, 37, 2, 4, 38, 5, 3, 39, 2, 4, 43, 1, 4, 43, 4, 3, 49, 2, 0, 67, 2, 3, 78, 5, 2, 79, 1, 0, 82, 2, 5, 86, 4, 4, 86, 4, 4, 92, 3, 5, 94, 5, 0, 102, 5, 4, 105, 1, 5, 106, 2, 2, 107, 4, 2, 112, 3, 3, 113, 5, 0, 116, 1, 2, 117, 3, 2, 118, 0, 1, 120, 5, 4, 126, 0, 5, 129, 3, 2, 129, 2, 5, 131, 2, 1, 132, 2, 1, 136, 2, 1, 156, 3, 5, 165, 2, 1, 168, 1, 0, 173, 4, 2, 189, 0, 1, 189, 0, 1, 192, 4, 2, 195, 4, 3, 197, 0, 0, 200, 5, 2, 205, 4, 4, 214, 0, 0, 218, 5, 3, 218, 5, 0, 225, 2, 0, 228, 5, 3, 229, 1, 3, 231, 3, 0, 233, 0, 2, 234, 0, 5, 235, 0, 5]);
