n_res = 4;
rc = [ 12, 12, 11, 11 ];
n_tasks = 62;
d = [0, 1, 10, 10, 1, 10, 2, 3, 7, 5, 9, 10, 8, 4, 6, 1, 3, 7, 5, 1, 4, 9, 7, 1, 6, 10, 7, 5, 2, 5, 5, 8, 8, 6, 9, 6, 10, 10, 10, 9, 7, 5, 4, 7, 9, 5, 5, 6, 8, 2, 1, 7, 10, 9, 4, 5, 8, 9, 1, 9, 10, 0];
rr = array2d(1..4, 1..62, [0, 7, 5, 0, 0, 0, 0, 0, 10, 0, 4, 0, 8, 0, 0, 10, 0, 9, 0, 0, 0, 0, 0, 0, 0, 0, 0, 0, 0, 0, 3, 0, 0, 10, 0, 0, 0, 0, 0, 0, 10, 0, 0, 2, 0, 0, 5, 0, 0, 0, 0, 0, 0, 0, 0, 0, 0, 0, 0, 0, 0, 0, 0, 0, 0, 0, 0, 0, 7, 0, 0, 6, 0, 7, 0, 0, 0, 0, 9, 0, 0, 0, 0, 1, 0, 1, 0, 3, 8, 10, 0, 0, 0, 0, 0, 0, 0, 0, 0, 1, 6, 0, 0, 0, 0, 0, 0, 0, 0, 7, 0, 0, 0, 3, 0, 0, 6, 0, 7, 7, 6, 5, 3, 0, 0, 0, 0, 4, 0, 7, 0, 0, 0, 0, 0, 0, 0, 0, 1, 0, 0, 0, 10, 9, 0, 0, 4, 0, 0, 0, 0, 0, 7, 6, 0, 5, 0, 0, 0, 7, 0, 0, 0, 5, 0, 0, 1, 0, 0, 0, 0, 0, 0, 1, 0, 0, 0, 0, 0, 6, 0, 0, 0, 0, 0, 0, 0, 0, 0, 0, 6, 0, 0, 9, 0, 0, 0, 0, 0, 3, 0, 0, 0, 0, 0, 0, 5, 0, 0, 0, 8, 0, 0, 0, 0, 0, 0, 0, 6, 0, 2, 0, 7, 0, 0, 0, 0, 4, 0, 0, 2, 6, 0, 0, 7, 0, 3, 0, 9, 1, 0, 0, 0, 0, 0, 0, 0, 0]);

suc = [
   {2, 3, 4},
   {44},
   {11, 5, 7},
   {40, 14},
   {8, 9, 6},
   {16, 27},
   {17, 12, 30},
   {27, 29, 14},
   {10, 19, 37},
   {39, 22, 15},
   {25, 29, 13},
   {20, 37, 36},
   {43, 28, 23},
   {44, 21},
   {16, 18, 21},
   {25},
   {26, 54, 23},
   {42, 20, 31},
   {24, 26, 21},
   {32, 40, 48},
   {32, 57, 31},
   {24, 26, 34},
   {33, 51, 31},
   {25, 35, 29},
   {46, 38},
   {56, 33, 52},
   {44, 37, 38},
   {36, 47, 39},
   {32, 53, 38},
   {49},
   {61},
   {43, 54},
   {47},
   {50, 43, 36},
   {55},
   {45},
   {48, 47, 39},
   {56, 42},
   {40, 41, 58},
   {50, 45},
   {42, 52, 45},
   {50},
   {52, 46},
   {48, 53, 46},
   {49, 51, 53},
   {58},
   {59},
   {58},
   {56, 55},
   {51},
   {55},
   {60},
   {61, 54},
   {59, 60},
   {57},
   {57},
   {60, 61},
   {59},
   {62},
   {62},
   {62},
   {  } ];

deadline = array2d(1..62, 1..3, [3, 1, 1, 6, 0, 5, 9, 3, 3, 15, 5, 1, 16, 3, 5, 19, 1, 0, 21, 3, 0, 23, 4, 4, 23, 4, 1, 24, 4, 2, 33, 5, 2, 44, 1, 5, 56, 2, 2, 60, 1, 4, 61, 4, 1, 61, 2, 1, 73, 0, 3, 73, 2, 0, 73, 5, 3, 75, 0, 0, 76, 1, 0, 93, 5, 5, 93, 1, 0, 99, 5, 0, 100, 3, 3, 110, 2, 0, 115, 3, 0, 117, 5, 0, 117, 4, 2, 119, 1, 4, 121, 3, 3, 124, 4, 5, 128, 2, 1, 131, 5, 2, 138, 4, 3, 143, 4, 2, 145, 2, 0, 150, 2, 4, 155, 2, 5, 155, 5, 1, 159, 0, 4, 162, 3, 2, 164, 4, 5, 177, 1, 0, 181, 4, 5, 182, 5, 3, 185, 1, 0, 186, 4, 2, 194, 4, 1, 195, 2, 2, 200, 4, 2, 202, 2, 1, 203, 0, 4, 205, 5, 5, 206, 4, 5, 220, 5, 2, 223, 0, 4, 228, 4, 2, 228, 0, 0, 233, 3, 3, 236, 0, 2, 239, 2, 2]);
