n_res = 4;
rc = [ 16, 16, 16, 15 ];
n_tasks = 62;
d = [0, 7, 4, 5, 9, 8, 8, 6, 8, 2, 9, 9, 9, 2, 1, 7, 4, 4, 4, 10, 5, 4, 8, 3, 1, 6, 9, 7, 2, 10, 9, 8, 2, 2, 2, 10, 6, 5, 4, 9, 2, 1, 2, 9, 6, 1, 3, 8, 5, 10, 10, 4, 8, 4, 10, 5, 8, 10, 9, 5, 4, 0];
rr = array2d(1..4, 1..62, [0, 7, 9, 7, 1, 6, 1, 0, 4, 10, 0, 7, 5, 0, 6, 4, 0, 5, 6, 4, 0, 0, 0, 8, 6, 6, 3, 9, 0, 1, 0, 6, 1, 9, 2, 8, 5, 0, 4, 5, 2, 3, 0, 10, 0, 8, 1, 9, 8, 0, 5, 9, 7, 4, 9, 4, 1, 9, 10, 9, 0, 0, 0, 8, 5, 0, 9, 4, 8, 0, 3, 4, 0, 4, 1, 10, 2, 1, 8, 3, 1, 7, 3, 0, 10, 3, 0, 9, 8, 9, 4, 0, 9, 1, 9, 1, 1, 3, 8, 9, 9, 4, 9, 2, 4, 0, 7, 6, 3, 2, 7, 3, 4, 1, 3, 0, 0, 5, 0, 3, 8, 7, 8, 0, 0, 4, 0, 9, 3, 3, 0, 10, 5, 10, 7, 3, 7, 8, 4, 2, 9, 0, 8, 10, 7, 1, 4, 4, 0, 1, 5, 3, 6, 0, 4, 10, 5, 9, 0, 0, 5, 9, 3, 7, 1, 8, 1, 2, 7, 1, 2, 10, 9, 0, 0, 5, 9, 4, 0, 4, 10, 0, 2, 1, 0, 0, 0, 5, 3, 0, 5, 2, 0, 1, 0, 0, 3, 0, 4, 0, 0, 1, 0, 9, 6, 0, 7, 0, 5, 0, 0, 8, 9, 10, 3, 0, 5, 0, 1, 5, 6, 4, 3, 4, 0, 0, 0, 0, 10, 10, 10, 0, 5, 5, 0, 9, 2, 0, 0, 1, 8, 5, 2, 5, 3, 0, 2, 0]);

suc = [
   {2, 3, 4},
   {18, 34, 13},
   {24, 49, 42},
   {12, 5, 7},
   {26, 28, 6},
   {29, 35, 21},
   {8, 14, 15},
   {16, 9, 11},
   {10, 27, 39},
   {20, 22},
   {26, 28, 38},
   {40, 18, 37},
   {45, 20, 29},
   {16, 29, 22},
   {17, 25},
   {42, 44},
   {40, 39},
   {33, 19, 31},
   {35},
   {50, 21, 46},
   {36, 38, 23},
   {33, 34, 43},
   {32, 48, 43},
   {48, 37},
   {51, 30, 39},
   {33, 34, 42},
   {32, 30},
   {41, 52, 30},
   {32, 49, 46},
   {56, 36, 47},
   {36, 44},
   {51},
   {56, 41, 35},
   {57},
   {50, 59, 52},
   {57, 55},
   {56, 44, 54},
   {40, 48},
   {41},
   {43, 53},
   {53, 45, 54},
   {50, 52, 53},
   {47},
   {60, 46},
   {47},
   {61},
   {49},
   {55},
   {59},
   {51},
   {54},
   {61},
   {57, 55},
   {60, 61},
   {58},
   {58},
   {58},
   {59, 60},
   {62},
   {62},
   {62},
   {  } ];

deadline = array2d(1..62, 1..3, [10, 3, 4, 21, 2, 3, 23, 3, 5, 23, 3, 4, 25, 4, 4, 25, 0, 3, 39, 3, 1, 42, 5, 5, 46, 4, 4, 48, 5, 2, 54, 4, 1, 55, 4, 1, 57, 3, 4, 61, 2, 0, 64, 0, 3, 66, 0, 5, 68, 4, 0, 69, 5, 4, 70, 4, 0, 73, 0, 4, 75, 3, 4, 79, 1, 1, 80, 5, 2, 84, 5, 2, 90, 0, 5, 96, 0, 5, 105, 1, 4, 105, 3, 2, 107, 1, 0, 108, 1, 0, 112, 0, 2, 115, 0, 0, 119, 4, 1, 123, 2, 1, 127, 5, 4, 128, 1, 3, 131, 0, 1, 131, 4, 2, 133, 2, 4, 142, 1, 1, 150, 3, 4, 150, 5, 3, 151, 2, 4, 154, 5, 0, 157, 5, 3, 159, 4, 2, 160, 5, 5, 160, 3, 2, 168, 5, 2, 173, 0, 3, 190, 4, 1, 194, 2, 5, 200, 0, 0, 203, 3, 0, 211, 4, 3, 213, 5, 3, 214, 2, 2, 221, 5, 0, 228, 0, 3, 228, 0, 0, 230, 5, 5, 235, 5, 4]);
