n_res = 4;
rc = [ 44, 44, 43, 51 ];
n_tasks = 62;
d = [0, 4, 2, 5, 4, 4, 1, 10, 7, 7, 5, 6, 9, 6, 5, 1, 9, 7, 10, 8, 3, 7, 9, 7, 1, 8, 4, 9, 1, 2, 2, 10, 2, 8, 10, 2, 7, 1, 10, 5, 2, 5, 8, 2, 9, 9, 9, 1, 10, 9, 3, 4, 6, 2, 10, 8, 5, 6, 6, 8, 3, 0];
rr = array2d(1..4, 1..62, [0, 6, 10, 8, 4, 4, 2, 1, 7, 2, 6, 2, 5, 8, 9, 2, 10, 2, 8, 7, 2, 9, 7, 2, 4, 4, 5, 8, 8, 3, 10, 6, 2, 1, 6, 3, 10, 5, 7, 9, 3, 2, 5, 1, 3, 6, 9, 10, 7, 8, 7, 6, 1, 8, 7, 1, 6, 6, 7, 5, 7, 0, 0, 6, 6, 1, 5, 6, 1, 3, 7, 8, 3, 10, 2, 7, 3, 5, 1, 6, 10, 10, 10, 5, 5, 9, 5, 8, 9, 5, 9, 2, 1, 8, 2, 5, 3, 2, 9, 4, 3, 10, 6, 4, 6, 9, 8, 3, 8, 4, 3, 8, 10, 9, 1, 5, 8, 4, 2, 3, 1, 1, 3, 0, 0, 6, 8, 7, 5, 8, 8, 9, 7, 1, 10, 5, 8, 7, 4, 4, 3, 10, 5, 2, 8, 3, 1, 10, 10, 5, 8, 2, 6, 9, 4, 1, 8, 5, 1, 4, 10, 5, 5, 5, 9, 4, 1, 6, 6, 9, 3, 5, 9, 1, 8, 8, 2, 2, 10, 10, 8, 10, 9, 7, 3, 0, 0, 5, 9, 1, 6, 1, 4, 7, 3, 9, 6, 8, 10, 7, 10, 9, 4, 10, 3, 1, 10, 4, 6, 5, 10, 8, 7, 5, 9, 10, 8, 1, 5, 7, 7, 4, 6, 2, 5, 6, 6, 5, 9, 4, 8, 8, 3, 2, 5, 10, 7, 9, 8, 5, 9, 4, 9, 2, 9, 6, 6, 0]);

suc = [
   {2, 3, 4},
   {10, 27, 14},
   {9, 6, 7},
   {21, 53, 5},
   {19, 60, 31},
   {13, 22, 15},
   {8, 40, 31},
   {32, 54},
   {32, 30, 39},
   {18, 11, 12},
   {57, 21},
   {48, 20, 30},
   {16, 17, 19},
   {48, 28, 29},
   {16, 35, 46},
   {32, 25, 23},
   {24, 51, 44},
   {24, 21, 55},
   {35, 36, 30},
   {33, 38, 55},
   {42, 45, 37},
   {26, 36, 23},
   {51, 54},
   {25, 29, 49},
   {26, 28, 42},
   {53, 39},
   {28, 29, 38},
   {52},
   {56, 41, 31},
   {34},
   {57, 34},
   {48, 42, 44},
   {34, 36, 37},
   {47},
   {41, 55},
   {41, 46},
   {43, 46, 39},
   {50, 53, 45},
   {50},
   {43, 45},
   {47},
   {58},
   {50, 51, 44},
   {59, 52},
   {49},
   {59, 47},
   {61},
   {49},
   {60},
   {54},
   {52},
   {58},
   {56, 57},
   {58},
   {56},
   {61},
   {59, 61},
   {60},
   {62},
   {62},
   {62},
   {  } ];

deadline = array2d(1..62, 1..3, [7, 0, 5, 8, 4, 3, 9, 2, 0, 11, 3, 3, 13, 4, 0, 14, 2, 4, 17, 1, 3, 17, 3, 4, 17, 2, 5, 19, 2, 2, 21, 3, 5, 24, 0, 3, 27, 2, 4, 31, 3, 5, 34, 3, 5, 34, 5, 3, 45, 5, 2, 48, 0, 3, 48, 4, 0, 56, 4, 4, 56, 1, 1, 61, 5, 5, 63, 3, 0, 69, 1, 2, 72, 5, 0, 76, 0, 1, 79, 1, 0, 81, 4, 0, 90, 5, 4, 92, 3, 1, 101, 0, 2, 109, 3, 4, 111, 4, 5, 112, 2, 3, 113, 2, 0, 113, 2, 5, 116, 5, 0, 120, 4, 1, 134, 1, 4, 137, 4, 4, 137, 3, 1, 138, 0, 5, 140, 0, 4, 140, 0, 1, 147, 1, 4, 151, 3, 3, 152, 5, 4, 153, 4, 1, 156, 2, 5, 160, 2, 3, 163, 4, 1, 166, 3, 2, 167, 5, 0, 168, 4, 1, 169, 4, 5, 170, 4, 3, 174, 0, 3, 176, 1, 5, 178, 5, 5, 185, 2, 5, 186, 3, 1, 186, 2, 1]);
