n_res = 4;
rc = [ 13, 15, 14, 14 ];
n_tasks = 62;
d = [0, 9, 7, 7, 9, 7, 10, 6, 3, 9, 7, 6, 9, 8, 5, 2, 6, 4, 9, 4, 4, 3, 2, 4, 2, 4, 2, 1, 8, 3, 7, 7, 10, 10, 7, 9, 10, 10, 6, 9, 4, 1, 1, 4, 2, 2, 6, 10, 7, 8, 9, 5, 4, 3, 4, 8, 3, 2, 8, 7, 1, 0];
rr = array2d(1..4, 1..62, [0, 8, 0, 10, 0, 8, 0, 0, 6, 0, 9, 0, 0, 0, 0, 2, 1, 4, 2, 0, 7, 0, 0, 3, 3, 1, 0, 0, 0, 0, 9, 0, 0, 0, 6, 0, 0, 0, 0, 0, 0, 1, 0, 3, 0, 5, 0, 0, 8, 0, 0, 0, 0, 0, 9, 2, 0, 0, 0, 0, 0, 0, 0, 0, 10, 0, 0, 0, 0, 6, 0, 10, 0, 0, 9, 0, 0, 0, 0, 0, 0, 0, 0, 0, 0, 0, 0, 0, 0, 0, 0, 0, 0, 0, 0, 0, 0, 10, 4, 0, 0, 0, 0, 0, 2, 0, 0, 0, 6, 0, 0, 0, 10, 0, 3, 0, 0, 0, 0, 5, 10, 0, 0, 0, 0, 0, 0, 0, 9, 0, 8, 0, 0, 0, 0, 10, 0, 0, 0, 0, 0, 0, 0, 0, 0, 3, 7, 0, 0, 0, 0, 1, 3, 2, 0, 0, 0, 1, 0, 0, 0, 0, 0, 6, 0, 0, 0, 0, 0, 0, 0, 8, 0, 2, 0, 1, 0, 0, 0, 0, 4, 0, 0, 5, 5, 0, 0, 0, 0, 0, 0, 0, 0, 0, 0, 0, 0, 0, 0, 2, 9, 0, 0, 0, 0, 6, 0, 0, 0, 0, 0, 0, 10, 0, 0, 0, 0, 6, 5, 0, 0, 0, 0, 7, 2, 0, 6, 0, 0, 0, 10, 0, 0, 0, 0, 0, 0, 0, 0, 10, 0, 0, 0, 0, 0, 0, 0, 0]);

suc = [
   {2, 3, 4},
   {29, 7},
   {12, 5, 6},
   {49, 27},
   {8, 28, 23},
   {9, 11, 13},
   {31},
   {16, 18, 15},
   {10, 36, 22},
   {17},
   {14},
   {33, 50},
   {59, 19},
   {20, 37},
   {35},
   {24, 21},
   {47},
   {48, 26},
   {27},
   {60, 30},
   {25, 34, 58},
   {61},
   {32},
   {42},
   {35},
   {39},
   {33, 31},
   {46},
   {44},
   {32, 43, 38},
   {45},
   {40, 41, 44},
   {57, 58},
   {56, 47, 39},
   {45},
   {44},
   {55},
   {54},
   {42},
   {52},
   {58},
   {53},
   {51},
   {53},
   {60},
   {50},
   {50, 53},
   {59},
   {52},
   {54},
   {55},
   {55},
   {54},
   {59},
   {57},
   {57, 60},
   {61},
   {61},
   {62},
   {62},
   {62},
   {  } ];

deadline = array2d(1..62, 1..3, [4, 5, 3, 4, 1, 2, 11, 0, 0, 16, 3, 3, 26, 5, 1, 27, 1, 0, 29, 5, 3, 31, 5, 3, 34, 0, 5, 34, 3, 3, 35, 0, 5, 36, 0, 5, 40, 3, 5, 40, 1, 4, 42, 4, 2, 43, 1, 2, 48, 5, 4, 50, 0, 0, 55, 4, 2, 56, 1, 2, 61, 3, 2, 63, 5, 3, 63, 4, 3, 63, 0, 0, 68, 0, 2, 71, 0, 2, 78, 5, 2, 80, 4, 1, 81, 4, 1, 82, 2, 4, 85, 1, 2, 85, 1, 3, 92, 2, 3, 93, 0, 1, 94, 3, 1, 95, 0, 1, 97, 2, 1, 105, 5, 0, 107, 4, 2, 107, 1, 3, 109, 1, 3, 111, 0, 2, 113, 2, 5, 115, 3, 5, 118, 2, 3, 119, 5, 3, 119, 2, 2, 120, 5, 4, 123, 4, 1, 124, 1, 2, 130, 1, 2, 136, 5, 3, 137, 4, 0, 138, 1, 4, 138, 3, 4, 141, 1, 3, 142, 3, 0, 144, 0, 2, 150, 4, 0, 151, 4, 0, 160, 5, 0, 162, 3, 1]);
