n_res = 4;
rc = [ 16, 15, 15, 15 ];
n_tasks = 62;
d = [0, 8, 4, 10, 2, 4, 3, 4, 2, 3, 9, 9, 5, 2, 7, 1, 7, 7, 8, 2, 9, 1, 9, 4, 10, 2, 4, 10, 1, 1, 3, 9, 8, 3, 9, 8, 6, 4, 7, 9, 7, 7, 7, 6, 6, 6, 3, 2, 3, 6, 4, 9, 8, 6, 2, 8, 3, 10, 5, 3, 7, 0];
rr = array2d(1..4, 1..62, [0, 4, 8, 0, 0, 7, 6, 9, 4, 0, 7, 9, 2, 6, 0, 3, 8, 7, 7, 3, 2, 4, 2, 3, 10, 0, 2, 7, 7, 0, 7, 6, 1, 5, 5, 1, 4, 10, 1, 2, 7, 6, 0, 8, 2, 3, 6, 0, 2, 4, 4, 10, 2, 6, 2, 7, 0, 6, 0, 5, 5, 0, 0, 3, 10, 0, 0, 1, 9, 3, 0, 5, 10, 4, 8, 3, 0, 0, 8, 10, 4, 7, 0, 0, 2, 5, 8, 10, 0, 4, 10, 0, 0, 9, 4, 7, 0, 1, 4, 5, 5, 4, 2, 1, 5, 3, 0, 9, 5, 3, 1, 7, 5, 10, 0, 2, 0, 7, 1, 7, 3, 0, 0, 0, 0, 0, 6, 8, 6, 4, 4, 9, 0, 0, 10, 8, 0, 6, 1, 8, 3, 0, 0, 0, 2, 9, 3, 1, 5, 5, 10, 9, 0, 8, 7, 8, 2, 3, 8, 1, 5, 0, 8, 0, 5, 7, 0, 0, 1, 0, 2, 0, 0, 2, 1, 0, 6, 7, 1, 3, 7, 2, 6, 8, 5, 0, 0, 9, 2, 0, 9, 0, 7, 0, 8, 6, 8, 0, 10, 0, 8, 8, 7, 0, 10, 5, 9, 8, 0, 5, 0, 0, 3, 2, 1, 0, 6, 0, 10, 3, 8, 5, 1, 1, 9, 0, 2, 10, 5, 0, 0, 4, 0, 0, 1, 3, 7, 10, 6, 5, 1, 4, 6, 5, 6, 0, 7, 0]);

suc = [
   {2, 3, 4},
   {24, 18},
   {9, 6, 7},
   {8, 17, 5},
   {24, 12, 37},
   {16, 13, 15},
   {32, 29, 23},
   {16, 10, 11},
   {33, 37, 30},
   {25, 27, 13},
   {24, 46, 22},
   {26, 44, 55},
   {28, 14, 55},
   {41, 18, 42},
   {48, 43, 22},
   {28, 21},
   {32, 19, 54},
   {20, 21, 38},
   {25, 33},
   {26, 22, 39},
   {48, 31},
   {30},
   {56, 42, 30},
   {56, 27, 38},
   {26, 28, 37},
   {34},
   {33, 41, 31},
   {34, 35, 58},
   {40, 45, 38},
   {57, 44, 31},
   {49, 45},
   {35},
   {59, 55},
   {51, 53},
   {36},
   {48, 42, 51},
   {46},
   {52, 47, 39},
   {50, 60, 53},
   {56, 41, 43},
   {50, 47},
   {43, 60},
   {46},
   {49, 45},
   {50, 52},
   {53},
   {49, 54},
   {52},
   {58, 51},
   {54},
   {59},
   {59},
   {57},
   {61},
   {57},
   {58, 61},
   {61},
   {60},
   {62},
   {62},
   {62},
   {  } ];

deadline = array2d(1..62, 1..3, [8, 0, 5, 9, 3, 0, 13, 2, 5, 13, 1, 3, 16, 1, 1, 17, 0, 4, 20, 5, 0, 26, 3, 0, 26, 3, 2, 26, 5, 0, 28, 3, 3, 31, 2, 3, 34, 4, 0, 34, 5, 3, 36, 1, 2, 38, 2, 1, 41, 3, 5, 43, 3, 0, 51, 3, 3, 59, 1, 0, 59, 4, 2, 60, 0, 5, 64, 4, 5, 64, 5, 1, 66, 2, 0, 76, 0, 5, 78, 5, 3, 82, 0, 0, 83, 2, 2, 88, 5, 4, 100, 4, 5, 103, 1, 1, 104, 4, 2, 107, 0, 4, 108, 4, 2, 110, 3, 0, 116, 3, 1, 122, 2, 2, 136, 2, 2, 137, 3, 5, 138, 3, 0, 144, 2, 3, 145, 1, 3, 153, 1, 5, 153, 2, 0, 157, 3, 4, 158, 4, 1, 158, 5, 5, 164, 2, 3, 165, 1, 2, 174, 3, 2, 175, 5, 0, 181, 0, 4, 195, 3, 3, 200, 0, 3, 200, 1, 4, 209, 3, 5, 213, 4, 4, 222, 1, 3, 240, 5, 4, 242, 2, 4, 247, 5, 3]);
