n_res = 4;
rc = [ 47, 41, 38, 33 ];
n_tasks = 62;
d = [0, 9, 1, 2, 9, 1, 8, 7, 5, 7, 4, 6, 7, 4, 6, 2, 3, 5, 8, 5, 2, 8, 2, 3, 2, 2, 6, 2, 7, 7, 9, 10, 2, 9, 4, 8, 10, 5, 7, 2, 10, 2, 8, 5, 10, 7, 7, 6, 6, 9, 8, 5, 4, 4, 8, 7, 2, 5, 8, 10, 7, 0];
rr = array2d(1..4, 1..62, [0, 5, 4, 0, 10, 7, 0, 0, 6, 0, 5, 0, 9, 6, 1, 0, 5, 0, 0, 0, 0, 0, 0, 0, 0, 0, 8, 9, 10, 0, 8, 0, 0, 6, 0, 0, 10, 3, 6, 9, 2, 5, 0, 0, 3, 6, 0, 5, 0, 0, 0, 0, 0, 0, 0, 0, 9, 0, 0, 4, 0, 0, 0, 0, 0, 3, 0, 0, 3, 10, 0, 0, 0, 0, 0, 0, 9, 0, 0, 0, 8, 0, 0, 0, 0, 0, 0, 0, 1, 0, 0, 0, 3, 10, 6, 0, 6, 7, 10, 5, 0, 5, 0, 0, 8, 0, 7, 0, 4, 0, 0, 7, 5, 7, 2, 8, 6, 1, 0, 0, 9, 0, 0, 0, 0, 0, 0, 0, 0, 0, 0, 2, 4, 5, 0, 9, 3, 0, 0, 3, 0, 5, 5, 3, 0, 0, 5, 2, 0, 7, 0, 0, 0, 10, 0, 2, 0, 8, 0, 3, 5, 4, 2, 0, 1, 6, 0, 2, 0, 0, 0, 3, 10, 8, 7, 0, 0, 6, 8, 2, 8, 0, 0, 0, 1, 0, 0, 0, 8, 0, 0, 6, 3, 10, 3, 0, 2, 0, 0, 3, 7, 3, 9, 7, 2, 8, 1, 6, 4, 0, 5, 5, 0, 0, 0, 10, 0, 1, 3, 3, 9, 0, 0, 5, 2, 0, 7, 0, 4, 0, 5, 9, 5, 5, 8, 0, 10, 0, 2, 1, 0, 5, 0, 9, 1, 9, 0, 0]);

suc = [
   {2, 3, 4},
   {8, 11, 21},
   {33, 22, 23},
   {5, 6, 7},
   {13},
   {24, 29, 15},
   {9, 10, 11},
   {12, 13},
   {18, 30, 31},
   {35, 36, 21},
   {17, 18, 19},
   {16, 29, 14},
   {25, 39},
   {49},
   {33, 20, 55},
   {32, 43},
   {27},
   {50, 55},
   {41, 34, 46},
   {26, 50},
   {34, 44},
   {38},
   {49},
   {49, 36},
   {35, 38},
   {38, 28, 30},
   {60},
   {48},
   {57, 61, 39},
   {51},
   {41, 35},
   {48},
   {50, 39},
   {37},
   {42, 53, 54},
   {54},
   {53, 47},
   {40},
   {58, 59},
   {41},
   {56, 44, 45},
   {48, 51, 46},
   {56, 51, 44},
   {47},
   {53},
   {52, 47},
   {59},
   {58},
   {52},
   {54},
   {61},
   {55},
   {57},
   {58, 61},
   {56, 57},
   {60},
   {59},
   {60},
   {62},
   {62},
   {62},
   {  } ];

deadline = array2d(1..62, 1..3, [4, 4, 4, 5, 1, 2, 6, 4, 0, 6, 3, 3, 11, 0, 1, 13, 5, 3, 14, 1, 5, 15, 0, 1, 19, 5, 3, 19, 4, 5, 23, 5, 2, 25, 3, 5, 26, 5, 5, 28, 3, 5, 30, 2, 1, 34, 5, 0, 35, 5, 2, 38, 3, 5, 40, 3, 2, 41, 2, 1, 45, 2, 3, 45, 2, 4, 47, 0, 5, 51, 1, 1, 55, 3, 2, 56, 0, 2, 61, 4, 3, 65, 1, 3, 66, 4, 2, 68, 4, 5, 70, 4, 1, 71, 0, 5, 72, 2, 4, 73, 0, 3, 74, 3, 4, 80, 4, 5, 83, 4, 0, 84, 5, 5, 84, 0, 2, 95, 1, 2, 97, 2, 1, 98, 4, 2, 105, 2, 1, 108, 4, 5, 109, 1, 3, 110, 4, 4, 116, 5, 5, 118, 5, 0, 119, 3, 3, 124, 5, 3, 124, 2, 2, 128, 5, 1, 129, 0, 4, 130, 0, 0, 130, 1, 5, 130, 3, 0, 138, 2, 5, 156, 3, 1, 161, 2, 1, 164, 2, 2, 167, 5, 1, 168, 5, 0]);
