n_res = 4;
rc = [ 16, 23, 21, 19 ];
n_tasks = 62;
d = [0, 3, 6, 1, 2, 6, 7, 4, 8, 1, 9, 3, 8, 5, 7, 9, 8, 4, 8, 10, 9, 10, 4, 8, 1, 10, 7, 6, 10, 10, 6, 2, 6, 3, 8, 3, 3, 10, 8, 9, 5, 8, 9, 6, 1, 1, 3, 5, 6, 5, 2, 1, 10, 5, 7, 10, 10, 10, 10, 2, 4, 0];
rr = array2d(1..4, 1..62, [0, 3, 0, 0, 9, 0, 0, 0, 0, 0, 0, 0, 0, 0, 7, 0, 0, 0, 0, 0, 0, 0, 0, 0, 1, 0, 0, 2, 7, 0, 0, 0, 0, 10, 1, 0, 6, 5, 0, 0, 3, 0, 0, 0, 10, 0, 2, 4, 0, 0, 2, 0, 0, 0, 0, 0, 5, 0, 0, 0, 0, 0, 0, 0, 0, 0, 0, 0, 0, 0, 0, 0, 0, 0, 1, 0, 0, 0, 0, 0, 3, 7, 7, 0, 0, 0, 0, 0, 0, 0, 0, 7, 3, 0, 0, 0, 0, 0, 0, 0, 0, 0, 0, 1, 7, 0, 0, 4, 0, 0, 0, 0, 0, 8, 1, 0, 9, 0, 0, 0, 0, 0, 0, 0, 0, 0, 9, 1, 0, 5, 0, 0, 4, 5, 0, 4, 0, 0, 0, 0, 0, 0, 0, 0, 0, 0, 0, 5, 0, 9, 7, 0, 0, 0, 0, 0, 5, 0, 0, 0, 0, 0, 0, 0, 0, 0, 0, 0, 0, 0, 0, 0, 3, 7, 0, 0, 0, 0, 0, 0, 0, 7, 4, 3, 0, 0, 0, 0, 0, 0, 0, 0, 9, 9, 0, 0, 5, 0, 0, 6, 0, 9, 3, 3, 0, 0, 0, 6, 3, 0, 0, 0, 0, 0, 0, 0, 0, 7, 0, 0, 0, 1, 0, 0, 1, 5, 0, 0, 0, 10, 0, 0, 0, 0, 0, 0, 0, 0, 0, 4, 0, 10, 0, 0, 0, 0, 2, 0]);

suc = [
   {2, 3, 4},
   {8, 9, 6},
   {32, 19, 38},
   {16, 5, 30},
   {42, 19, 60},
   {23, 7},
   {10},
   {31},
   {11, 13, 15},
   {24, 43, 12},
   {26, 14},
   {28, 37},
   {28, 29, 22},
   {17, 18, 33},
   {37, 23},
   {49},
   {19, 47},
   {40, 20},
   {41},
   {41, 34, 21},
   {49},
   {42},
   {32, 25, 27},
   {27, 30, 47},
   {36},
   {36},
   {48},
   {57, 38},
   {35, 53, 39},
   {50},
   {49},
   {50},
   {56, 57},
   {43, 55},
   {50},
   {48, 41, 45},
   {57, 39},
   {56, 45},
   {40, 52},
   {51, 46, 47},
   {52, 55},
   {44},
   {51, 44, 46},
   {52, 53},
   {53, 54, 55},
   {48},
   {58, 59},
   {54},
   {60},
   {59, 51},
   {54},
   {56},
   {61},
   {58},
   {59},
   {61},
   {58, 61},
   {60},
   {62},
   {62},
   {62},
   {  } ];

deadline = array2d(1..62, 1..3, [2, 1, 1, 13, 3, 5, 13, 4, 2, 14, 4, 3, 15, 4, 1, 18, 2, 4, 22, 4, 1, 26, 0, 2, 27, 4, 3, 32, 4, 3, 33, 0, 3, 38, 5, 0, 39, 4, 3, 41, 3, 4, 42, 4, 0, 45, 5, 1, 49, 4, 0, 50, 5, 4, 55, 3, 4, 59, 5, 4, 65, 0, 2, 67, 0, 3, 69, 4, 2, 73, 0, 2, 77, 2, 4, 77, 1, 3, 81, 4, 0, 81, 4, 5, 88, 4, 1, 89, 3, 2, 89, 4, 4, 91, 5, 5, 94, 2, 1, 97, 5, 3, 101, 2, 1, 107, 4, 0, 112, 0, 2, 114, 3, 5, 115, 2, 3, 115, 2, 1, 116, 4, 2, 125, 3, 2, 128, 3, 4, 129, 4, 4, 129, 2, 4, 131, 5, 3, 131, 4, 2, 137, 4, 3, 142, 0, 4, 144, 4, 0, 144, 1, 2, 148, 2, 4, 150, 1, 2, 153, 5, 0, 154, 3, 2, 154, 2, 5, 160, 3, 2, 168, 2, 3, 175, 4, 1, 177, 3, 4, 180, 1, 0, 181, 5, 1]);
