n_res = 4;
rc = [ 12, 10, 13, 14 ];
n_tasks = 62;
d = [0, 8, 5, 8, 3, 7, 6, 4, 4, 4, 9, 3, 9, 10, 3, 3, 2, 4, 2, 2, 8, 8, 1, 1, 2, 9, 4, 3, 5, 10, 9, 1, 8, 8, 7, 7, 6, 5, 1, 5, 4, 2, 5, 3, 7, 4, 10, 2, 9, 6, 2, 10, 2, 5, 6, 5, 5, 7, 9, 1, 5, 0];
rr = array2d(1..4, 1..62, [0, 2, 9, 0, 7, 0, 0, 0, 0, 0, 0, 0, 0, 0, 0, 0, 0, 2, 6, 0, 0, 10, 0, 0, 4, 0, 0, 0, 0, 0, 0, 7, 6, 0, 2, 0, 0, 0, 0, 0, 0, 0, 0, 0, 0, 4, 9, 0, 9, 0, 0, 0, 0, 5, 0, 0, 0, 0, 0, 7, 1, 0, 0, 0, 0, 0, 0, 0, 0, 0, 0, 0, 0, 0, 0, 0, 0, 10, 6, 0, 0, 0, 0, 0, 0, 3, 0, 0, 0, 0, 0, 0, 0, 0, 0, 0, 0, 0, 5, 3, 0, 0, 0, 0, 0, 0, 2, 0, 0, 1, 0, 10, 4, 0, 0, 0, 0, 2, 0, 7, 0, 0, 0, 0, 0, 0, 0, 0, 0, 0, 1, 10, 1, 0, 9, 2, 7, 0, 0, 0, 0, 0, 0, 0, 0, 0, 0, 0, 0, 7, 7, 0, 9, 3, 0, 0, 0, 7, 0, 0, 0, 0, 3, 0, 0, 10, 0, 0, 0, 0, 0, 0, 0, 0, 0, 9, 10, 0, 0, 0, 0, 0, 0, 0, 0, 0, 0, 0, 0, 1, 0, 7, 0, 0, 0, 4, 0, 0, 0, 10, 6, 0, 0, 0, 0, 9, 6, 0, 10, 0, 0, 0, 0, 8, 0, 0, 5, 0, 0, 0, 0, 3, 0, 0, 0, 9, 4, 0, 3, 9, 0, 0, 0, 0, 0, 0, 0, 0, 0, 0, 6, 0, 9, 0, 2, 0, 0, 0]);

suc = [
   {2, 3, 4},
   {18, 60},
   {10, 45, 5},
   {8, 11, 6},
   {24, 7},
   {12, 46},
   {20, 14},
   {16, 9},
   {18, 20, 13},
   {19},
   {17, 28, 57},
   {43, 45, 22},
   {24, 49, 53},
   {37, 21, 15},
   {27},
   {41},
   {18, 34},
   {58, 30, 39},
   {29, 23},
   {25, 47},
   {56, 38, 47},
   {32, 49, 40},
   {44, 46, 31},
   {26, 42},
   {36, 37},
   {41, 50, 29},
   {33, 35, 54},
   {48},
   {57, 30},
   {61},
   {33, 39},
   {51},
   {48, 61},
   {55, 39},
   {48},
   {46},
   {42, 52},
   {44},
   {43},
   {41, 44, 47},
   {59, 55},
   {50},
   {53, 54},
   {52},
   {58, 53, 54},
   {57, 59},
   {50},
   {49, 51},
   {52},
   {51},
   {55},
   {58},
   {56},
   {56},
   {60},
   {61},
   {60},
   {59},
   {62},
   {62},
   {62},
   {  } ];

deadline = array2d(1..62, 1..3, [1, 4, 1, 9, 5, 3, 9, 3, 4, 11, 0, 3, 16, 1, 3, 20, 2, 1, 21, 4, 0, 22, 5, 5, 22, 0, 5, 24, 5, 5, 25, 2, 4, 29, 2, 0, 29, 0, 0, 32, 4, 1, 33, 3, 2, 37, 3, 0, 41, 2, 5, 41, 0, 2, 43, 0, 5, 44, 1, 3, 44, 2, 3, 46, 3, 4, 48, 2, 4, 53, 2, 1, 61, 1, 2, 66, 1, 5, 66, 4, 3, 73, 5, 2, 74, 4, 1, 75, 1, 5, 78, 2, 1, 79, 3, 4, 87, 1, 3, 97, 0, 5, 100, 3, 5, 103, 1, 4, 112, 1, 4, 112, 4, 4, 119, 2, 3, 126, 1, 5, 129, 1, 4, 130, 4, 5, 131, 0, 5, 132, 3, 2, 133, 1, 3, 139, 1, 0, 139, 1, 3, 140, 1, 4, 146, 4, 2, 147, 5, 4, 150, 2, 1, 158, 1, 0, 162, 3, 4, 164, 2, 0, 166, 5, 5, 172, 2, 3, 179, 2, 2, 179, 1, 5, 184, 0, 2, 185, 5, 2, 186, 0, 5, 188, 3, 3]);
