n_res = 4;
rc = [ 18, 20, 19, 18 ];
n_tasks = 62;
d = [0, 2, 9, 8, 3, 2, 5, 2, 3, 10, 3, 2, 5, 7, 8, 4, 6, 10, 2, 1, 1, 10, 4, 2, 5, 1, 8, 2, 6, 3, 9, 2, 9, 10, 2, 7, 8, 5, 8, 10, 4, 1, 6, 7, 3, 1, 6, 5, 1, 5, 2, 7, 4, 10, 4, 4, 7, 6, 9, 8, 2, 0];
rr = array2d(1..4, 1..62, [0, 8, 5, 5, 8, 7, 4, 8, 9, 4, 5, 9, 8, 10, 9, 2, 1, 8, 1, 7, 10, 1, 4, 7, 4, 9, 10, 3, 5, 1, 3, 7, 2, 9, 2, 4, 9, 4, 1, 10, 7, 2, 2, 4, 9, 5, 6, 5, 6, 6, 2, 8, 4, 9, 4, 6, 6, 2, 8, 1, 2, 0, 0, 4, 6, 7, 8, 8, 5, 6, 7, 7, 4, 2, 7, 5, 8, 9, 2, 8, 4, 8, 6, 5, 8, 5, 6, 4, 6, 9, 7, 10, 6, 6, 9, 6, 3, 9, 6, 1, 4, 2, 4, 1, 1, 9, 8, 8, 1, 3, 9, 9, 4, 10, 3, 5, 1, 1, 1, 10, 2, 7, 9, 0, 0, 1, 4, 5, 9, 6, 1, 3, 7, 8, 9, 2, 9, 5, 7, 2, 8, 9, 4, 2, 10, 2, 4, 9, 7, 8, 8, 10, 5, 2, 8, 7, 5, 2, 5, 5, 8, 8, 4, 4, 7, 9, 5, 9, 3, 1, 9, 6, 9, 10, 4, 6, 2, 3, 6, 9, 4, 4, 3, 5, 6, 0, 0, 6, 9, 10, 3, 10, 5, 3, 8, 1, 6, 5, 4, 7, 10, 1, 2, 4, 3, 6, 7, 7, 10, 3, 5, 9, 4, 8, 8, 6, 7, 4, 8, 4, 9, 3, 3, 3, 2, 8, 10, 8, 6, 2, 4, 1, 3, 10, 2, 8, 2, 10, 5, 1, 10, 7, 3, 6, 7, 2, 5, 0]);

suc = [
   {2, 3, 4},
   {32, 21, 13},
   {10, 60, 46},
   {8, 11, 5},
   {17, 6, 7},
   {48},
   {51, 38},
   {9, 42, 12},
   {35},
   {18, 20, 23},
   {58, 44, 30},
   {14},
   {16, 24, 15},
   {32, 19, 22},
   {29},
   {25, 22},
   {28, 22},
   {45},
   {29},
   {54, 38},
   {26, 39},
   {45, 31},
   {33, 26, 30},
   {51, 26, 35},
   {41, 50, 59},
   {50, 27, 52},
   {56},
   {32, 34, 36},
   {41},
   {54, 38},
   {61},
   {37},
   {40, 45, 39},
   {48, 49},
   {43},
   {57, 43, 37},
   {58, 44},
   {40, 53},
   {54},
   {52},
   {47},
   {56, 46, 47},
   {49},
   {46},
   {48, 51},
   {53},
   {49},
   {56, 50, 55},
   {58},
   {53},
   {52, 55},
   {57},
   {61},
   {55},
   {57},
   {59},
   {59, 61},
   {60},
   {62},
   {62},
   {62},
   {  } ];

deadline = array2d(1..62, 1..3, [8, 4, 2, 8, 5, 2, 10, 5, 4, 11, 4, 2, 12, 5, 0, 13, 1, 5, 14, 0, 2, 18, 0, 5, 27, 0, 0, 29, 1, 3, 29, 3, 1, 30, 4, 2, 34, 0, 1, 37, 5, 1, 38, 1, 5, 41, 0, 1, 43, 4, 0, 45, 5, 4, 46, 4, 1, 47, 0, 1, 50, 3, 2, 50, 1, 2, 54, 4, 4, 55, 3, 5, 60, 4, 4, 67, 2, 4, 70, 5, 0, 72, 3, 1, 79, 2, 1, 81, 3, 5, 82, 1, 2, 82, 3, 0, 83, 4, 4, 84, 3, 4, 84, 0, 0, 90, 4, 5, 90, 5, 0, 98, 1, 2, 100, 0, 5, 102, 5, 5, 105, 0, 3, 108, 1, 2, 114, 3, 4, 115, 1, 2, 119, 3, 3, 121, 3, 2, 122, 0, 2, 126, 0, 3, 127, 2, 5, 137, 3, 1, 139, 2, 0, 140, 2, 2, 142, 0, 5, 151, 0, 1, 158, 5, 3, 161, 1, 5, 162, 5, 3, 164, 1, 4, 169, 5, 5, 169, 4, 3, 171, 1, 3, 173, 5, 2]);
