n_res = 4;
rc = [ 37, 36, 35, 42 ];
n_tasks = 62;
d = [0, 6, 6, 10, 4, 4, 5, 9, 7, 3, 6, 8, 2, 2, 3, 10, 6, 9, 1, 8, 4, 6, 4, 1, 8, 7, 8, 10, 9, 1, 6, 7, 10, 7, 3, 5, 7, 1, 3, 2, 10, 9, 3, 6, 2, 4, 4, 10, 9, 10, 4, 6, 7, 2, 3, 5, 9, 1, 9, 2, 1, 0];
rr = array2d(1..4, 1..62, [0, 8, 0, 1, 3, 0, 9, 0, 1, 0, 6, 4, 4, 1, 4, 10, 0, 5, 0, 8, 0, 7, 0, 7, 5, 5, 10, 0, 10, 0, 1, 0, 3, 10, 0, 5, 4, 1, 10, 9, 0, 4, 3, 4, 0, 8, 6, 8, 0, 0, 4, 1, 6, 10, 1, 0, 10, 5, 2, 6, 5, 0, 0, 0, 7, 9, 2, 0, 9, 5, 3, 7, 2, 0, 0, 5, 8, 9, 0, 9, 0, 4, 2, 7, 6, 7, 0, 1, 1, 5, 3, 3, 2, 3, 2, 0, 9, 8, 8, 0, 9, 0, 0, 2, 8, 3, 6, 3, 5, 0, 0, 5, 2, 8, 7, 10, 7, 7, 0, 6, 9, 0, 9, 0, 0, 0, 5, 5, 9, 2, 0, 7, 4, 0, 0, 0, 4, 0, 3, 6, 1, 2, 0, 4, 0, 10, 2, 0, 5, 9, 0, 3, 9, 3, 10, 4, 0, 1, 2, 0, 4, 4, 9, 8, 8, 7, 0, 5, 6, 3, 10, 5, 3, 1, 5, 8, 6, 4, 0, 6, 5, 0, 10, 9, 5, 0, 0, 4, 7, 5, 9, 9, 0, 4, 9, 6, 5, 4, 10, 0, 4, 10, 5, 0, 10, 0, 2, 3, 0, 8, 6, 6, 9, 2, 10, 10, 2, 7, 9, 0, 3, 10, 3, 0, 1, 10, 2, 1, 0, 6, 5, 6, 2, 5, 7, 4, 6, 0, 5, 0, 0, 0, 2, 8, 4, 2, 10, 0]);

suc = [
   {2, 3, 4},
   {24, 17},
   {11, 5, 22},
   {18, 22, 7},
   {21, 6, 15},
   {8, 9, 39},
   {9, 14, 33},
   {25, 10, 13},
   {10, 12},
   {27, 28, 44},
   {41, 18, 38},
   {40, 25, 38},
   {27, 28},
   {16, 34, 27},
   {57, 54, 39},
   {36, 21},
   {19, 29, 39},
   {49, 30, 23},
   {37, 20, 21},
   {35, 36, 45},
   {32, 26, 58},
   {41, 30},
   {32, 48, 28},
   {25, 36},
   {53},
   {51, 43, 38},
   {51, 31},
   {59, 45},
   {49},
   {32, 35, 31},
   {37, 46},
   {52},
   {40, 43, 53},
   {40, 35, 44},
   {51, 46},
   {56, 43},
   {42, 58, 54},
   {42, 52, 55},
   {41, 42},
   {55, 47},
   {45, 46},
   {48},
   {60, 55, 47},
   {48, 50, 47},
   {50, 61},
   {50},
   {49, 52},
   {56, 53},
   {59},
   {58},
   {57, 54},
   {57},
   {61},
   {56},
   {61},
   {60},
   {59},
   {60},
   {62},
   {62},
   {62},
   {  } ];

deadline = array2d(1..62, 1..3, [5, 5, 5, 16, 5, 3, 17, 4, 2, 18, 5, 4, 21, 4, 0, 21, 4, 2, 23, 0, 4, 27, 0, 5, 29, 4, 0, 31, 0, 5, 40, 3, 3, 41, 2, 2, 41, 5, 1, 48, 2, 0, 51, 3, 4, 52, 2, 2, 54, 0, 1, 55, 0, 1, 55, 3, 2, 58, 4, 0, 61, 1, 3, 64, 5, 4, 65, 3, 4, 66, 1, 4, 70, 0, 5, 72, 3, 4, 75, 3, 1, 76, 2, 0, 79, 0, 4, 87, 5, 4, 91, 5, 5, 94, 0, 1, 98, 5, 0, 99, 3, 0, 100, 0, 1, 112, 2, 3, 112, 2, 4, 112, 1, 0, 118, 4, 4, 119, 1, 5, 120, 2, 2, 123, 5, 1, 124, 2, 3, 124, 0, 0, 127, 3, 4, 131, 3, 0, 135, 0, 2, 139, 5, 1, 139, 3, 3, 140, 0, 1, 141, 1, 4, 144, 4, 0, 147, 2, 1, 148, 0, 1, 151, 3, 5, 157, 5, 1, 160, 3, 0, 160, 4, 4, 166, 2, 3, 172, 5, 2, 181, 1, 2, 181, 4, 5]);
