n_res = 4;
rc = [ 51, 48, 48, 49 ];
n_tasks = 62;
d = [0, 5, 2, 5, 4, 9, 1, 2, 6, 2, 10, 3, 3, 3, 2, 6, 1, 3, 7, 1, 4, 7, 4, 4, 1, 4, 8, 7, 8, 3, 5, 4, 9, 4, 7, 2, 6, 5, 5, 9, 2, 6, 9, 10, 7, 2, 1, 10, 3, 7, 7, 2, 10, 9, 2, 1, 9, 7, 4, 8, 3, 0];
rr = array2d(1..4, 1..62, [0, 3, 8, 2, 9, 10, 1, 10, 4, 2, 5, 3, 5, 7, 8, 7, 6, 2, 5, 3, 4, 6, 10, 7, 10, 3, 2, 6, 9, 4, 7, 8, 1, 7, 8, 5, 3, 3, 4, 3, 10, 8, 3, 3, 1, 6, 10, 1, 7, 10, 1, 6, 2, 3, 3, 6, 1, 4, 3, 10, 1, 0, 0, 10, 5, 8, 9, 9, 4, 5, 4, 1, 2, 6, 1, 4, 5, 1, 8, 9, 7, 1, 2, 10, 3, 7, 2, 2, 1, 6, 8, 7, 1, 6, 7, 6, 8, 3, 5, 8, 2, 6, 4, 7, 2, 5, 3, 7, 9, 3, 6, 6, 1, 6, 8, 1, 1, 3, 10, 1, 8, 9, 5, 0, 0, 5, 4, 3, 4, 8, 4, 6, 4, 2, 5, 1, 4, 9, 10, 7, 4, 7, 9, 6, 1, 4, 4, 7, 8, 7, 1, 8, 4, 9, 7, 4, 5, 7, 6, 3, 1, 3, 5, 2, 10, 7, 8, 1, 3, 2, 6, 9, 3, 8, 7, 9, 2, 9, 7, 9, 8, 6, 10, 6, 9, 0, 0, 2, 2, 6, 7, 5, 2, 2, 3, 6, 6, 3, 5, 9, 3, 8, 8, 6, 10, 4, 4, 2, 9, 3, 10, 4, 3, 6, 10, 5, 2, 2, 4, 10, 8, 9, 3, 8, 9, 5, 2, 1, 4, 2, 5, 9, 2, 7, 1, 2, 2, 3, 3, 9, 6, 4, 6, 4, 8, 6, 5, 0]);

suc = [
   {2, 3, 4},
   {59, 5},
   {24, 45, 6},
   {8, 22, 7},
   {40, 17, 23},
   {32, 9, 42},
   {18, 12},
   {16, 10, 14},
   {19, 50, 11},
   {36, 44, 15},
   {17, 21},
   {33, 13, 31},
   {48},
   {18},
   {28, 37},
   {20},
   {58},
   {26, 30},
   {27},
   {25, 29, 39},
   {26},
   {39},
   {53, 39},
   {57},
   {27},
   {49, 34},
   {38, 55},
   {43},
   {37},
   {41, 50},
   {54},
   {35},
   {54, 47},
   {46},
   {61},
   {53},
   {60},
   {61},
   {51},
   {44},
   {58},
   {50},
   {56, 59},
   {48, 51},
   {52},
   {56},
   {57},
   {49},
   {60},
   {54},
   {52},
   {57},
   {55},
   {59},
   {56},
   {61},
   {58},
   {60},
   {62},
   {62},
   {62},
   {  } ];

deadline = array2d(1..62, 1..3, [6, 3, 0, 7, 0, 3, 8, 0, 5, 9, 1, 3, 9, 2, 2, 10, 4, 5, 15, 3, 1, 18, 0, 5, 19, 3, 5, 21, 2, 2, 22, 5, 1, 22, 3, 1, 23, 4, 0, 27, 4, 4, 28, 3, 5, 29, 0, 4, 32, 5, 5, 32, 1, 4, 32, 0, 3, 34, 5, 1, 34, 2, 2, 36, 1, 0, 36, 5, 1, 42, 0, 1, 46, 3, 0, 52, 0, 1, 58, 3, 1, 59, 0, 0, 62, 0, 0, 71, 4, 4, 72, 1, 1, 72, 5, 5, 75, 4, 0, 75, 2, 1, 77, 0, 2, 77, 4, 2, 78, 4, 0, 79, 2, 5, 83, 4, 2, 84, 1, 5, 86, 3, 3, 87, 2, 2, 90, 3, 1, 92, 5, 3, 95, 4, 1, 98, 5, 5, 100, 5, 2, 100, 3, 2, 105, 0, 4, 108, 1, 0, 114, 5, 2, 116, 0, 5, 117, 4, 2, 122, 5, 3, 132, 5, 0, 134, 1, 2, 136, 0, 1, 138, 0, 5, 140, 5, 4, 140, 3, 2, 149, 1, 2, 151, 1, 2]);
