n_res = 4;
rc = [ 15, 17, 22, 16 ];
n_tasks = 62;
d = [0, 5, 6, 9, 8, 8, 4, 9, 3, 4, 2, 10, 2, 10, 4, 9, 10, 5, 2, 9, 5, 9, 9, 5, 4, 4, 5, 6, 6, 8, 1, 3, 1, 8, 8, 10, 9, 9, 8, 7, 4, 1, 7, 7, 7, 9, 3, 6, 8, 9, 9, 6, 10, 9, 7, 9, 4, 5, 1, 4, 6, 0];
rr = array2d(1..4, 1..62, [0, 9, 0, 10, 4, 0, 5, 1, 0, 0, 4, 9, 7, 8, 0, 7, 1, 2, 4, 0, 0, 5, 10, 1, 0, 0, 6, 8, 3, 4, 4, 3, 5, 9, 9, 0, 4, 8, 5, 1, 3, 6, 1, 9, 2, 2, 0, 7, 0, 5, 9, 4, 0, 0, 5, 2, 7, 5, 5, 4, 6, 0, 0, 0, 10, 2, 5, 8, 8, 0, 4, 1, 4, 2, 0, 0, 2, 6, 3, 6, 8, 4, 8, 6, 2, 9, 2, 2, 7, 0, 1, 10, 0, 4, 1, 4, 0, 7, 8, 3, 0, 0, 7, 0, 2, 8, 4, 1, 4, 6, 0, 1, 0, 7, 0, 4, 8, 3, 6, 1, 10, 8, 10, 0, 0, 3, 10, 9, 2, 4, 2, 7, 10, 2, 1, 8, 8, 10, 0, 7, 9, 3, 0, 9, 10, 9, 10, 10, 5, 0, 8, 1, 5, 1, 0, 4, 6, 9, 0, 4, 0, 9, 10, 8, 8, 0, 0, 0, 8, 3, 1, 0, 10, 8, 0, 0, 10, 0, 0, 7, 0, 5, 0, 0, 2, 0, 0, 9, 2, 6, 10, 0, 0, 4, 3, 9, 0, 0, 9, 8, 9, 0, 0, 0, 9, 0, 0, 2, 3, 2, 0, 6, 2, 9, 10, 1, 5, 3, 3, 4, 5, 0, 5, 5, 2, 8, 6, 10, 0, 9, 2, 8, 5, 10, 9, 5, 1, 0, 4, 9, 1, 10, 1, 10, 2, 0, 0, 0]);

suc = [
   {2, 3, 4},
   {5, 6, 7},
   {24, 9, 10},
   {11, 13, 15},
   {8, 17, 14},
   {8, 18, 23},
   {16, 43, 31},
   {24, 36},
   {27, 26, 11},
   {16, 12, 22},
   {40, 43, 22},
   {26, 23},
   {19, 21, 14},
   {18, 44, 38},
   {42, 27, 20},
   {17, 39, 23},
   {49, 29},
   {51, 28, 30},
   {25, 50, 61},
   {33, 37},
   {25, 46, 47},
   {25, 59, 45},
   {32, 52, 37},
   {41, 34, 42},
   {48},
   {40, 49, 44},
   {53, 45, 38},
   {36, 37, 39},
   {44},
   {42, 58},
   {35},
   {41, 34, 46},
   {41, 35, 36},
   {40, 35},
   {48, 54},
   {43, 52},
   {53},
   {51, 39},
   {49, 54, 47},
   {50, 60},
   {50, 55},
   {57, 52, 60},
   {45, 46},
   {61, 54},
   {48, 47},
   {57, 53},
   {55},
   {55},
   {56},
   {51},
   {56},
   {59},
   {61},
   {56, 58},
   {58},
   {57},
   {59},
   {60},
   {62},
   {62},
   {62},
   {  } ];

deadline = array2d(1..62, 1..3, [3, 2, 3, 6, 4, 4, 10, 5, 3, 10, 2, 3, 11, 1, 3, 13, 3, 5, 39, 2, 1, 41, 0, 3, 44, 4, 3, 45, 3, 5, 47, 5, 4, 49, 4, 5, 56, 4, 2, 62, 4, 3, 64, 0, 2, 73, 1, 0, 79, 4, 4, 82, 3, 3, 84, 4, 4, 87, 4, 1, 95, 0, 0, 95, 3, 3, 98, 1, 2, 108, 0, 1, 111, 1, 3, 117, 0, 5, 118, 1, 3, 122, 5, 3, 122, 3, 2, 125, 2, 2, 132, 3, 0, 140, 2, 3, 140, 4, 3, 141, 2, 4, 141, 5, 1, 141, 2, 1, 148, 0, 1, 150, 5, 3, 151, 0, 1, 152, 1, 3, 153, 5, 3, 154, 2, 3, 154, 1, 0, 161, 2, 1, 162, 2, 1, 163, 3, 5, 165, 2, 1, 165, 4, 4, 166, 2, 2, 168, 2, 0, 168, 1, 2, 173, 3, 5, 173, 1, 2, 174, 4, 2, 174, 5, 3, 175, 2, 1, 176, 2, 5, 176, 1, 4, 176, 2, 2, 177, 0, 4, 188, 3, 5, 190, 2, 4]);
