n_res = 4;
rc = [ 59, 55, 76, 66 ];
n_tasks = 62;
d = [0, 3, 6, 1, 5, 8, 6, 4, 8, 6, 5, 6, 4, 6, 5, 1, 5, 7, 10, 7, 5, 8, 8, 9, 6, 10, 7, 1, 6, 7, 1, 6, 2, 1, 1, 4, 8, 5, 10, 7, 7, 10, 6, 3, 3, 5, 2, 8, 8, 10, 6, 2, 7, 2, 10, 1, 1, 10, 7, 9, 10, 0];
rr = array2d(1..4, 1..62, [0, 1, 8, 6, 6, 7, 1, 0, 10, 3, 9, 0, 4, 4, 7, 7, 0, 5, 0, 3, 3, 0, 3, 0, 10, 1, 7, 1, 4, 0, 10, 3, 6, 1, 0, 0, 3, 10, 3, 0, 0, 0, 7, 8, 0, 0, 1, 2, 7, 5, 0, 10, 10, 0, 0, 0, 0, 3, 1, 2, 0, 0, 0, 7, 10, 1, 0, 0, 3, 4, 5, 3, 0, 9, 7, 6, 4, 6, 7, 3, 0, 0, 0, 1, 9, 8, 0, 1, 0, 0, 5, 7, 1, 9, 0, 2, 8, 6, 1, 8, 0, 4, 10, 0, 3, 8, 2, 9, 9, 4, 9, 5, 8, 7, 3, 0, 0, 9, 0, 0, 0, 1, 4, 0, 0, 0, 5, 1, 2, 6, 0, 2, 9, 0, 6, 10, 4, 6, 9, 6, 0, 10, 2, 9, 0, 6, 5, 3, 9, 2, 4, 2, 6, 0, 10, 7, 0, 10, 9, 6, 9, 2, 6, 0, 10, 7, 0, 6, 2, 0, 10, 3, 4, 7, 1, 0, 8, 0, 1, 5, 5, 10, 2, 1, 8, 0, 0, 7, 0, 0, 4, 4, 9, 3, 3, 2, 6, 9, 0, 4, 6, 5, 4, 10, 5, 3, 8, 10, 2, 0, 5, 8, 3, 10, 1, 4, 6, 7, 9, 5, 0, 9, 0, 1, 6, 3, 6, 5, 0, 7, 2, 5, 2, 4, 9, 4, 2, 0, 6, 4, 7, 7, 0, 0, 8, 7, 6, 0]);

suc = [
   {2, 3, 4},
   {5, 6, 15},
   {8, 9, 17},
   {34, 37, 7},
   {16, 10},
   {38},
   {18, 11, 22},
   {14},
   {51, 53},
   {36, 52},
   {25, 12, 13},
   {35, 27},
   {21},
   {28, 23},
   {40, 19, 20},
   {33, 45},
   {42, 31},
   {32},
   {21},
   {52},
   {24, 23},
   {25, 47, 39},
   {29},
   {48, 41, 29},
   {26},
   {59},
   {54},
   {57, 55},
   {32, 30},
   {61},
   {46},
   {36, 44},
   {40, 36},
   {50},
   {52},
   {57},
   {51},
   {48},
   {43},
   {56},
   {49, 60},
   {51},
   {59},
   {47},
   {46},
   {57, 55},
   {58},
   {54},
   {56},
   {53},
   {58},
   {53},
   {54},
   {60},
   {59},
   {58},
   {61},
   {61},
   {62},
   {62},
   {62},
   {  } ];

deadline = array2d(1..62, 1..3, [2, 5, 3, 2, 3, 3, 5, 1, 2, 13, 3, 5, 15, 0, 0, 16, 4, 1, 16, 5, 5, 18, 0, 4, 20, 0, 3, 25, 2, 0, 25, 5, 0, 28, 2, 3, 31, 2, 1, 39, 3, 3, 39, 5, 4, 40, 1, 5, 41, 5, 0, 51, 3, 4, 54, 2, 4, 54, 5, 2, 54, 0, 1, 63, 4, 4, 65, 5, 0, 69, 0, 4, 69, 5, 0, 75, 0, 1, 75, 4, 2, 77, 2, 5, 77, 4, 4, 77, 5, 5, 79, 5, 2, 82, 4, 4, 86, 0, 3, 87, 5, 3, 88, 3, 2, 90, 0, 3, 91, 5, 2, 92, 5, 5, 92, 0, 2, 102, 1, 2, 102, 5, 0, 103, 2, 4, 103, 0, 4, 104, 5, 1, 107, 3, 3, 108, 3, 1, 111, 1, 1, 112, 5, 3, 113, 4, 2, 115, 1, 2, 117, 5, 1, 118, 5, 3, 126, 5, 1, 129, 1, 0, 129, 0, 5, 129, 4, 3, 130, 3, 4, 146, 2, 0, 148, 2, 0, 167, 0, 2, 168, 4, 2, 172, 2, 1]);
