n_res = 4;
rc = [ 22, 23, 25, 26 ];
n_tasks = 62;
d = [0, 7, 1, 4, 1, 10, 3, 10, 6, 4, 8, 3, 7, 6, 3, 8, 7, 2, 10, 3, 5, 9, 4, 10, 8, 6, 10, 1, 1, 3, 6, 7, 3, 1, 3, 10, 8, 1, 7, 8, 1, 9, 10, 5, 5, 8, 9, 4, 8, 8, 2, 3, 6, 6, 6, 9, 5, 9, 1, 8, 6, 0];
rr = array2d(1..4, 1..62, [0, 1, 0, 6, 0, 1, 0, 5, 2, 7, 10, 4, 2, 3, 0, 8, 3, 0, 0, 0, 6, 2, 5, 9, 2, 10, 7, 9, 9, 0, 10, 0, 0, 0, 7, 0, 0, 0, 0, 0, 10, 8, 3, 2, 9, 4, 0, 0, 7, 5, 3, 8, 0, 5, 0, 7, 10, 5, 0, 7, 5, 0, 0, 10, 0, 7, 2, 5, 1, 5, 3, 0, 5, 0, 7, 10, 9, 7, 2, 4, 0, 0, 8, 4, 3, 4, 1, 9, 1, 7, 4, 3, 2, 6, 8, 0, 9, 2, 6, 0, 2, 4, 3, 0, 0, 7, 0, 2, 9, 8, 7, 7, 0, 5, 8, 0, 0, 7, 0, 0, 8, 8, 6, 0, 0, 0, 8, 7, 5, 3, 6, 0, 8, 10, 1, 5, 9, 0, 7, 9, 7, 4, 5, 3, 6, 5, 3, 3, 7, 2, 2, 0, 8, 6, 0, 9, 5, 5, 10, 0, 0, 5, 2, 8, 4, 9, 1, 7, 3, 1, 1, 3, 0, 8, 2, 5, 0, 0, 3, 8, 1, 7, 0, 5, 9, 0, 0, 3, 5, 4, 7, 0, 0, 7, 8, 5, 8, 10, 0, 0, 0, 4, 5, 10, 8, 7, 6, 4, 10, 8, 7, 8, 5, 2, 0, 1, 9, 1, 0, 2, 4, 1, 8, 6, 7, 2, 6, 10, 0, 0, 0, 0, 2, 9, 8, 3, 9, 6, 10, 0, 2, 10, 6, 6, 6, 1, 6, 0]);

suc = [
   {2, 3, 4},
   {8, 19, 5},
   {18, 12, 28},
   {48, 11, 7},
   {9, 10, 6},
   {38, 7},
   {24, 57},
   {49, 58, 15},
   {12, 53, 23},
   {21, 12, 13},
   {25, 51, 59},
   {25, 59, 55},
   {16, 20, 14},
   {24, 17, 25},
   {20, 54},
   {40, 33, 37},
   {38, 34, 22},
   {40, 27, 39},
   {35, 36, 44},
   {26, 27, 60},
   {43, 30, 55},
   {29, 46},
   {32, 41, 38},
   {26, 27, 29},
   {41, 58, 36},
   {34, 35},
   {34, 35, 30},
   {32, 45, 31},
   {49, 37, 30},
   {56, 51, 47},
   {46, 36, 44},
   {42, 43, 55},
   {60, 46},
   {45},
   {37, 47},
   {40, 39},
   {50, 45},
   {48, 39},
   {42, 52},
   {52},
   {42},
   {54},
   {57, 44},
   {48},
   {56},
   {49, 47},
   {50, 52},
   {54},
   {56, 50, 51},
   {53},
   {53},
   {61},
   {61},
   {61},
   {57},
   {59},
   {58},
   {60},
   {62},
   {62},
   {62},
   {  } ];

deadline = array2d(1..62, 1..3, [6, 4, 2, 7, 4, 1, 9, 1, 5, 12, 4, 2, 19, 5, 3, 21, 0, 1, 24, 0, 3, 25, 5, 2, 26, 3, 3, 32, 4, 1, 42, 0, 1, 45, 1, 4, 46, 0, 1, 54, 1, 0, 54, 2, 1, 59, 1, 5, 61, 1, 2, 64, 3, 1, 65, 5, 2, 75, 0, 1, 81, 0, 0, 84, 5, 1, 88, 3, 2, 90, 1, 2, 91, 2, 0, 92, 2, 0, 93, 2, 3, 97, 1, 0, 104, 0, 0, 104, 2, 5, 106, 5, 2, 107, 0, 2, 111, 3, 4, 111, 1, 4, 112, 3, 5, 113, 2, 5, 118, 0, 1, 120, 1, 4, 125, 1, 1, 133, 1, 3, 134, 3, 3, 138, 2, 4, 138, 5, 0, 138, 1, 3, 140, 5, 2, 144, 3, 3, 145, 5, 5, 146, 3, 1, 148, 1, 2, 149, 3, 5, 155, 2, 3, 155, 5, 1, 155, 3, 1, 155, 2, 0, 158, 4, 1, 172, 0, 3, 176, 2, 3, 179, 2, 2, 183, 1, 4, 185, 1, 4, 191, 5, 5, 191, 0, 4]);
