n_res = 4;
rc = [ 14, 29, 14, 13 ];
n_tasks = 62;
d = [0, 8, 7, 5, 8, 6, 7, 2, 3, 7, 7, 7, 7, 8, 6, 10, 3, 6, 3, 3, 3, 7, 1, 7, 3, 8, 4, 9, 2, 1, 5, 8, 4, 2, 5, 8, 9, 2, 3, 7, 1, 1, 1, 8, 2, 3, 7, 5, 5, 2, 6, 10, 1, 9, 5, 5, 5, 7, 10, 10, 2, 0];
rr = array2d(1..4, 1..62, [0, 0, 0, 0, 0, 0, 7, 0, 4, 0, 9, 0, 0, 10, 0, 0, 0, 0, 1, 1, 0, 0, 0, 6, 0, 0, 0, 0, 0, 0, 4, 0, 3, 0, 0, 8, 0, 0, 0, 1, 0, 0, 10, 0, 0, 0, 6, 10, 10, 7, 0, 0, 0, 0, 0, 0, 0, 0, 0, 0, 0, 0, 0, 0, 0, 0, 0, 0, 0, 2, 0, 0, 0, 0, 5, 0, 0, 6, 2, 0, 0, 0, 0, 1, 1, 0, 10, 4, 0, 9, 8, 7, 0, 0, 0, 0, 0, 0, 0, 9, 0, 0, 0, 8, 0, 7, 8, 0, 0, 0, 0, 0, 0, 8, 10, 8, 0, 0, 0, 0, 0, 0, 8, 0, 0, 0, 0, 0, 7, 2, 0, 0, 0, 6, 0, 6, 0, 0, 9, 0, 0, 1, 0, 0, 2, 0, 0, 0, 0, 0, 0, 0, 0, 0, 0, 5, 0, 0, 3, 0, 10, 0, 10, 0, 5, 0, 0, 0, 0, 6, 0, 0, 0, 0, 0, 0, 0, 0, 0, 9, 0, 0, 0, 0, 0, 0, 0, 10, 2, 4, 0, 0, 0, 0, 0, 0, 0, 0, 0, 0, 0, 0, 0, 0, 0, 0, 0, 0, 0, 0, 0, 0, 6, 0, 0, 0, 0, 0, 0, 10, 0, 0, 0, 0, 0, 0, 0, 0, 0, 0, 0, 0, 0, 0, 0, 0, 1, 0, 0, 0, 6, 0, 4, 7, 5, 10, 0, 0]);

suc = [
   {2, 3, 4},
   {8, 6, 14},
   {33, 45},
   {9, 5, 7},
   {34, 22},
   {10, 37},
   {24, 38, 55},
   {18, 42, 15},
   {10},
   {11, 12, 13},
   {17},
   {17, 19},
   {16, 20, 38},
   {27, 21},
   {51, 19, 31},
   {18, 26},
   {56, 33, 39},
   {46, 53, 22},
   {28, 52, 23},
   {32, 31},
   {40, 49},
   {36, 29},
   {25, 30, 41},
   {40, 41},
   {57, 35},
   {41, 35},
   {34, 46},
   {39},
   {48, 51},
   {39},
   {48},
   {33, 36},
   {42, 44},
   {37},
   {56, 50},
   {44, 54},
   {58},
   {40, 43, 53},
   {49},
   {47},
   {58},
   {60},
   {45, 54},
   {49, 57},
   {51, 61},
   {55, 47},
   {48, 56, 61},
   {50},
   {55},
   {54},
   {60},
   {61, 53},
   {57},
   {59},
   {59},
   {58},
   {59},
   {60},
   {62},
   {62},
   {62},
   {  } ];

deadline = array2d(1..62, 1..3, [3, 2, 2, 8, 4, 1, 11, 2, 0, 20, 2, 0, 21, 4, 5, 23, 4, 1, 27, 2, 1, 29, 5, 3, 38, 0, 5, 42, 5, 3, 42, 4, 3, 46, 5, 1, 49, 3, 3, 50, 0, 1, 52, 4, 0, 63, 2, 4, 65, 5, 4, 68, 3, 2, 72, 2, 5, 74, 0, 4, 76, 0, 5, 76, 4, 5, 82, 5, 0, 87, 4, 1, 89, 5, 2, 91, 4, 1, 93, 0, 1, 95, 4, 5, 95, 2, 3, 100, 5, 3, 108, 0, 2, 114, 3, 0, 121, 1, 4, 126, 1, 0, 130, 1, 3, 133, 4, 3, 135, 5, 5, 135, 2, 3, 140, 0, 5, 142, 3, 2, 148, 4, 1, 151, 3, 3, 157, 2, 5, 163, 2, 4, 164, 4, 0, 170, 2, 5, 170, 3, 4, 172, 2, 3, 175, 2, 4, 179, 2, 1, 184, 0, 1, 185, 2, 3, 195, 0, 1, 195, 0, 0, 199, 2, 4, 199, 4, 0, 202, 1, 4, 202, 1, 3, 206, 0, 3, 207, 1, 5, 209, 5, 5, 217, 1, 3]);
