n_res = 4;
rc = [ 13, 15, 19, 18 ];
n_tasks = 62;
d = [0, 6, 2, 3, 1, 10, 8, 10, 8, 8, 5, 4, 7, 9, 8, 7, 3, 5, 1, 1, 7, 7, 9, 1, 1, 3, 5, 1, 2, 9, 8, 3, 6, 2, 10, 3, 9, 4, 5, 4, 8, 9, 1, 7, 8, 4, 4, 3, 7, 1, 9, 10, 10, 5, 9, 8, 8, 2, 2, 3, 9, 0];
rr = array2d(1..4, 1..62, [0, 1, 0, 8, 5, 0, 0, 0, 0, 0, 0, 0, 2, 0, 0, 0, 0, 0, 0, 0, 0, 0, 0, 4, 0, 0, 0, 0, 9, 0, 0, 7, 0, 0, 0, 3, 2, 2, 0, 9, 1, 0, 0, 0, 0, 0, 8, 0, 0, 0, 0, 9, 7, 0, 0, 5, 0, 0, 0, 9, 0, 0, 0, 0, 0, 0, 0, 0, 0, 0, 0, 4, 0, 0, 0, 0, 0, 1, 6, 0, 0, 1, 0, 3, 0, 0, 9, 0, 0, 0, 0, 0, 0, 0, 5, 8, 0, 0, 0, 0, 0, 0, 0, 0, 0, 0, 0, 3, 0, 0, 2, 0, 10, 0, 0, 0, 0, 0, 0, 0, 0, 0, 4, 0, 0, 0, 10, 0, 0, 7, 10, 3, 4, 0, 10, 3, 0, 0, 0, 0, 0, 0, 7, 0, 9, 0, 3, 0, 0, 6, 0, 6, 0, 0, 0, 0, 0, 0, 0, 0, 0, 0, 0, 0, 0, 7, 0, 0, 0, 0, 0, 0, 0, 0, 0, 0, 0, 7, 6, 0, 0, 0, 8, 0, 0, 0, 0, 0, 0, 0, 0, 0, 0, 0, 0, 0, 0, 0, 0, 8, 8, 0, 0, 6, 0, 0, 0, 0, 0, 0, 0, 0, 7, 0, 0, 1, 1, 0, 0, 0, 2, 0, 0, 0, 3, 0, 0, 0, 6, 3, 9, 0, 0, 1, 0, 7, 0, 0, 0, 0, 0, 0, 10, 2, 0, 0, 0, 0]);

suc = [
   {2, 3, 4},
   {10, 20, 5},
   {8, 9, 7},
   {18, 6, 23},
   {24, 17, 33},
   {11, 28},
   {41, 26, 39},
   {56, 18, 15},
   {16, 41, 40},
   {31},
   {19, 12, 13},
   {32, 37, 14},
   {22},
   {48, 49, 44},
   {24, 33, 37},
   {42},
   {59, 27},
   {57, 34},
   {29, 51, 21},
   {25, 39},
   {41, 43},
   {26, 30},
   {53, 37},
   {44, 45},
   {33, 38, 31},
   {34},
   {53, 55},
   {30, 39},
   {44},
   {32, 49},
   {32, 43},
   {34, 51},
   {35, 36, 60},
   {55},
   {46},
   {54},
   {38},
   {58},
   {43, 61},
   {52, 55},
   {49},
   {45},
   {48, 56, 46},
   {57, 58},
   {51, 54},
   {47},
   {50},
   {59},
   {52, 53},
   {59},
   {52},
   {61},
   {56, 54},
   {57},
   {60},
   {58},
   {61},
   {60},
   {62},
   {62},
   {62},
   {  } ];

deadline = array2d(1..62, 1..3, [3, 4, 1, 6, 4, 5, 8, 5, 4, 8, 3, 5, 13, 5, 5, 24, 1, 0, 30, 4, 2, 41, 3, 1, 45, 2, 1, 46, 4, 4, 47, 3, 3, 48, 4, 1, 49, 5, 2, 54, 0, 3, 59, 0, 2, 62, 2, 3, 65, 2, 3, 65, 2, 4, 70, 4, 5, 79, 2, 1, 79, 0, 2, 80, 4, 3, 86, 3, 2, 91, 2, 0, 95, 1, 4, 98, 5, 1, 99, 3, 3, 104, 1, 0, 112, 4, 3, 119, 4, 5, 124, 2, 2, 125, 4, 3, 126, 2, 5, 127, 4, 1, 129, 3, 4, 132, 4, 1, 133, 2, 2, 137, 1, 0, 140, 2, 3, 140, 2, 4, 142, 4, 3, 143, 3, 3, 146, 1, 2, 147, 2, 2, 151, 2, 4, 154, 2, 1, 155, 1, 4, 155, 2, 2, 156, 1, 4, 158, 1, 3, 161, 3, 1, 166, 0, 2, 170, 2, 0, 171, 4, 4, 173, 3, 2, 176, 5, 4, 176, 5, 2, 185, 0, 1, 187, 0, 2, 189, 1, 2, 193, 5, 0, 196, 5, 0]);
