n_res = 4;
rc = [ 22, 17, 12, 29 ];
n_tasks = 62;
d = [0, 2, 7, 9, 10, 8, 1, 3, 7, 10, 2, 10, 9, 9, 1, 7, 7, 1, 2, 9, 8, 3, 8, 1, 5, 6, 5, 6, 3, 8, 6, 2, 9, 6, 9, 9, 5, 2, 9, 3, 2, 4, 3, 4, 4, 8, 4, 1, 1, 2, 9, 7, 8, 5, 2, 7, 7, 4, 4, 7, 1, 0];
rr = array2d(1..4, 1..62, [0, 2, 0, 9, 0, 0, 0, 0, 6, 0, 9, 0, 0, 0, 10, 6, 0, 0, 0, 4, 0, 0, 0, 0, 0, 0, 5, 1, 4, 0, 0, 0, 0, 0, 0, 5, 10, 0, 0, 0, 0, 0, 0, 0, 0, 0, 0, 1, 0, 0, 0, 5, 4, 8, 0, 0, 0, 0, 0, 10, 0, 0, 0, 0, 1, 0, 0, 0, 0, 0, 0, 8, 0, 0, 0, 0, 0, 0, 0, 0, 0, 0, 0, 0, 0, 10, 0, 0, 0, 0, 0, 0, 2, 0, 0, 0, 4, 0, 0, 0, 0, 0, 0, 0, 0, 6, 0, 1, 8, 0, 0, 0, 7, 0, 0, 0, 0, 0, 10, 0, 0, 0, 0, 0, 0, 0, 0, 0, 0, 0, 0, 0, 0, 0, 0, 0, 3, 5, 0, 0, 0, 1, 0, 0, 1, 0, 0, 0, 9, 0, 0, 0, 0, 0, 0, 0, 0, 0, 0, 0, 0, 6, 3, 0, 0, 0, 0, 0, 3, 0, 0, 0, 6, 4, 0, 0, 0, 0, 10, 6, 0, 7, 0, 0, 0, 0, 0, 0, 0, 0, 4, 5, 5, 3, 0, 0, 0, 8, 0, 0, 0, 0, 5, 0, 8, 0, 0, 8, 3, 0, 0, 9, 0, 0, 0, 2, 0, 1, 6, 7, 0, 0, 0, 0, 0, 6, 6, 9, 10, 0, 0, 0, 0, 0, 0, 0, 0, 0, 0, 0, 0, 0, 0, 0, 1, 0, 9, 0]);

suc = [
   {2, 3, 4},
   {16, 56, 7},
   {15},
   {5, 6},
   {13},
   {8, 10, 15},
   {61},
   {9, 12},
   {24, 27, 55},
   {41, 11, 14},
   {18, 39},
   {44, 21},
   {17, 51},
   {32, 42, 19},
   {25, 26, 30},
   {33, 22},
   {57},
   {48},
   {20, 23},
   {56},
   {51},
   {37, 29},
   {58},
   {31},
   {49, 28},
   {41, 36},
   {35},
   {54},
   {59},
   {50, 43},
   {34, 60},
   {44},
   {35},
   {44},
   {46, 52, 38},
   {40},
   {38},
   {50, 45},
   {49},
   {49, 47},
   {53, 47},
   {51},
   {61},
   {46},
   {57},
   {58},
   {60},
   {54},
   {50},
   {54},
   {53},
   {60},
   {55},
   {58},
   {56},
   {57, 61},
   {59},
   {59},
   {62},
   {62},
   {62},
   {  } ];

deadline = array2d(1..62, 1..3, [3, 0, 1, 10, 3, 5, 12, 0, 2, 15, 0, 2, 22, 1, 4, 22, 4, 5, 23, 1, 4, 24, 0, 4, 31, 0, 2, 39, 5, 1, 40, 4, 4, 42, 2, 1, 52, 0, 3, 61, 5, 5, 66, 2, 0, 71, 5, 5, 71, 5, 1, 71, 2, 0, 72, 0, 1, 74, 1, 5, 74, 1, 2, 76, 1, 4, 82, 1, 5, 82, 0, 0, 88, 4, 4, 98, 5, 1, 99, 2, 3, 101, 4, 2, 102, 3, 1, 105, 3, 4, 105, 0, 2, 105, 1, 3, 106, 2, 0, 107, 1, 1, 115, 0, 5, 116, 1, 4, 119, 3, 3, 120, 4, 0, 120, 2, 2, 122, 3, 5, 122, 3, 5, 125, 2, 2, 125, 4, 5, 126, 1, 4, 133, 4, 4, 134, 4, 2, 139, 5, 0, 142, 0, 5, 145, 1, 2, 148, 2, 4, 150, 0, 4, 152, 5, 1, 155, 0, 4, 165, 1, 0, 169, 0, 3, 170, 5, 4, 172, 1, 3, 180, 2, 4, 182, 5, 1, 186, 2, 5, 191, 2, 3, 192, 1, 1]);
