n_res = 4;
rc = [ 43, 29, 25, 42 ];
n_tasks = 62;
d = [0, 5, 7, 7, 6, 6, 10, 5, 4, 6, 10, 7, 5, 1, 10, 4, 3, 8, 5, 9, 7, 9, 2, 9, 6, 10, 2, 8, 7, 8, 3, 5, 2, 8, 7, 9, 3, 1, 3, 4, 6, 9, 7, 3, 2, 7, 4, 7, 6, 6, 6, 7, 7, 9, 4, 10, 7, 1, 2, 9, 3, 0];
rr = array2d(1..4, 1..62, [0, 10, 7, 7, 0, 0, 0, 1, 7, 4, 0, 0, 0, 2, 1, 0, 0, 1, 0, 2, 0, 10, 5, 9, 0, 0, 10, 0, 4, 7, 0, 9, 7, 8, 6, 6, 0, 7, 5, 0, 0, 10, 0, 0, 9, 0, 0, 6, 9, 0, 7, 7, 0, 10, 0, 2, 0, 0, 0, 5, 5, 0, 0, 8, 7, 0, 8, 0, 10, 0, 0, 0, 0, 0, 8, 8, 8, 1, 0, 0, 1, 0, 1, 0, 0, 0, 1, 6, 0, 0, 10, 0, 0, 0, 0, 0, 3, 0, 10, 0, 9, 6, 0, 0, 0, 0, 0, 0, 0, 0, 0, 0, 0, 0, 3, 10, 9, 7, 7, 0, 10, 1, 8, 0, 0, 10, 0, 4, 2, 1, 9, 0, 5, 0, 3, 6, 0, 10, 3, 0, 0, 0, 0, 0, 9, 0, 5, 1, 0, 3, 0, 7, 0, 0, 8, 0, 0, 0, 0, 0, 7, 0, 0, 0, 0, 7, 6, 0, 0, 2, 0, 6, 0, 0, 2, 2, 0, 1, 4, 0, 5, 10, 10, 4, 5, 0, 0, 8, 0, 3, 0, 10, 0, 10, 0, 5, 5, 0, 6, 0, 0, 0, 3, 3, 8, 0, 0, 3, 0, 7, 0, 0, 9, 8, 0, 0, 2, 10, 0, 2, 8, 10, 7, 2, 0, 0, 7, 0, 0, 8, 2, 9, 1, 8, 10, 7, 0, 0, 8, 1, 0, 0, 0, 6, 0, 5, 0, 0]);

suc = [
   {2, 3, 4},
   {16, 9, 31},
   {21, 5, 30},
   {8, 6, 7},
   {25, 10},
   {12, 22, 52},
   {17, 26, 38},
   {18, 36},
   {35, 11, 13},
   {49, 19, 52},
   {46},
   {28, 14, 47},
   {51, 54, 15},
   {25, 20},
   {43, 21, 46},
   {50, 29, 23},
   {45, 27, 37},
   {30},
   {24},
   {49, 44, 61},
   {56},
   {38},
   {28, 39},
   {32, 40},
   {58},
   {29},
   {60},
   {40, 51, 43},
   {37},
   {41},
   {34, 50, 60},
   {33, 34, 41},
   {38},
   {37, 46, 47},
   {52},
   {49, 57, 39},
   {48, 55},
   {42},
   {41, 44, 47},
   {61, 55},
   {59},
   {48, 50},
   {44, 60},
   {45},
   {56},
   {58},
   {53},
   {56, 51},
   {54},
   {53},
   {57},
   {57, 53},
   {54},
   {55},
   {59},
   {58},
   {61},
   {59},
   {62},
   {62},
   {62},
   {  } ];

deadline = array2d(1..62, 1..3, [4, 0, 2, 9, 5, 1, 9, 1, 3, 14, 5, 4, 16, 3, 2, 16, 3, 4, 20, 4, 2, 20, 3, 1, 21, 0, 5, 22, 3, 3, 24, 0, 3, 24, 0, 1, 25, 0, 5, 39, 4, 0, 55, 3, 3, 56, 0, 0, 63, 0, 2, 63, 3, 0, 64, 2, 2, 64, 4, 4, 64, 3, 3, 71, 1, 4, 73, 3, 1, 73, 2, 0, 74, 2, 4, 74, 1, 1, 76, 0, 5, 79, 0, 5, 84, 0, 1, 84, 3, 4, 86, 3, 3, 87, 5, 0, 87, 3, 3, 88, 5, 2, 90, 3, 3, 96, 3, 5, 100, 1, 3, 102, 4, 2, 109, 2, 5, 111, 1, 3, 115, 0, 1, 119, 0, 3, 125, 1, 0, 128, 2, 1, 129, 5, 1, 130, 0, 5, 131, 5, 5, 146, 1, 3, 150, 0, 3, 153, 0, 3, 160, 3, 2, 160, 1, 4, 165, 5, 5, 166, 0, 4, 167, 0, 1, 168, 3, 3, 169, 2, 3, 169, 2, 0, 181, 0, 4, 182, 4, 4, 182, 5, 3, 189, 0, 4]);
