n_res = 4;
rc = [ 56, 57, 49, 46 ];
n_tasks = 62;
d = [0, 4, 2, 8, 4, 1, 7, 7, 5, 4, 10, 5, 10, 7, 6, 8, 3, 4, 6, 10, 4, 6, 9, 2, 7, 10, 7, 3, 10, 5, 7, 3, 3, 3, 1, 4, 3, 10, 9, 5, 9, 1, 8, 4, 3, 8, 7, 5, 1, 9, 6, 8, 5, 8, 3, 7, 9, 10, 8, 1, 9, 0];
rr = array2d(1..4, 1..62, [0, 2, 2, 7, 10, 5, 10, 10, 3, 1, 10, 6, 4, 2, 3, 4, 1, 6, 6, 8, 8, 7, 4, 9, 4, 4, 7, 4, 1, 8, 9, 7, 8, 5, 8, 7, 8, 10, 3, 7, 1, 8, 1, 10, 10, 6, 8, 4, 2, 1, 2, 10, 6, 1, 2, 3, 1, 10, 5, 4, 1, 0, 0, 4, 5, 4, 7, 5, 7, 4, 7, 7, 8, 1, 9, 7, 6, 4, 4, 1, 10, 2, 2, 5, 9, 8, 8, 9, 8, 1, 8, 1, 9, 3, 2, 7, 10, 2, 2, 6, 4, 9, 6, 3, 7, 7, 9, 7, 3, 10, 4, 5, 7, 5, 3, 4, 10, 8, 5, 3, 6, 3, 9, 0, 0, 3, 7, 8, 3, 1, 6, 10, 5, 6, 10, 1, 1, 6, 1, 6, 9, 6, 6, 4, 4, 6, 5, 8, 5, 2, 10, 3, 9, 8, 9, 3, 1, 7, 2, 8, 8, 5, 3, 9, 3, 4, 5, 2, 3, 2, 8, 8, 1, 8, 3, 10, 4, 10, 10, 6, 6, 10, 10, 3, 1, 0, 0, 9, 8, 8, 6, 5, 8, 8, 10, 4, 1, 6, 4, 8, 9, 7, 7, 4, 7, 6, 6, 4, 3, 3, 1, 2, 9, 3, 9, 2, 7, 7, 8, 8, 6, 8, 4, 8, 3, 1, 4, 1, 3, 2, 2, 4, 8, 7, 4, 9, 7, 4, 4, 6, 8, 10, 7, 2, 4, 8, 7, 0]);

suc = [
   {2, 3, 4},
   {8, 5, 7},
   {8, 19, 6},
   {49, 44, 30},
   {9, 12, 6},
   {24, 56, 51},
   {49, 19, 22},
   {10, 11, 20},
   {53},
   {17, 28, 21},
   {40, 36, 14},
   {16, 13, 15},
   {25, 18, 23},
   {34, 27, 42},
   {34, 35},
   {32, 17, 35},
   {58, 36, 30},
   {26, 52, 47},
   {45, 46, 23},
   {33, 34, 23},
   {41, 42, 22},
   {56},
   {24, 50, 29},
   {35, 36, 39},
   {27, 31},
   {51, 50, 43},
   {43, 44, 30},
   {32, 46},
   {51, 37},
   {33, 37, 55},
   {57, 38, 39},
   {33, 60, 41},
   {52, 45},
   {48, 37, 39},
   {54},
   {38, 47},
   {38},
   {60},
   {44, 47},
   {41, 42, 46},
   {43, 52, 45},
   {48, 50},
   {48, 55},
   {53},
   {61},
   {53, 54},
   {54},
   {49, 58},
   {59},
   {55},
   {58},
   {56},
   {60, 61},
   {59},
   {57},
   {57},
   {59},
   {61},
   {62},
   {62},
   {62},
   {  } ];

deadline = array2d(1..62, 1..3, [1, 5, 3, 2, 5, 4, 3, 4, 4, 5, 5, 3, 6, 4, 4, 9, 4, 3, 19, 2, 5, 21, 5, 2, 26, 4, 3, 28, 2, 5, 28, 5, 1, 33, 2, 1, 36, 4, 2, 36, 1, 0, 41, 4, 4, 44, 4, 4, 45, 2, 2, 46, 4, 1, 53, 2, 4, 54, 5, 4, 64, 4, 5, 65, 3, 5, 66, 2, 4, 68, 2, 2, 73, 0, 0, 79, 1, 3, 80, 5, 2, 84, 5, 1, 86, 0, 0, 89, 5, 0, 97, 3, 1, 99, 2, 3, 104, 1, 5, 107, 5, 5, 119, 2, 5, 121, 4, 0, 121, 3, 2, 123, 1, 3, 124, 4, 4, 126, 3, 4, 131, 0, 2, 133, 2, 3, 137, 3, 0, 139, 1, 4, 144, 2, 1, 145, 0, 2, 147, 3, 1, 147, 0, 4, 152, 5, 0, 152, 4, 5, 153, 3, 2, 159, 4, 2, 168, 5, 4, 172, 1, 1, 172, 3, 4, 172, 4, 2, 179, 5, 5, 181, 0, 4, 182, 1, 1, 182, 4, 0, 186, 1, 1, 189, 2, 0]);
