n_res = 4;
rc = [ 51, 39, 35, 48 ];
n_tasks = 62;
d = [0, 5, 6, 3, 7, 10, 1, 5, 10, 7, 8, 8, 10, 7, 10, 1, 6, 3, 3, 1, 7, 1, 3, 9, 4, 7, 2, 6, 6, 9, 1, 4, 10, 5, 9, 9, 7, 7, 7, 1, 9, 8, 7, 5, 5, 7, 3, 4, 8, 4, 4, 3, 2, 2, 5, 5, 4, 6, 6, 3, 1, 0];
rr = array2d(1..4, 1..62, [0, 6, 0, 0, 7, 0, 3, 6, 9, 1, 4, 0, 7, 4, 6, 8, 6, 0, 0, 0, 0, 8, 8, 1, 5, 8, 8, 9, 9, 3, 0, 10, 7, 8, 0, 8, 8, 1, 3, 4, 3, 1, 9, 0, 5, 9, 1, 8, 6, 5, 0, 1, 10, 6, 5, 9, 8, 0, 7, 0, 0, 0, 0, 1, 8, 9, 10, 10, 4, 2, 2, 2, 5, 6, 2, 6, 0, 3, 3, 8, 7, 3, 7, 0, 8, 5, 0, 0, 1, 6, 10, 10, 9, 0, 0, 9, 3, 0, 8, 0, 3, 8, 10, 4, 1, 0, 7, 9, 4, 2, 5, 0, 8, 9, 4, 3, 4, 0, 4, 3, 1, 4, 0, 0, 0, 0, 1, 9, 5, 0, 9, 7, 2, 2, 9, 0, 2, 8, 4, 0, 1, 10, 1, 6, 4, 5, 0, 0, 2, 10, 0, 0, 6, 6, 9, 3, 9, 0, 0, 7, 3, 0, 0, 7, 0, 4, 8, 4, 0, 10, 0, 7, 7, 3, 0, 4, 7, 1, 3, 3, 10, 5, 4, 4, 3, 0, 0, 8, 3, 9, 0, 5, 6, 5, 4, 1, 0, 0, 6, 0, 0, 5, 10, 0, 5, 1, 7, 6, 7, 1, 8, 0, 0, 6, 6, 0, 7, 4, 6, 7, 0, 0, 5, 8, 8, 0, 0, 7, 0, 3, 3, 0, 9, 7, 2, 7, 5, 0, 3, 3, 9, 2, 6, 1, 5, 9, 7, 0]);

suc = [
   {2, 3, 4},
   {11, 5, 7},
   {9, 6, 14},
   {10, 22},
   {8, 49},
   {12, 13, 23},
   {32, 26, 40},
   {22},
   {25, 61, 29},
   {16, 20, 21},
   {28, 37, 31},
   {49, 18, 15},
   {19},
   {32, 51, 15},
   {59, 44},
   {32, 17, 26},
   {38, 35, 30},
   {24, 41, 42},
   {47},
   {27},
   {34, 50},
   {45},
   {33, 34, 36},
   {48},
   {39, 31},
   {41, 36},
   {43, 52},
   {58},
   {45, 37, 39},
   {60, 37},
   {36},
   {43, 47},
   {49},
   {52, 39},
   {42, 54, 55},
   {45},
   {52},
   {40, 47},
   {48},
   {56},
   {46},
   {57, 44},
   {44, 55},
   {56, 50},
   {57},
   {48, 50, 53},
   {54},
   {57},
   {53},
   {58},
   {53, 55},
   {59},
   {54},
   {58, 60},
   {56},
   {60, 61},
   {59},
   {61},
   {62},
   {62},
   {62},
   {  } ];

deadline = array2d(1..62, 1..3, [1, 2, 3, 1, 0, 0, 4, 4, 2, 5, 5, 2, 6, 1, 2, 14, 0, 4, 15, 4, 5, 15, 1, 0, 17, 0, 4, 22, 5, 1, 25, 0, 0, 25, 3, 0, 28, 0, 1, 36, 4, 5, 38, 2, 1, 43, 3, 0, 45, 0, 2, 46, 5, 3, 48, 3, 5, 50, 0, 4, 51, 3, 2, 51, 5, 1, 54, 5, 4, 54, 1, 4, 55, 4, 3, 59, 4, 0, 62, 1, 2, 66, 5, 3, 68, 5, 3, 68, 0, 2, 69, 3, 3, 71, 5, 0, 74, 3, 1, 78, 1, 5, 80, 3, 4, 81, 5, 2, 82, 4, 0, 89, 0, 0, 91, 4, 5, 92, 4, 2, 94, 0, 2, 95, 5, 5, 98, 0, 3, 101, 3, 2, 103, 3, 0, 106, 3, 2, 108, 3, 4, 110, 2, 1, 110, 3, 3, 113, 3, 0, 115, 0, 4, 115, 5, 5, 119, 5, 5, 122, 3, 2, 123, 5, 3, 123, 1, 5, 125, 3, 2, 125, 5, 1, 128, 3, 3, 131, 1, 4, 139, 2, 5, 141, 3, 2]);
