n_res = 4;
rc = [ 21, 18, 21, 18 ];
n_tasks = 62;
d = [0, 8, 2, 6, 9, 2, 8, 2, 1, 9, 10, 10, 9, 7, 7, 4, 6, 9, 4, 2, 9, 7, 9, 5, 5, 3, 4, 10, 8, 5, 2, 10, 5, 7, 8, 8, 3, 10, 4, 4, 7, 2, 6, 3, 4, 9, 9, 1, 3, 1, 10, 7, 1, 10, 5, 5, 6, 5, 6, 2, 10, 0];
rr = array2d(1..4, 1..62, [0, 7, 0, 2, 7, 8, 4, 5, 9, 1, 9, 1, 10, 6, 0, 0, 5, 3, 0, 8, 2, 0, 4, 2, 6, 0, 3, 10, 8, 1, 2, 3, 7, 5, 9, 6, 2, 10, 0, 10, 0, 0, 0, 5, 4, 5, 8, 0, 6, 5, 0, 5, 0, 5, 4, 0, 7, 0, 0, 5, 8, 0, 0, 3, 4, 0, 0, 2, 6, 2, 3, 9, 0, 2, 0, 5, 6, 3, 2, 0, 0, 3, 8, 0, 5, 6, 10, 3, 10, 4, 6, 0, 6, 3, 8, 4, 6, 3, 8, 0, 2, 10, 2, 7, 1, 7, 9, 3, 8, 9, 6, 0, 2, 1, 2, 2, 7, 6, 10, 3, 2, 7, 2, 0, 0, 0, 6, 7, 8, 0, 9, 9, 10, 10, 0, 8, 8, 7, 3, 7, 1, 1, 9, 0, 9, 6, 10, 1, 4, 2, 6, 6, 1, 8, 0, 2, 1, 10, 5, 7, 10, 9, 8, 0, 1, 0, 0, 0, 0, 0, 10, 6, 4, 2, 4, 0, 3, 0, 5, 0, 0, 5, 7, 0, 0, 0, 0, 6, 4, 9, 0, 1, 7, 6, 0, 4, 1, 3, 7, 0, 0, 10, 0, 3, 6, 5, 0, 3, 1, 8, 10, 4, 6, 1, 8, 5, 9, 0, 5, 6, 7, 2, 0, 0, 0, 7, 1, 9, 10, 0, 7, 0, 5, 6, 7, 0, 9, 3, 10, 7, 0, 5, 1, 0, 7, 0, 6, 0]);

suc = [
   {2, 3, 4},
   {8, 49},
   {16, 26, 39},
   {5, 6, 7},
   {32, 13, 22},
   {32, 9, 25},
   {20, 46},
   {40, 10, 28},
   {11, 23, 15},
   {41, 12, 36},
   {18, 29, 14},
   {33, 37},
   {60, 21, 31},
   {54, 27, 38},
   {17, 19, 38},
   {28},
   {57},
   {43, 53},
   {26, 30},
   {32, 56, 35},
   {52, 55},
   {58, 27, 31},
   {24},
   {40, 33, 34},
   {39},
   {44, 52},
   {49, 59},
   {42, 45},
   {31},
   {58},
   {43, 55, 39},
   {44, 45},
   {51},
   {53, 38},
   {45, 47},
   {42},
   {50, 55},
   {48},
   {44, 46},
   {59},
   {43},
   {48, 46},
   {47},
   {47},
   {58, 51},
   {50, 52},
   {61, 54},
   {56},
   {56},
   {51},
   {57},
   {53, 54},
   {57},
   {59},
   {61},
   {60},
   {61},
   {60},
   {62},
   {62},
   {62},
   {  } ];

deadline = array2d(1..62, 1..3, [2, 5, 0, 2, 0, 2, 9, 2, 2, 10, 4, 5, 11, 3, 3, 12, 2, 5, 15, 0, 0, 17, 2, 1, 18, 0, 4, 20, 2, 0, 20, 5, 5, 20, 3, 0, 26, 2, 3, 28, 2, 3, 32, 3, 1, 32, 5, 5, 33, 5, 1, 53, 5, 2, 60, 2, 4, 60, 1, 2, 62, 1, 1, 63, 5, 1, 70, 3, 5, 73, 4, 0, 78, 4, 2, 79, 0, 0, 82, 0, 2, 83, 5, 4, 86, 1, 3, 87, 2, 3, 88, 4, 5, 90, 3, 3, 91, 0, 2, 100, 3, 4, 104, 5, 1, 105, 0, 1, 109, 5, 1, 116, 4, 1, 117, 4, 2, 119, 5, 4, 122, 5, 3, 124, 2, 1, 125, 4, 4, 131, 0, 1, 131, 2, 3, 133, 1, 1, 139, 1, 1, 140, 0, 1, 149, 3, 5, 149, 0, 3, 149, 5, 2, 151, 4, 2, 152, 0, 3, 153, 5, 4, 154, 3, 1, 155, 1, 1, 159, 1, 0, 162, 4, 2, 167, 5, 2, 168, 0, 5, 169, 2, 5, 172, 3, 4]);
