n_res = 4;
rc = [ 44, 46, 41, 48 ];
n_tasks = 62;
d = [0, 9, 9, 7, 3, 4, 5, 3, 8, 9, 3, 9, 4, 3, 6, 9, 3, 5, 9, 4, 1, 9, 6, 6, 7, 10, 2, 3, 9, 8, 3, 1, 7, 2, 4, 8, 7, 1, 6, 6, 8, 4, 3, 10, 3, 7, 1, 3, 9, 2, 2, 7, 1, 6, 1, 1, 2, 7, 9, 9, 1, 0];
rr = array2d(1..4, 1..62, [0, 8, 5, 6, 2, 6, 8, 7, 2, 4, 2, 3, 2, 9, 8, 3, 5, 2, 5, 10, 1, 6, 4, 7, 7, 1, 2, 8, 6, 3, 3, 4, 10, 10, 8, 6, 9, 6, 8, 5, 5, 2, 9, 6, 1, 6, 8, 1, 1, 2, 6, 4, 3, 1, 6, 5, 6, 2, 2, 2, 5, 0, 0, 10, 9, 6, 6, 10, 4, 4, 8, 1, 8, 4, 3, 4, 1, 4, 5, 8, 1, 10, 4, 10, 3, 7, 2, 4, 1, 9, 2, 10, 2, 9, 2, 7, 7, 5, 3, 10, 4, 7, 7, 10, 2, 4, 5, 5, 9, 4, 5, 1, 4, 9, 1, 6, 4, 5, 7, 10, 1, 1, 10, 0, 0, 6, 3, 9, 6, 4, 7, 5, 6, 5, 8, 3, 6, 8, 2, 6, 4, 6, 6, 2, 2, 6, 1, 9, 6, 8, 7, 5, 4, 3, 2, 6, 1, 1, 5, 2, 7, 5, 1, 10, 5, 7, 4, 5, 9, 9, 5, 5, 3, 5, 3, 4, 8, 4, 6, 9, 3, 7, 1, 3, 1, 0, 0, 2, 8, 9, 8, 9, 6, 8, 4, 10, 1, 9, 9, 4, 7, 5, 7, 5, 2, 3, 8, 3, 1, 4, 7, 3, 1, 8, 1, 7, 9, 7, 7, 9, 3, 2, 8, 4, 7, 5, 6, 8, 8, 1, 4, 7, 3, 6, 6, 6, 9, 1, 8, 2, 6, 9, 6, 5, 4, 6, 1, 0]);

suc = [
   {2, 3, 4},
   {24, 11, 47},
   {9, 41, 15},
   {5, 6, 7},
   {18, 12, 13},
   {19, 29, 30},
   {8, 45, 37},
   {14},
   {40, 10, 20},
   {51, 37, 21},
   {28, 22, 36},
   {39},
   {49, 34, 61},
   {25, 39, 23},
   {16, 17, 44},
   {27},
   {19, 23},
   {47, 31},
   {26, 22},
   {52, 46},
   {32, 27, 38},
   {48, 43},
   {48, 33},
   {49},
   {32, 26, 54},
   {50},
   {33, 43, 31},
   {35, 38},
   {32, 34},
   {42},
   {49},
   {57},
   {55},
   {42},
   {40, 53},
   {57},
   {58},
   {58},
   {41, 57},
   {48, 50},
   {46},
   {44, 53, 52},
   {46},
   {50, 45},
   {58},
   {56},
   {56, 51},
   {56, 54},
   {54},
   {59},
   {52, 53},
   {55},
   {60, 55},
   {59},
   {59},
   {61},
   {60, 61},
   {60},
   {62},
   {62},
   {62},
   {  } ];

deadline = array2d(1..62, 1..3, [1, 1, 2, 3, 4, 0, 6, 3, 3, 7, 0, 5, 11, 1, 2, 13, 5, 1, 18, 1, 1, 23, 2, 5, 24, 1, 1, 25, 2, 4, 26, 4, 0, 26, 1, 5, 29, 0, 3, 35, 0, 4, 36, 5, 4, 38, 5, 5, 38, 2, 0, 43, 1, 4, 44, 2, 2, 45, 2, 5, 48, 4, 5, 54, 3, 1, 54, 2, 3, 56, 5, 3, 56, 2, 2, 58, 4, 3, 59, 5, 1, 62, 5, 4, 62, 0, 5, 65, 2, 0, 68, 3, 5, 68, 5, 2, 70, 5, 3, 75, 0, 2, 75, 1, 1, 76, 3, 4, 83, 2, 1, 86, 4, 4, 88, 5, 1, 88, 3, 4, 89, 1, 2, 89, 2, 2, 96, 4, 1, 96, 4, 3, 98, 1, 1, 98, 5, 3, 98, 0, 5, 98, 4, 5, 105, 2, 5, 107, 0, 0, 108, 3, 5, 110, 5, 3, 114, 1, 4, 119, 1, 0, 119, 5, 0, 121, 5, 2, 121, 5, 4, 124, 2, 5, 127, 4, 0, 135, 3, 4, 138, 5, 4, 139, 4, 1]);
