n_res = 4;
rc = [ 17, 12, 16, 17 ];
n_tasks = 62;
d = [0, 1, 10, 7, 10, 6, 9, 7, 5, 8, 10, 4, 5, 5, 5, 3, 6, 3, 9, 9, 8, 7, 1, 2, 2, 1, 10, 2, 3, 4, 9, 5, 8, 10, 5, 9, 9, 1, 6, 3, 5, 4, 3, 3, 10, 3, 8, 7, 2, 2, 6, 1, 2, 6, 10, 8, 2, 6, 5, 8, 10, 0];
rr = array2d(1..4, 1..62, [0, 0, 0, 0, 0, 0, 1, 0, 0, 0, 0, 0, 0, 0, 7, 0, 0, 0, 0, 0, 0, 9, 0, 0, 0, 0, 0, 0, 0, 0, 8, 0, 3, 0, 7, 0, 0, 0, 0, 0, 5, 5, 2, 0, 6, 0, 0, 7, 0, 0, 0, 0, 0, 0, 0, 0, 0, 1, 0, 0, 0, 0, 0, 0, 0, 0, 5, 0, 0, 0, 4, 0, 0, 0, 0, 9, 0, 0, 0, 8, 0, 0, 0, 0, 2, 0, 0, 0, 0, 0, 0, 0, 0, 0, 0, 4, 0, 2, 1, 0, 1, 0, 0, 0, 0, 0, 0, 0, 7, 0, 0, 0, 6, 3, 0, 0, 0, 0, 0, 0, 0, 4, 0, 0, 0, 0, 0, 5, 0, 6, 0, 0, 0, 0, 8, 0, 0, 0, 0, 0, 0, 0, 0, 7, 4, 0, 0, 1, 0, 0, 7, 0, 0, 4, 0, 8, 0, 0, 0, 0, 0, 6, 0, 0, 0, 0, 0, 3, 0, 4, 0, 0, 0, 0, 0, 0, 10, 8, 0, 0, 5, 0, 0, 0, 0, 0, 0, 3, 5, 0, 0, 0, 0, 5, 0, 9, 0, 4, 5, 0, 0, 1, 7, 0, 4, 0, 0, 0, 0, 0, 7, 9, 0, 8, 5, 0, 0, 0, 0, 0, 0, 0, 0, 0, 0, 3, 0, 0, 0, 0, 0, 0, 0, 0, 1, 1, 0, 0, 0, 0, 2, 9, 0, 0, 10, 0, 10, 0]);

suc = [
   {2, 3, 4},
   {9, 6, 7},
   {11, 37, 7},
   {25, 20, 5},
   {18, 43, 53},
   {27, 14},
   {8, 12, 13},
   {16, 10, 14},
   {57, 20},
   {40, 34, 23},
   {32, 34, 36},
   {47, 21, 15},
   {60, 14},
   {32, 50, 19},
   {24, 26, 23},
   {17, 43, 21},
   {24, 28, 44},
   {40, 41, 22},
   {20, 46, 23},
   {39},
   {24, 41},
   {47},
   {53, 29},
   {35, 29, 30},
   {32, 28},
   {27, 30, 31},
   {41, 57, 39},
   {40, 42, 29},
   {49, 39},
   {48, 36, 45},
   {33, 50},
   {59, 35},
   {34, 51, 36},
   {42, 35, 38},
   {53, 54},
   {42, 59},
   {57, 58},
   {44, 45, 46},
   {56},
   {47},
   {61, 52, 45},
   {52, 55},
   {51, 44, 46},
   {48},
   {58},
   {49, 54},
   {48, 49, 50},
   {52},
   {56},
   {51},
   {59, 54},
   {58},
   {56, 55},
   {55},
   {61},
   {61},
   {60},
   {60},
   {62},
   {62},
   {62},
   {  } ];

deadline = array2d(1..62, 1..3, [4, 2, 3, 9, 0, 1, 12, 5, 1, 21, 2, 2, 24, 5, 3, 25, 5, 1, 27, 5, 1, 27, 2, 5, 33, 3, 4, 34, 2, 1, 41, 0, 1, 42, 1, 5, 46, 1, 0, 50, 5, 3, 50, 3, 2, 52, 3, 0, 56, 3, 3, 61, 0, 5, 62, 4, 5, 67, 1, 3, 67, 3, 1, 74, 3, 1, 81, 2, 0, 81, 0, 4, 83, 2, 2, 85, 5, 3, 89, 3, 1, 89, 0, 4, 89, 0, 0, 90, 0, 5, 91, 0, 3, 92, 1, 5, 92, 2, 3, 95, 3, 5, 111, 3, 5, 115, 4, 1, 120, 0, 2, 121, 3, 1, 127, 5, 3, 130, 5, 2, 130, 1, 1, 132, 3, 4, 134, 4, 5, 135, 3, 4, 136, 1, 4, 137, 3, 0, 148, 3, 0, 149, 5, 1, 150, 1, 5, 159, 3, 3, 160, 3, 1, 162, 1, 2, 167, 5, 5, 167, 1, 2, 169, 0, 4, 172, 2, 3, 173, 4, 3, 179, 0, 2, 198, 0, 3, 198, 5, 0, 199, 3, 2, 203, 2, 5]);
