n_res = 4;
rc = [ 19, 11, 18, 15 ];
n_tasks = 62;
d = [0, 6, 8, 1, 10, 9, 7, 5, 8, 1, 10, 7, 9, 10, 5, 10, 5, 10, 9, 5, 7, 3, 7, 2, 8, 2, 9, 7, 10, 2, 1, 3, 10, 6, 2, 2, 5, 6, 10, 6, 4, 2, 1, 6, 8, 2, 2, 8, 10, 8, 6, 5, 6, 7, 3, 10, 7, 2, 3, 10, 8, 0];
rr = array2d(1..4, 1..62, [0, 0, 0, 0, 0, 8, 0, 7, 6, 0, 0, 9, 0, 7, 0, 0, 3, 10, 0, 9, 8, 0, 0, 0, 10, 0, 0, 0, 0, 0, 9, 0, 0, 0, 0, 0, 0, 0, 8, 0, 0, 0, 0, 0, 0, 7, 0, 0, 0, 0, 10, 0, 0, 0, 0, 4, 0, 0, 0, 3, 0, 0, 0, 0, 0, 0, 3, 0, 0, 0, 0, 4, 3, 0, 0, 0, 0, 0, 0, 0, 0, 0, 0, 7, 0, 0, 0, 0, 0, 0, 0, 0, 0, 0, 0, 0, 0, 4, 0, 0, 0, 0, 7, 0, 9, 0, 0, 0, 0, 1, 0, 0, 0, 0, 2, 0, 0, 0, 0, 0, 0, 0, 1, 0, 0, 0, 9, 0, 0, 0, 6, 0, 0, 0, 0, 0, 9, 0, 6, 0, 0, 0, 0, 0, 0, 0, 7, 0, 0, 3, 0, 8, 4, 8, 0, 0, 0, 4, 6, 0, 4, 0, 0, 7, 0, 10, 0, 0, 0, 0, 0, 0, 4, 10, 0, 0, 0, 0, 0, 0, 5, 0, 5, 0, 0, 0, 0, 5, 0, 3, 0, 0, 0, 0, 0, 0, 0, 0, 0, 0, 0, 4, 0, 0, 5, 0, 0, 0, 0, 8, 0, 0, 2, 0, 0, 0, 0, 8, 7, 0, 0, 0, 0, 1, 0, 0, 0, 0, 0, 8, 10, 0, 1, 0, 0, 0, 0, 3, 0, 7, 3, 0, 0, 10, 0, 0, 0, 0]);

suc = [
   {2, 3, 4},
   {9, 5, 14},
   {8, 32, 6},
   {11, 36, 39},
   {18, 19, 21},
   {29, 13, 7},
   {27, 36, 38},
   {25},
   {32, 10, 31},
   {16, 34, 12},
   {17, 12, 54},
   {18, 35, 28},
   {25, 35, 14},
   {49, 22, 15},
   {40, 20, 55},
   {48, 30},
   {26, 35, 23},
   {48},
   {49, 27, 39},
   {33, 44, 41},
   {43, 53, 38},
   {42, 28, 46},
   {24, 50, 47},
   {37},
   {26, 28, 30},
   {49, 34, 27},
   {58, 31},
   {37, 38},
   {33, 43, 36},
   {40, 39},
   {33, 59, 44},
   {41, 46, 47},
   {60, 37},
   {40},
   {44, 61},
   {41, 52},
   {56, 45},
   {51, 45},
   {42, 46, 47},
   {59, 52},
   {42, 50},
   {53, 54},
   {45, 54},
   {53},
   {48, 52},
   {56, 55},
   {59, 51},
   {57},
   {50, 51},
   {57},
   {56, 55},
   {57},
   {60},
   {58},
   {58},
   {61},
   {61},
   {60},
   {62},
   {62},
   {62},
   {  } ];

deadline = array2d(1..62, 1..3, [1, 5, 2, 5, 0, 5, 5, 4, 1, 16, 5, 5, 19, 2, 2, 22, 3, 0, 27, 4, 5, 29, 4, 4, 33, 2, 4, 33, 0, 3, 34, 4, 2, 34, 0, 4, 41, 2, 5, 42, 3, 2, 44, 3, 0, 51, 2, 4, 55, 2, 4, 60, 5, 4, 60, 1, 3, 61, 2, 1, 63, 4, 5, 67, 1, 3, 70, 0, 3, 72, 3, 5, 73, 3, 2, 80, 2, 3, 82, 0, 4, 87, 3, 1, 92, 0, 2, 95, 3, 4, 96, 4, 0, 98, 0, 1, 102, 5, 0, 104, 2, 4, 111, 1, 1, 111, 2, 2, 112, 4, 4, 122, 5, 3, 124, 4, 5, 129, 3, 2, 145, 1, 3, 150, 2, 2, 158, 1, 1, 158, 5, 4, 165, 2, 3, 174, 3, 4, 188, 1, 5, 190, 3, 5, 191, 1, 4, 198, 2, 0, 199, 2, 1, 203, 4, 5, 207, 0, 2, 211, 4, 4, 217, 1, 4, 222, 1, 5, 222, 4, 1, 222, 4, 5, 224, 3, 5, 227, 1, 5, 228, 5, 0, 230, 2, 3]);
