n_res = 4;
rc = [ 18, 19, 17, 19 ];
n_tasks = 62;
d = [0, 2, 1, 8, 6, 9, 3, 7, 4, 6, 1, 2, 6, 1, 6, 1, 10, 7, 1, 9, 8, 5, 6, 8, 3, 2, 8, 7, 8, 3, 5, 2, 2, 4, 7, 10, 10, 2, 9, 8, 8, 7, 3, 4, 1, 7, 3, 7, 10, 1, 7, 3, 6, 1, 3, 9, 1, 4, 1, 4, 7, 0];
rr = array2d(1..4, 1..62, [0, 0, 0, 2, 4, 3, 8, 0, 0, 9, 2, 6, 10, 0, 0, 8, 5, 3, 10, 3, 0, 1, 2, 4, 10, 0, 3, 8, 3, 7, 7, 7, 0, 7, 2, 1, 10, 0, 0, 9, 8, 0, 5, 7, 8, 0, 8, 7, 5, 10, 8, 2, 4, 0, 4, 0, 9, 7, 0, 0, 6, 0, 0, 5, 1, 7, 0, 10, 10, 8, 9, 6, 4, 0, 0, 0, 6, 4, 1, 7, 3, 0, 4, 0, 9, 10, 7, 0, 10, 8, 7, 4, 5, 0, 10, 5, 0, 0, 0, 9, 5, 5, 5, 2, 8, 2, 3, 7, 0, 2, 6, 5, 0, 7, 0, 0, 6, 7, 3, 0, 6, 0, 6, 0, 0, 2, 2, 10, 8, 7, 0, 0, 4, 0, 0, 1, 8, 0, 1, 9, 4, 3, 0, 5, 7, 7, 6, 2, 5, 4, 7, 0, 0, 6, 1, 5, 2, 2, 5, 2, 3, 0, 8, 6, 10, 9, 6, 10, 0, 9, 8, 0, 0, 8, 0, 0, 0, 10, 10, 0, 2, 8, 1, 10, 10, 0, 0, 1, 8, 1, 1, 9, 6, 1, 3, 10, 5, 9, 2, 3, 7, 9, 8, 6, 8, 0, 5, 4, 8, 3, 4, 3, 2, 10, 9, 8, 10, 1, 0, 7, 0, 0, 6, 10, 9, 8, 2, 0, 6, 0, 3, 9, 1, 0, 8, 9, 3, 10, 5, 7, 8, 1, 3, 0, 2, 9, 0, 0]);

suc = [
   {2, 3, 4},
   {21, 13, 6},
   {8, 28, 5},
   {19, 37, 39},
   {16, 11, 7},
   {9, 18, 20},
   {17, 22, 57},
   {48, 10, 34},
   {32, 12, 52},
   {50, 58, 22},
   {19, 46, 15},
   {35, 27, 29},
   {30, 14, 23},
   {24, 34, 28},
   {41, 20, 22},
   {24, 50, 31},
   {25, 27, 33},
   {32, 28, 44},
   {45, 38, 55},
   {26, 45, 31},
   {59, 29},
   {25, 27, 30},
   {34, 36, 39},
   {35, 44, 60},
   {32, 42, 53},
   {42, 37, 47},
   {60},
   {53, 46, 55},
   {48, 33, 31},
   {33, 42},
   {54},
   {56},
   {40, 45},
   {49, 35, 37},
   {43, 46},
   {40, 43, 38},
   {51, 43},
   {48, 41, 51},
   {40, 56, 47},
   {61},
   {58, 44, 47},
   {56},
   {55},
   {52},
   {61},
   {58},
   {49},
   {49},
   {50},
   {53, 54},
   {52},
   {54},
   {60},
   {57},
   {57},
   {59},
   {61},
   {59},
   {62},
   {62},
   {62},
   {  } ];

deadline = array2d(1..62, 1..3, [6, 4, 1, 7, 1, 1, 7, 1, 1, 11, 4, 5, 11, 1, 2, 11, 5, 5, 13, 0, 4, 13, 2, 0, 14, 4, 5, 16, 5, 5, 17, 1, 5, 19, 3, 3, 19, 3, 5, 20, 0, 0, 24, 0, 0, 26, 2, 0, 26, 3, 1, 32, 0, 0, 32, 4, 5, 34, 0, 0, 34, 2, 3, 35, 3, 5, 40, 5, 4, 41, 0, 5, 45, 5, 5, 47, 0, 3, 50, 5, 2, 50, 5, 0, 55, 4, 2, 59, 1, 2, 59, 5, 1, 61, 2, 3, 61, 3, 0, 62, 3, 4, 65, 5, 0, 66, 0, 3, 66, 0, 2, 69, 0, 4, 70, 3, 0, 73, 2, 3, 75, 2, 0, 75, 3, 2, 76, 1, 4, 82, 4, 5, 90, 1, 3, 94, 1, 4, 98, 2, 2, 114, 1, 2, 115, 5, 3, 119, 2, 4, 120, 3, 2, 120, 4, 1, 121, 3, 1, 122, 1, 4, 126, 4, 4, 127, 2, 1, 129, 3, 1, 133, 0, 1, 136, 2, 2, 139, 3, 4, 142, 0, 0, 145, 5, 1]);
