n_res = 4;
rc = [ 27, 25, 31, 32 ];
n_tasks = 62;
d = [0, 8, 8, 7, 6, 4, 3, 6, 4, 1, 10, 1, 2, 8, 3, 9, 9, 8, 3, 5, 8, 5, 5, 3, 2, 9, 4, 3, 9, 10, 6, 1, 2, 1, 9, 3, 5, 6, 9, 9, 4, 7, 9, 2, 3, 4, 2, 7, 5, 9, 5, 6, 5, 8, 6, 4, 4, 5, 4, 5, 1, 0];
rr = array2d(1..4, 1..62, [0, 0, 3, 0, 4, 8, 8, 10, 5, 5, 0, 0, 0, 0, 7, 1, 6, 1, 2, 2, 7, 2, 0, 2, 8, 4, 8, 0, 9, 0, 3, 3, 7, 7, 0, 1, 2, 0, 5, 10, 8, 0, 1, 10, 0, 4, 10, 2, 3, 0, 7, 8, 9, 0, 5, 1, 8, 0, 8, 4, 1, 0, 0, 0, 1, 3, 0, 7, 0, 1, 9, 5, 10, 0, 0, 0, 1, 7, 2, 5, 8, 0, 5, 5, 0, 0, 0, 8, 0, 8, 1, 0, 2, 0, 8, 2, 8, 8, 0, 6, 4, 5, 0, 10, 8, 8, 3, 6, 1, 6, 0, 0, 10, 9, 8, 10, 4, 9, 7, 8, 7, 0, 6, 0, 0, 1, 6, 8, 0, 7, 3, 1, 10, 10, 0, 0, 0, 4, 4, 3, 7, 0, 0, 10, 2, 4, 8, 8, 1, 8, 8, 0, 3, 7, 0, 9, 10, 0, 8, 10, 0, 9, 5, 8, 3, 7, 2, 5, 4, 0, 7, 2, 7, 1, 0, 8, 3, 1, 10, 7, 0, 9, 1, 10, 8, 0, 0, 9, 4, 9, 8, 2, 0, 3, 9, 9, 3, 6, 5, 8, 10, 0, 6, 0, 6, 6, 0, 2, 10, 4, 6, 1, 0, 4, 1, 6, 2, 3, 0, 0, 10, 8, 9, 0, 2, 0, 3, 4, 7, 1, 5, 10, 7, 7, 0, 5, 9, 6, 0, 3, 6, 4, 5, 6, 10, 0, 2, 0]);

suc = [
   {2, 3, 4},
   {13, 6, 7},
   {29, 12, 5},
   {18, 30, 15},
   {17, 20},
   {22, 39},
   {8, 9, 10},
   {43, 11},
   {40, 26, 47},
   {42, 35, 39},
   {16, 19, 22},
   {37, 14},
   {27, 18, 19},
   {24, 33, 57},
   {36, 60},
   {28, 21, 44},
   {25, 37, 23},
   {49},
   {59},
   {43, 27, 51},
   {32},
   {40, 50},
   {53, 54, 31},
   {53},
   {45, 54},
   {38},
   {40, 34, 38},
   {48, 33},
   {58, 39},
   {52, 38},
   {48},
   {42},
   {46},
   {56, 41, 53},
   {41, 55, 49},
   {41, 50, 44},
   {51},
   {44},
   {46},
   {55},
   {57, 47},
   {58},
   {49, 45},
   {57},
   {48},
   {51, 54, 47},
   {59},
   {50},
   {56},
   {52, 61},
   {61},
   {55},
   {60},
   {60},
   {56},
   {58},
   {61},
   {59},
   {62},
   {62},
   {62},
   {  } ];

deadline = array2d(1..62, 1..3, [1, 3, 5, 2, 0, 2, 8, 1, 0, 9, 1, 0, 16, 1, 0, 20, 1, 3, 22, 5, 1, 25, 4, 2, 26, 2, 1, 28, 5, 5, 30, 5, 0, 33, 3, 5, 34, 5, 5, 36, 4, 5, 38, 4, 5, 40, 5, 3, 46, 5, 0, 51, 5, 3, 55, 4, 0, 59, 5, 1, 62, 0, 2, 69, 1, 5, 70, 0, 5, 75, 0, 5, 76, 4, 5, 76, 2, 0, 77, 2, 3, 83, 1, 0, 85, 5, 0, 88, 2, 0, 91, 5, 0, 91, 1, 5, 91, 3, 4, 92, 4, 0, 102, 5, 4, 103, 0, 2, 104, 5, 3, 107, 0, 3, 108, 2, 5, 110, 0, 4, 117, 2, 0, 124, 2, 0, 130, 5, 4, 131, 0, 2, 132, 0, 2, 134, 0, 5, 141, 2, 3, 146, 1, 5, 147, 1, 3, 149, 1, 3, 153, 2, 1, 167, 3, 3, 167, 5, 5, 172, 3, 2, 173, 4, 3, 174, 3, 3, 178, 0, 1, 181, 3, 4, 183, 4, 2, 184, 0, 0, 189, 1, 4, 198, 1, 0]);
