n_res = 4;
rc = [ 36, 28, 34, 34 ];
n_tasks = 62;
d = [0, 10, 7, 9, 5, 3, 9, 7, 7, 3, 2, 1, 10, 5, 8, 4, 5, 6, 4, 8, 3, 10, 8, 2, 7, 3, 2, 8, 3, 10, 1, 7, 10, 2, 2, 9, 2, 6, 1, 4, 9, 9, 7, 2, 6, 3, 7, 5, 8, 9, 10, 1, 7, 9, 3, 6, 1, 9, 1, 6, 7, 0];
rr = array2d(1..4, 1..62, [0, 1, 1, 9, 9, 1, 4, 2, 9, 7, 2, 2, 6, 9, 7, 9, 6, 2, 2, 9, 10, 10, 3, 10, 10, 10, 3, 3, 9, 2, 1, 6, 5, 1, 4, 8, 9, 3, 3, 9, 8, 4, 9, 8, 1, 1, 1, 2, 3, 7, 4, 3, 6, 2, 9, 8, 6, 10, 7, 7, 5, 0, 0, 1, 6, 5, 2, 4, 7, 6, 4, 9, 4, 6, 4, 7, 2, 2, 4, 4, 10, 4, 3, 3, 2, 7, 9, 4, 9, 5, 2, 6, 3, 1, 9, 1, 1, 10, 4, 2, 5, 4, 1, 8, 4, 1, 8, 10, 4, 1, 1, 10, 9, 1, 7, 2, 9, 6, 8, 5, 10, 4, 4, 0, 0, 1, 7, 8, 8, 3, 7, 4, 6, 7, 7, 5, 6, 3, 6, 7, 10, 6, 5, 8, 7, 7, 1, 6, 7, 2, 9, 2, 10, 3, 3, 5, 10, 5, 10, 9, 8, 10, 8, 8, 5, 5, 5, 3, 4, 7, 1, 9, 10, 7, 3, 5, 5, 7, 3, 3, 2, 2, 9, 9, 5, 0, 0, 3, 8, 6, 6, 6, 10, 2, 3, 8, 4, 8, 4, 10, 9, 9, 8, 8, 1, 3, 5, 1, 3, 6, 4, 3, 4, 7, 2, 5, 5, 8, 6, 4, 5, 8, 9, 3, 5, 4, 5, 7, 10, 6, 4, 4, 9, 3, 6, 4, 5, 4, 1, 9, 6, 9, 6, 7, 6, 3, 2, 0]);

suc = [
   {2, 3, 4},
   {25, 37, 7},
   {10, 5, 22},
   {46, 13, 6},
   {8, 9, 21},
   {11, 28, 31},
   {45, 29, 38},
   {19, 17, 11},
   {16, 18, 12},
   {33, 19, 29},
   {33, 45},
   {24, 38, 14},
   {24, 30, 15},
   {34, 27, 37},
   {27, 22, 55},
   {36, 53},
   {24, 25, 20},
   {40, 58, 31},
   {34, 43, 38},
   {35, 36, 23},
   {26, 27},
   {48, 39, 23},
   {57, 50, 58},
   {56},
   {32, 28, 31},
   {54, 46},
   {40, 47, 39},
   {49, 42, 29},
   {53},
   {42, 45, 47},
   {33},
   {41, 35, 36},
   {41, 35, 39},
   {40},
   {50},
   {48, 51},
   {44, 52},
   {41, 44, 47},
   {56, 50, 54},
   {42},
   {56, 49},
   {53},
   {49, 44, 46},
   {58, 55},
   {61},
   {59, 51},
   {48},
   {52},
   {51, 52},
   {59},
   {57, 55},
   {57},
   {59, 54},
   {60},
   {60},
   {60},
   {61},
   {61},
   {62},
   {62},
   {62},
   {  } ];

deadline = array2d(1..62, 1..3, [2, 2, 1, 8, 3, 3, 10, 2, 0, 11, 0, 0, 14, 4, 0, 15, 0, 0, 24, 3, 0, 28, 5, 0, 36, 0, 3, 37, 5, 4, 43, 4, 5, 48, 5, 4, 52, 5, 2, 54, 3, 0, 55, 0, 1, 57, 4, 0, 57, 3, 3, 60, 4, 5, 61, 2, 0, 63, 4, 2, 63, 4, 1, 63, 5, 4, 69, 3, 5, 76, 2, 0, 85, 5, 5, 94, 5, 0, 94, 3, 5, 96, 0, 2, 102, 0, 3, 106, 5, 1, 106, 5, 5, 106, 2, 0, 108, 2, 2, 109, 3, 4, 115, 2, 0, 119, 0, 0, 120, 5, 5, 122, 5, 3, 123, 5, 5, 123, 2, 2, 125, 3, 5, 142, 3, 1, 143, 1, 5, 144, 1, 0, 148, 1, 5, 150, 4, 1, 151, 5, 3, 151, 0, 4, 152, 3, 1, 154, 1, 2, 155, 0, 5, 158, 0, 4, 161, 1, 5, 162, 4, 0, 163, 0, 0, 164, 0, 5, 164, 1, 1, 185, 1, 1, 190, 0, 3, 191, 3, 2, 195, 0, 1, 195, 0, 0]);
