n_res = 4;
rc = [ 22, 19, 22, 21 ];
n_tasks = 62;
d = [0, 9, 4, 6, 2, 3, 3, 4, 3, 5, 8, 8, 2, 8, 6, 1, 3, 4, 1, 1, 2, 7, 5, 5, 7, 10, 4, 1, 9, 4, 7, 5, 2, 10, 1, 9, 3, 7, 10, 7, 9, 2, 4, 10, 1, 2, 1, 5, 4, 4, 9, 6, 10, 7, 5, 1, 6, 4, 9, 3, 7, 0];
rr = array2d(1..4, 1..62, [0, 2, 8, 5, 7, 10, 1, 0, 9, 7, 3, 8, 0, 8, 8, 0, 7, 1, 5, 4, 0, 6, 10, 4, 0, 2, 0, 9, 5, 2, 4, 4, 6, 5, 8, 6, 8, 1, 2, 6, 1, 1, 3, 0, 10, 0, 0, 0, 10, 3, 1, 3, 0, 0, 5, 10, 5, 1, 3, 5, 7, 0, 0, 2, 8, 6, 3, 0, 0, 7, 0, 3, 0, 4, 7, 1, 0, 9, 0, 7, 9, 2, 10, 2, 4, 0, 2, 5, 3, 0, 9, 4, 8, 7, 4, 7, 9, 10, 9, 0, 9, 4, 8, 0, 5, 10, 6, 1, 6, 7, 0, 4, 5, 0, 10, 0, 2, 6, 5, 10, 6, 0, 10, 0, 0, 0, 4, 7, 6, 10, 6, 10, 8, 6, 7, 0, 7, 0, 5, 1, 3, 4, 0, 0, 1, 4, 9, 5, 3, 7, 7, 5, 4, 5, 0, 10, 1, 0, 0, 5, 8, 2, 8, 9, 8, 8, 9, 8, 8, 4, 8, 10, 9, 0, 0, 7, 0, 7, 3, 0, 1, 7, 0, 0, 8, 0, 0, 7, 0, 1, 0, 7, 6, 0, 0, 0, 6, 6, 4, 9, 5, 0, 1, 5, 6, 0, 6, 1, 0, 5, 7, 0, 8, 9, 6, 10, 0, 2, 0, 8, 3, 10, 0, 10, 4, 10, 8, 3, 10, 7, 0, 2, 0, 4, 1, 3, 3, 0, 7, 8, 0, 4, 3, 0, 0, 4, 0, 0]);

suc = [
   {2, 3, 4},
   {17, 5, 6},
   {10, 11, 15},
   {18, 13, 7},
   {24, 49},
   {8, 43, 21},
   {9, 20, 14},
   {48, 12, 44},
   {56},
   {27},
   {37, 31},
   {26, 29},
   {16},
   {49},
   {19},
   {40, 25, 61},
   {28},
   {32, 22},
   {58, 23},
   {34},
   {55},
   {33, 27, 30},
   {36, 45},
   {51, 43},
   {41},
   {35},
   {29},
   {53},
   {39},
   {57},
   {59, 52},
   {42},
   {48},
   {51, 37},
   {52},
   {44, 38},
   {50},
   {52},
   {54},
   {45},
   {54},
   {49},
   {46},
   {47},
   {56},
   {53, 47},
   {60},
   {50, 51},
   {56, 50},
   {60},
   {58},
   {61},
   {58},
   {59},
   {57, 60},
   {57},
   {59},
   {61},
   {62},
   {62},
   {62},
   {  } ];

deadline = array2d(1..62, 1..3, [4, 5, 1, 5, 3, 2, 6, 1, 1, 8, 2, 4, 11, 2, 1, 15, 2, 1, 18, 3, 4, 18, 4, 1, 19, 3, 2, 20, 2, 2, 21, 1, 5, 24, 0, 5, 24, 2, 5, 28, 0, 4, 34, 4, 2, 37, 1, 5, 39, 4, 2, 42, 4, 5, 50, 1, 3, 50, 4, 5, 51, 2, 5, 54, 4, 5, 54, 4, 0, 54, 0, 0, 56, 1, 5, 63, 2, 0, 66, 5, 3, 66, 2, 4, 77, 4, 5, 77, 1, 3, 77, 4, 5, 81, 4, 4, 82, 4, 5, 87, 0, 4, 88, 3, 2, 90, 5, 4, 93, 3, 1, 98, 1, 1, 100, 5, 1, 101, 0, 0, 107, 1, 1, 108, 2, 4, 110, 1, 4, 112, 5, 0, 112, 2, 2, 112, 0, 4, 114, 2, 5, 119, 3, 0, 119, 5, 5, 120, 5, 4, 124, 0, 0, 128, 2, 5, 128, 0, 5, 131, 4, 2, 131, 1, 3, 137, 1, 5, 137, 5, 4, 138, 2, 0, 139, 1, 2, 143, 3, 2, 144, 3, 3, 146, 3, 2]);
