n_res = 4;
rc = [ 32, 35, 31, 24 ];
n_tasks = 62;
d = [0, 7, 8, 9, 3, 4, 8, 8, 5, 4, 9, 4, 6, 9, 1, 4, 2, 7, 5, 4, 4, 8, 4, 5, 5, 2, 4, 9, 8, 6, 4, 7, 10, 10, 1, 9, 4, 2, 8, 1, 5, 3, 4, 5, 9, 8, 3, 7, 8, 3, 8, 1, 3, 3, 1, 10, 4, 9, 8, 5, 9, 0];
rr = array2d(1..4, 1..62, [0, 10, 1, 2, 8, 4, 0, 0, 1, 7, 9, 8, 0, 9, 4, 0, 2, 6, 9, 8, 4, 0, 6, 8, 0, 3, 9, 3, 10, 6, 6, 4, 2, 0, 8, 6, 0, 4, 0, 3, 0, 7, 0, 5, 0, 2, 1, 0, 5, 3, 0, 3, 4, 7, 0, 1, 9, 10, 9, 10, 7, 0, 0, 3, 0, 8, 1, 3, 10, 9, 3, 5, 6, 8, 0, 0, 0, 2, 9, 9, 8, 0, 6, 0, 0, 0, 9, 9, 0, 2, 10, 3, 0, 4, 4, 2, 4, 8, 6, 7, 10, 6, 0, 0, 8, 5, 1, 0, 0, 3, 6, 8, 0, 3, 5, 5, 6, 4, 2, 8, 5, 0, 0, 0, 0, 2, 5, 0, 0, 9, 1, 9, 9, 0, 0, 10, 5, 8, 9, 8, 0, 9, 2, 5, 0, 4, 8, 9, 10, 9, 9, 8, 0, 10, 2, 10, 0, 7, 0, 3, 4, 5, 1, 3, 6, 8, 9, 5, 0, 10, 7, 1, 2, 9, 10, 9, 6, 2, 0, 5, 10, 8, 10, 3, 8, 0, 0, 9, 6, 6, 8, 7, 1, 10, 0, 5, 5, 1, 7, 3, 10, 1, 4, 0, 8, 0, 0, 1, 4, 3, 9, 5, 0, 3, 1, 6, 0, 2, 5, 0, 1, 0, 0, 5, 0, 0, 2, 0, 9, 0, 3, 5, 0, 4, 6, 0, 2, 1, 2, 3, 7, 0, 4, 1, 8, 3, 7, 0]);

suc = [
   {2, 3, 4},
   {8, 14, 30},
   {5, 14, 7},
   {19, 28, 44},
   {20, 6},
   {43, 13, 15},
   {9, 11, 22},
   {50, 12, 53},
   {10, 20, 23},
   {32, 33},
   {29, 30, 23},
   {51, 39, 23},
   {24, 17, 18},
   {16, 25, 22},
   {37, 21, 31},
   {59, 20, 54},
   {34, 36, 21},
   {35, 30},
   {35, 27},
   {61},
   {22, 55},
   {42, 27, 28},
   {26, 60, 38},
   {32, 25, 41},
   {45, 46, 31},
   {43},
   {59, 38},
   {48},
   {32, 50, 47},
   {33, 50, 37},
   {40, 49, 42},
   {48, 36, 37},
   {41, 42, 36},
   {53, 46, 47},
   {41},
   {46, 45, 38},
   {40, 44, 52},
   {40},
   {43, 44},
   {58},
   {49, 53},
   {48, 54, 47},
   {52},
   {57, 45, 55},
   {56},
   {49, 57},
   {61},
   {57},
   {51},
   {51},
   {59, 52, 54},
   {55},
   {60},
   {56, 60},
   {56},
   {58},
   {58},
   {61},
   {62},
   {62},
   {62},
   {  } ];

deadline = array2d(1..62, 1..3, [14, 0, 4, 17, 1, 0, 17, 2, 2, 18, 3, 1, 20, 1, 1, 21, 1, 1, 23, 2, 4, 29, 1, 1, 44, 1, 2, 46, 3, 0, 48, 4, 0, 48, 3, 4, 51, 2, 5, 56, 4, 0, 57, 0, 2, 58, 3, 2, 60, 3, 1, 61, 3, 5, 64, 1, 2, 77, 5, 3, 77, 5, 1, 78, 4, 2, 80, 1, 4, 82, 1, 2, 83, 0, 5, 89, 1, 2, 89, 0, 1, 110, 4, 3, 110, 2, 3, 117, 2, 3, 125, 2, 4, 127, 2, 3, 139, 3, 5, 140, 0, 2, 143, 3, 5, 147, 0, 1, 147, 2, 1, 150, 2, 4, 150, 1, 0, 159, 0, 2, 165, 2, 5, 167, 5, 1, 167, 0, 1, 174, 0, 5, 179, 4, 0, 195, 5, 0, 196, 1, 0, 205, 2, 5, 214, 2, 4, 220, 1, 4, 221, 5, 5, 222, 4, 3, 222, 5, 1, 226, 3, 4, 228, 5, 2, 230, 4, 5, 240, 1, 3, 244, 5, 0, 246, 1, 5, 247, 3, 0, 252, 1, 0, 257, 3, 3]);
