n_res = 4;
rc = [ 33, 45, 36, 37 ];
n_tasks = 62;
d = [0, 4, 2, 4, 6, 3, 6, 7, 2, 9, 3, 10, 5, 2, 3, 1, 2, 5, 5, 1, 9, 8, 5, 1, 2, 4, 7, 8, 7, 5, 3, 3, 9, 2, 10, 10, 6, 4, 3, 3, 1, 7, 1, 6, 6, 2, 9, 4, 7, 8, 9, 1, 9, 5, 4, 9, 4, 9, 2, 2, 5, 0];
rr = array2d(1..4, 1..62, [0, 8, 10, 5, 10, 6, 9, 1, 10, 2, 4, 6, 4, 9, 3, 8, 3, 9, 4, 3, 3, 4, 4, 6, 5, 3, 6, 9, 3, 1, 10, 2, 3, 7, 1, 8, 6, 3, 7, 10, 5, 3, 9, 5, 3, 4, 3, 1, 4, 8, 7, 6, 8, 3, 5, 10, 4, 7, 8, 1, 8, 0, 0, 3, 1, 8, 1, 2, 10, 2, 9, 6, 8, 2, 8, 10, 5, 3, 6, 8, 6, 9, 7, 9, 10, 10, 8, 9, 7, 9, 3, 8, 7, 3, 9, 3, 2, 10, 4, 5, 3, 6, 4, 9, 4, 7, 8, 3, 10, 6, 8, 5, 5, 2, 8, 5, 6, 10, 8, 5, 3, 7, 2, 0, 0, 1, 1, 6, 8, 3, 8, 5, 1, 2, 3, 9, 9, 8, 4, 5, 3, 6, 4, 9, 7, 1, 1, 7, 6, 8, 9, 4, 8, 5, 5, 8, 4, 3, 9, 3, 6, 5, 3, 5, 3, 5, 5, 10, 10, 7, 2, 9, 10, 3, 4, 7, 3, 4, 2, 4, 6, 8, 1, 6, 7, 0, 0, 7, 10, 5, 4, 5, 6, 3, 4, 1, 8, 1, 7, 10, 3, 6, 7, 7, 9, 4, 10, 1, 8, 7, 8, 5, 9, 7, 8, 4, 7, 4, 6, 1, 9, 6, 6, 3, 3, 5, 8, 9, 1, 7, 6, 7, 2, 3, 3, 2, 3, 3, 3, 1, 9, 10, 1, 2, 9, 10, 2, 0]);

suc = [
   {2, 3, 4},
   {28, 5, 7},
   {19},
   {8, 11, 6},
   {27, 13, 23},
   {16, 20, 30},
   {9, 12, 14},
   {17, 50, 21},
   {48, 33, 10},
   {32},
   {51},
   {26, 35, 15},
   {24, 39},
   {25, 18},
   {48, 19},
   {42, 53, 22},
   {38, 22, 23},
   {44, 55},
   {40, 45},
   {42, 54},
   {36},
   {48, 46},
   {59, 60, 37},
   {53},
   {56, 33, 29},
   {41},
   {40, 30},
   {40, 39},
   {43, 35, 44},
   {43, 44, 31},
   {32, 34},
   {42, 55, 47},
   {52},
   {49, 57},
   {37},
   {59},
   {55},
   {47},
   {57, 46},
   {53},
   {56, 50},
   {49, 45},
   {45, 46, 47},
   {49},
   {50},
   {52},
   {51},
   {58},
   {51, 60},
   {57},
   {52},
   {58},
   {59, 54},
   {56, 60},
   {61},
   {58},
   {61},
   {61},
   {62},
   {62},
   {62},
   {  } ];

deadline = array2d(1..62, 1..3, [1, 4, 2, 10, 4, 4, 13, 0, 3, 13, 2, 1, 14, 2, 0, 23, 3, 0, 25, 2, 3, 27, 1, 0, 27, 0, 1, 28, 1, 3, 30, 2, 0, 30, 1, 3, 34, 0, 4, 38, 1, 0, 38, 0, 1, 44, 2, 5, 47, 5, 5, 52, 5, 0, 52, 3, 3, 53, 0, 5, 58, 4, 5, 68, 1, 0, 68, 4, 2, 79, 2, 5, 80, 4, 2, 81, 1, 0, 82, 0, 5, 83, 2, 3, 95, 4, 5, 107, 2, 5, 107, 3, 4, 109, 5, 4, 111, 2, 2, 114, 3, 2, 117, 4, 2, 118, 2, 4, 120, 2, 2, 122, 4, 4, 128, 5, 4, 129, 4, 1, 130, 5, 3, 130, 3, 5, 131, 4, 0, 131, 1, 0, 131, 0, 3, 135, 5, 2, 135, 1, 0, 137, 2, 5, 138, 5, 2, 139, 0, 1, 139, 1, 1, 140, 1, 5, 140, 3, 5, 148, 2, 3, 150, 3, 0, 151, 4, 0, 154, 5, 4, 155, 3, 1, 164, 4, 4, 166, 2, 1, 166, 0, 3, 170, 3, 0]);
