n_res = 4;
rc = [ 41, 36, 37, 32 ];
n_tasks = 62;
d = [0, 10, 7, 8, 4, 8, 9, 3, 3, 10, 8, 4, 4, 6, 4, 3, 6, 6, 8, 6, 4, 9, 3, 10, 4, 3, 7, 1, 9, 6, 2, 3, 6, 6, 6, 8, 3, 4, 9, 9, 10, 6, 6, 3, 2, 4, 6, 4, 5, 1, 4, 9, 2, 10, 1, 10, 6, 5, 4, 9, 2, 0];
rr = array2d(1..4, 1..62, [0, 6, 6, 9, 8, 2, 5, 3, 0, 5, 6, 2, 9, 8, 6, 0, 10, 7, 1, 10, 10, 2, 7, 2, 7, 3, 0, 5, 0, 8, 1, 2, 0, 0, 5, 2, 0, 2, 6, 8, 7, 3, 0, 9, 7, 10, 2, 4, 8, 8, 3, 6, 9, 4, 4, 7, 4, 2, 10, 6, 1, 0, 0, 10, 4, 5, 7, 8, 7, 0, 3, 10, 3, 0, 1, 2, 7, 0, 7, 8, 2, 0, 3, 7, 6, 3, 0, 0, 0, 0, 5, 9, 0, 6, 2, 7, 10, 4, 10, 7, 5, 1, 6, 1, 7, 0, 4, 4, 8, 5, 0, 9, 1, 2, 3, 0, 1, 8, 0, 0, 4, 4, 5, 0, 0, 4, 4, 7, 0, 5, 0, 9, 1, 0, 9, 2, 4, 4, 7, 2, 9, 3, 7, 0, 10, 5, 9, 0, 6, 9, 0, 0, 6, 7, 4, 0, 7, 8, 1, 0, 10, 5, 0, 0, 6, 0, 8, 0, 3, 6, 9, 1, 9, 0, 9, 8, 7, 7, 0, 0, 7, 6, 10, 6, 6, 0, 0, 5, 1, 0, 3, 6, 0, 7, 0, 10, 7, 0, 0, 0, 10, 6, 2, 2, 10, 4, 0, 7, 3, 6, 0, 0, 1, 9, 0, 3, 9, 7, 10, 4, 3, 8, 0, 0, 7, 4, 0, 7, 6, 8, 5, 0, 0, 3, 0, 3, 1, 0, 1, 0, 0, 0, 1, 0, 9, 5, 9, 0]);

suc = [
   {2, 3, 4},
   {36, 21, 6},
   {8},
   {5, 30, 15},
   {32, 13, 39},
   {11, 7},
   {9, 34, 14},
   {17, 12, 23},
   {19, 10, 18},
   {25, 28, 22},
   {26, 29, 31},
   {48},
   {55},
   {16},
   {40, 20, 54},
   {35, 29},
   {28},
   {51, 44, 46},
   {27, 22},
   {43, 37, 46},
   {26, 39},
   {24, 33, 51},
   {24, 49, 50},
   {56},
   {30, 31},
   {53},
   {40},
   {54},
   {41, 37, 38},
   {42, 58},
   {41, 42, 43},
   {45},
   {50},
   {41, 57},
   {46, 52, 38},
   {60},
   {59, 45, 39},
   {57},
   {61},
   {42, 52},
   {48, 50, 51},
   {53, 47},
   {47},
   {57, 45, 54},
   {58},
   {55},
   {49},
   {49},
   {56},
   {60, 53, 55},
   {52},
   {59},
   {56},
   {59},
   {61},
   {61},
   {58},
   {60},
   {62},
   {62},
   {62},
   {  } ];

deadline = array2d(1..62, 1..3, [1, 3, 0, 8, 5, 3, 11, 2, 4, 19, 3, 2, 22, 5, 1, 23, 4, 1, 26, 5, 0, 32, 1, 1, 33, 1, 2, 40, 1, 0, 50, 0, 3, 53, 2, 1, 56, 4, 3, 57, 5, 4, 58, 1, 2, 58, 5, 0, 59, 1, 4, 60, 4, 2, 66, 3, 4, 66, 2, 1, 69, 5, 2, 70, 5, 0, 71, 1, 0, 71, 1, 5, 78, 2, 4, 91, 3, 1, 96, 3, 1, 98, 4, 2, 105, 0, 0, 105, 1, 2, 110, 5, 4, 113, 5, 4, 114, 5, 0, 117, 1, 5, 117, 5, 4, 120, 3, 0, 120, 3, 4, 121, 3, 2, 121, 3, 4, 124, 2, 4, 125, 3, 4, 125, 5, 4, 128, 3, 4, 135, 2, 0, 137, 2, 3, 147, 3, 1, 148, 4, 1, 151, 4, 4, 152, 3, 4, 161, 2, 4, 162, 4, 4, 163, 4, 5, 169, 2, 1, 172, 1, 5, 172, 3, 2, 181, 2, 2, 181, 3, 1, 188, 4, 2, 196, 2, 4, 199, 0, 3, 199, 4, 4, 202, 0, 3]);
