n_res = 4;
rc = [ 35, 22, 13, 25 ];
n_tasks = 62;
d = [0, 7, 1, 6, 3, 7, 6, 7, 5, 9, 9, 8, 2, 8, 1, 10, 6, 9, 7, 2, 9, 2, 7, 7, 10, 2, 10, 1, 5, 10, 2, 10, 6, 2, 6, 10, 5, 3, 4, 5, 1, 2, 9, 3, 6, 8, 10, 5, 7, 4, 3, 10, 6, 5, 1, 1, 5, 5, 5, 9, 9, 0];
rr = array2d(1..4, 1..62, [0, 0, 0, 0, 10, 7, 3, 0, 0, 0, 0, 10, 1, 0, 0, 0, 0, 0, 0, 0, 0, 0, 6, 0, 0, 0, 0, 8, 0, 0, 0, 6, 0, 0, 0, 0, 0, 0, 2, 0, 0, 0, 0, 4, 0, 0, 0, 0, 0, 0, 0, 1, 0, 0, 8, 0, 2, 2, 0, 0, 0, 0, 0, 0, 0, 0, 0, 0, 0, 2, 2, 0, 8, 0, 0, 0, 3, 0, 0, 0, 0, 0, 0, 4, 0, 0, 2, 2, 5, 0, 0, 3, 0, 0, 0, 4, 0, 6, 4, 0, 0, 0, 7, 0, 0, 0, 0, 4, 0, 0, 0, 0, 0, 0, 0, 0, 0, 0, 0, 0, 0, 8, 8, 0, 0, 0, 0, 0, 0, 0, 0, 0, 0, 0, 0, 0, 0, 0, 0, 0, 8, 0, 0, 5, 0, 0, 0, 3, 0, 0, 0, 0, 0, 0, 8, 0, 5, 0, 0, 0, 0, 2, 0, 0, 0, 0, 0, 0, 4, 0, 0, 7, 0, 9, 0, 0, 2, 0, 0, 7, 0, 0, 0, 0, 0, 0, 0, 5, 10, 6, 0, 0, 0, 0, 0, 3, 0, 0, 0, 1, 0, 10, 0, 1, 3, 0, 9, 0, 0, 0, 0, 0, 0, 0, 7, 0, 0, 0, 0, 0, 3, 0, 0, 0, 0, 3, 0, 10, 6, 0, 0, 0, 3, 0, 4, 0, 7, 0, 0, 6, 0, 0, 0, 0, 10, 0, 0, 0]);

suc = [
   {2, 3, 4},
   {8, 9, 7},
   {6, 7},
   {28, 12, 5},
   {40, 39},
   {32, 55},
   {16, 35, 20},
   {27, 11, 20},
   {17, 10, 22},
   {18, 45, 13},
   {24},
   {44, 46},
   {53, 21, 14},
   {26, 15},
   {48},
   {23},
   {26, 36, 31},
   {19, 39},
   {55},
   {33, 43, 30},
   {60, 29},
   {58, 37, 30},
   {54, 25, 46},
   {54},
   {33, 34},
   {29},
   {61},
   {32, 42},
   {56, 41},
   {60, 53},
   {54},
   {38},
   {47},
   {39},
   {36},
   {43, 44, 52},
   {48, 41, 52},
   {40, 51, 45},
   {41, 50, 55},
   {50, 47},
   {51},
   {49, 44},
   {49, 46},
   {47},
   {48, 57, 52},
   {57, 51, 53},
   {57, 61},
   {49},
   {50},
   {56},
   {59},
   {56},
   {61},
   {60},
   {58},
   {59},
   {58},
   {59},
   {62},
   {62},
   {62},
   {  } ];

deadline = array2d(1..62, 1..3, [1, 0, 3, 2, 4, 1, 4, 0, 3, 6, 2, 3, 8, 3, 2, 12, 5, 1, 16, 5, 3, 17, 1, 4, 26, 0, 2, 28, 2, 4, 30, 3, 2, 33, 1, 0, 34, 0, 1, 40, 0, 4, 40, 4, 3, 43, 3, 4, 43, 0, 4, 47, 3, 1, 50, 5, 0, 52, 1, 3, 52, 1, 5, 53, 0, 4, 55, 1, 2, 56, 4, 4, 57, 0, 4, 57, 5, 5, 58, 4, 5, 59, 0, 1, 62, 1, 5, 67, 0, 3, 71, 2, 0, 84, 3, 3, 86, 1, 0, 88, 4, 0, 89, 4, 5, 89, 4, 3, 92, 2, 5, 97, 4, 0, 111, 0, 0, 112, 0, 1, 120, 4, 0, 121, 5, 4, 122, 0, 5, 123, 2, 1, 126, 3, 3, 127, 4, 4, 136, 3, 4, 140, 3, 3, 141, 0, 0, 149, 1, 4, 151, 0, 3, 157, 2, 3, 157, 1, 2, 158, 3, 0, 163, 0, 5, 165, 2, 4, 165, 4, 3, 168, 5, 1, 170, 0, 1, 171, 1, 5, 171, 0, 0, 176, 3, 0]);
