n_res = 4;
rc = [ 22, 25, 24, 24 ];
n_tasks = 62;
d = [0, 5, 1, 7, 3, 8, 10, 1, 1, 5, 3, 5, 4, 6, 1, 5, 1, 2, 2, 8, 5, 10, 7, 4, 6, 7, 3, 4, 9, 4, 9, 6, 2, 5, 10, 4, 2, 3, 2, 6, 7, 7, 6, 3, 9, 2, 10, 7, 3, 8, 10, 6, 2, 3, 1, 2, 2, 9, 1, 3, 8, 0];
rr = array2d(1..4, 1..62, [0, 0, 0, 10, 7, 4, 0, 0, 9, 2, 7, 0, 0, 0, 0, 0, 0, 0, 6, 0, 0, 0, 7, 0, 3, 2, 0, 5, 2, 9, 1, 4, 9, 0, 0, 7, 4, 9, 10, 7, 0, 2, 10, 9, 0, 6, 0, 6, 7, 9, 7, 5, 0, 0, 1, 1, 4, 0, 5, 0, 0, 0, 0, 3, 9, 7, 8, 0, 5, 4, 4, 1, 8, 10, 0, 8, 0, 2, 6, 0, 0, 0, 6, 0, 4, 4, 0, 0, 0, 10, 0, 0, 6, 0, 0, 8, 0, 8, 5, 0, 1, 0, 2, 6, 0, 10, 5, 7, 9, 4, 10, 0, 0, 0, 2, 0, 0, 0, 0, 0, 7, 0, 0, 0, 0, 4, 0, 5, 0, 2, 3, 6, 0, 3, 0, 0, 9, 10, 1, 6, 0, 5, 0, 0, 5, 8, 0, 0, 0, 0, 8, 0, 6, 6, 0, 0, 10, 0, 9, 0, 3, 5, 5, 9, 0, 0, 0, 0, 0, 0, 5, 6, 0, 0, 0, 0, 0, 5, 0, 0, 0, 0, 8, 6, 8, 0, 0, 0, 9, 9, 0, 0, 0, 5, 0, 0, 8, 0, 0, 1, 0, 10, 0, 2, 0, 1, 7, 7, 0, 9, 7, 8, 9, 0, 5, 0, 4, 2, 0, 6, 7, 0, 0, 0, 7, 0, 0, 0, 7, 0, 0, 0, 0, 0, 2, 0, 0, 0, 0, 0, 0, 1, 8, 2, 9, 10, 0, 0]);

suc = [
   {2, 3, 4},
   {35, 5, 23},
   {15},
   {8, 10, 20},
   {21, 6, 7},
   {12, 22, 36},
   {9, 14},
   {17, 11, 25},
   {16, 20, 61},
   {16, 33, 18},
   {33, 13, 46},
   {19, 37},
   {32, 19, 28},
   {28, 30, 52},
   {34, 22, 39},
   {38, 47},
   {26, 42, 52},
   {24, 40, 29},
   {51, 44, 38},
   {59, 44},
   {27, 44, 45},
   {43, 27, 54},
   {40, 25},
   {25, 27, 39},
   {34, 43, 36},
   {57, 28, 31},
   {41, 47},
   {29},
   {34, 36, 60},
   {32, 53, 37},
   {48, 35, 46},
   {49, 45, 47},
   {35, 38, 39},
   {37},
   {49, 51},
   {48},
   {48, 51},
   {41, 43, 45},
   {42, 59, 50},
   {41, 42, 46},
   {49, 53, 55},
   {54},
   {52},
   {50, 54},
   {56},
   {55},
   {56, 50},
   {61},
   {60},
   {57},
   {61},
   {53, 55},
   {56},
   {58},
   {58, 59},
   {57},
   {58},
   {60},
   {62},
   {62},
   {62},
   {  } ];

deadline = array2d(1..62, 1..3, [5, 0, 0, 8, 0, 4, 8, 1, 5, 10, 2, 4, 11, 2, 0, 14, 2, 2, 15, 5, 1, 16, 5, 0, 24, 0, 1, 24, 2, 2, 34, 4, 4, 36, 5, 2, 38, 3, 5, 41, 1, 2, 43, 2, 3, 45, 2, 2, 47, 3, 2, 48, 0, 4, 49, 2, 0, 57, 5, 5, 60, 5, 0, 68, 5, 1, 69, 2, 0, 69, 0, 1, 74, 4, 1, 75, 4, 2, 76, 1, 3, 76, 0, 3, 83, 0, 4, 83, 0, 3, 84, 5, 3, 87, 4, 4, 90, 3, 0, 95, 4, 4, 98, 3, 5, 98, 2, 2, 101, 5, 0, 103, 3, 0, 104, 2, 2, 107, 3, 3, 107, 1, 5, 116, 4, 3, 117, 1, 0, 120, 1, 0, 121, 3, 2, 123, 3, 3, 123, 5, 5, 125, 3, 3, 133, 4, 1, 135, 0, 2, 135, 0, 1, 135, 4, 1, 141, 2, 1, 144, 3, 1, 147, 4, 1, 148, 0, 3, 149, 0, 4, 150, 4, 0, 153, 0, 2, 153, 0, 1, 157, 1, 4, 160, 1, 5]);
