n_res = 4;
rc = [ 30, 26, 32, 24 ];
n_tasks = 62;
d = [0, 4, 1, 3, 6, 5, 7, 8, 4, 8, 6, 1, 5, 2, 9, 10, 9, 7, 6, 2, 4, 9, 10, 8, 9, 9, 10, 8, 7, 3, 8, 1, 4, 10, 1, 10, 4, 6, 3, 7, 5, 7, 9, 3, 7, 10, 2, 3, 5, 1, 2, 4, 5, 8, 10, 7, 1, 2, 1, 10, 9, 0];
rr = array2d(1..4, 1..62, [0, 6, 4, 7, 2, 9, 0, 2, 0, 6, 10, 1, 9, 10, 0, 0, 2, 0, 1, 2, 5, 9, 4, 2, 10, 10, 10, 5, 0, 8, 0, 1, 0, 0, 0, 8, 0, 0, 3, 0, 7, 8, 7, 6, 1, 0, 6, 2, 9, 9, 10, 8, 4, 0, 0, 0, 0, 3, 0, 10, 0, 0, 0, 1, 2, 0, 6, 10, 8, 1, 10, 4, 3, 10, 0, 7, 2, 0, 8, 0, 0, 0, 10, 4, 9, 10, 3, 4, 1, 2, 0, 8, 6, 4, 6, 9, 1, 8, 7, 10, 10, 3, 9, 10, 4, 7, 1, 4, 0, 2, 0, 8, 10, 1, 1, 6, 3, 4, 0, 0, 6, 4, 2, 0, 0, 1, 2, 0, 8, 1, 5, 5, 6, 9, 8, 10, 9, 10, 8, 8, 4, 5, 0, 9, 6, 1, 10, 0, 5, 7, 0, 0, 5, 6, 2, 0, 3, 1, 6, 0, 0, 5, 10, 0, 2, 0, 0, 9, 0, 5, 3, 2, 3, 6, 1, 2, 10, 5, 8, 0, 6, 2, 10, 0, 6, 0, 0, 6, 10, 1, 1, 7, 1, 7, 1, 5, 0, 8, 8, 4, 0, 2, 0, 10, 7, 1, 0, 8, 2, 8, 10, 0, 0, 6, 10, 0, 0, 10, 6, 4, 4, 7, 6, 4, 1, 6, 7, 0, 1, 7, 2, 0, 8, 0, 6, 5, 3, 8, 4, 1, 0, 7, 1, 3, 2, 0, 0, 0]);

suc = [
   {2, 3, 4},
   {9, 5, 7},
   {53, 13, 6},
   {27, 39},
   {8, 30},
   {11, 12},
   {10},
   {18},
   {49},
   {24, 26, 32},
   {51, 14, 15},
   {24, 22, 23},
   {49, 42, 43},
   {25, 20, 21},
   {16, 19},
   {17, 33},
   {35, 28},
   {48, 41, 37},
   {48, 34},
   {57, 61, 31},
   {50, 55},
   {26, 50, 47},
   {38},
   {59, 29},
   {29, 39},
   {28, 46},
   {48, 41, 38},
   {30, 55},
   {33},
   {34, 60},
   {40, 43},
   {33, 52},
   {47},
   {45, 38},
   {36, 39},
   {42, 45},
   {44, 46},
   {40},
   {40},
   {52},
   {43, 44, 54},
   {61, 46},
   {45, 47},
   {51},
   {58},
   {52},
   {60},
   {55},
   {58, 51},
   {56},
   {56, 61},
   {54},
   {56, 60, 54},
   {58},
   {57},
   {57},
   {59},
   {59},
   {62},
   {62},
   {62},
   {  } ];

deadline = array2d(1..62, 1..3, [11, 3, 1, 15, 5, 3, 16, 4, 4, 22, 5, 0, 24, 0, 5, 25, 0, 4, 26, 1, 4, 30, 5, 0, 32, 4, 2, 33, 5, 1, 33, 1, 5, 35, 0, 5, 36, 5, 0, 41, 1, 3, 44, 0, 2, 50, 2, 0, 50, 5, 3, 54, 2, 4, 61, 4, 3, 65, 0, 1, 74, 2, 3, 77, 1, 5, 81, 3, 4, 86, 4, 4, 89, 0, 2, 91, 0, 0, 96, 1, 1, 98, 1, 5, 106, 2, 3, 106, 3, 4, 110, 4, 1, 118, 1, 2, 128, 5, 5, 128, 5, 1, 131, 3, 1, 131, 3, 0, 134, 4, 1, 135, 0, 2, 145, 3, 2, 145, 1, 2, 145, 3, 1, 148, 1, 4, 152, 5, 3, 167, 0, 4, 167, 2, 0, 168, 2, 4, 170, 3, 3, 176, 0, 0, 178, 2, 0, 180, 3, 4, 183, 1, 2, 184, 3, 3, 184, 1, 0, 185, 2, 5, 186, 5, 0, 187, 0, 1, 188, 2, 5, 196, 0, 1, 200, 5, 1, 201, 2, 1, 204, 4, 2, 210, 1, 3]);
