n_res = 4;
rc = [ 43, 39, 42, 33 ];
n_tasks = 62;
d = [0, 10, 1, 10, 10, 1, 4, 4, 4, 8, 5, 8, 10, 2, 1, 6, 3, 8, 10, 4, 10, 5, 9, 8, 3, 8, 1, 8, 1, 4, 2, 7, 2, 5, 10, 4, 9, 1, 9, 10, 10, 3, 6, 1, 7, 3, 9, 5, 4, 10, 9, 3, 7, 6, 6, 9, 1, 7, 7, 8, 2, 0];
rr = array2d(1..4, 1..62, [0, 6, 9, 9, 0, 0, 2, 2, 1, 7, 0, 2, 0, 0, 0, 5, 8, 6, 5, 10, 0, 4, 0, 10, 9, 9, 0, 1, 3, 3, 5, 4, 4, 4, 10, 7, 10, 7, 0, 8, 1, 0, 7, 0, 8, 5, 2, 0, 0, 3, 0, 6, 1, 0, 7, 2, 1, 6, 1, 10, 8, 0, 0, 1, 5, 8, 2, 0, 0, 0, 2, 4, 5, 4, 1, 9, 0, 0, 0, 3, 1, 7, 8, 7, 8, 0, 2, 4, 3, 4, 6, 0, 10, 9, 3, 8, 2, 6, 1, 0, 10, 9, 7, 5, 5, 10, 0, 2, 4, 7, 2, 8, 9, 5, 4, 9, 5, 6, 7, 5, 7, 4, 5, 0, 0, 0, 0, 4, 9, 3, 6, 9, 6, 3, 6, 4, 0, 8, 9, 2, 0, 9, 4, 0, 0, 1, 10, 0, 3, 6, 0, 9, 0, 2, 6, 9, 9, 0, 0, 2, 4, 10, 0, 0, 7, 0, 9, 7, 0, 0, 0, 3, 0, 4, 7, 8, 0, 10, 10, 9, 5, 7, 5, 5, 2, 0, 0, 10, 0, 7, 5, 6, 1, 0, 6, 6, 0, 0, 2, 0, 8, 0, 0, 10, 2, 0, 3, 2, 1, 3, 1, 3, 6, 4, 3, 0, 8, 4, 1, 0, 5, 6, 3, 7, 0, 2, 9, 7, 0, 1, 1, 8, 8, 8, 1, 1, 6, 4, 8, 2, 6, 6, 0, 10, 6, 0, 9, 0]);

suc = [
   {2, 3, 4},
   {11, 12},
   {13, 5, 7},
   {17, 18, 6},
   {41, 34, 23},
   {9, 10, 45},
   {8, 40, 60},
   {14},
   {16, 48, 13},
   {34, 19},
   {32, 35, 55},
   {33, 37, 21},
   {47},
   {26, 30, 15},
   {37, 39},
   {20, 29},
   {25, 47},
   {25, 27, 46},
   {24, 43, 31},
   {22},
   {51, 36},
   {52},
   {28, 54},
   {51, 38},
   {41, 53},
   {49, 50, 28},
   {58, 31},
   {48},
   {32, 41, 37},
   {45, 38},
   {36},
   {54},
   {34, 44},
   {38},
   {57, 42, 47},
   {48},
   {50},
   {49},
   {59, 42, 43},
   {56, 49, 43},
   {42, 51, 50},
   {44, 54},
   {44},
   {61},
   {57},
   {53},
   {60},
   {56},
   {55},
   {57},
   {56, 52, 55},
   {58},
   {58},
   {61},
   {61},
   {59},
   {59},
   {60},
   {62},
   {62},
   {62},
   {  } ];

deadline = array2d(1..62, 1..3, [6, 0, 0, 18, 4, 3, 24, 1, 2, 24, 0, 3, 24, 2, 3, 29, 2, 3, 29, 3, 2, 30, 5, 0, 31, 2, 4, 32, 0, 0, 39, 1, 5, 40, 1, 1, 43, 4, 1, 44, 3, 5, 46, 1, 3, 47, 0, 0, 47, 5, 3, 48, 5, 4, 49, 0, 1, 56, 5, 5, 57, 3, 3, 66, 0, 4, 70, 1, 4, 71, 1, 0, 71, 5, 4, 73, 3, 0, 74, 0, 1, 74, 3, 2, 85, 0, 0, 85, 3, 1, 85, 3, 1, 88, 3, 2, 90, 5, 1, 93, 4, 3, 93, 1, 3, 96, 2, 3, 100, 2, 5, 101, 1, 4, 106, 5, 0, 108, 5, 3, 112, 4, 0, 113, 1, 0, 114, 3, 4, 114, 4, 1, 117, 0, 2, 120, 5, 5, 122, 4, 5, 123, 5, 4, 124, 1, 0, 128, 2, 3, 133, 0, 4, 134, 0, 0, 136, 1, 3, 136, 2, 2, 136, 1, 2, 144, 1, 5, 144, 5, 5, 150, 3, 3, 150, 4, 1, 154, 3, 4, 156, 1, 1, 159, 4, 2]);
