n_res = 4;
rc = [ 13, 15, 15, 14 ];
n_tasks = 62;
d = [0, 3, 5, 8, 5, 7, 1, 8, 2, 3, 7, 9, 8, 10, 1, 7, 4, 3, 2, 7, 6, 8, 3, 7, 7, 7, 5, 4, 1, 5, 2, 6, 10, 3, 1, 6, 2, 8, 7, 1, 1, 2, 4, 7, 4, 3, 3, 7, 4, 1, 7, 3, 1, 9, 8, 3, 9, 3, 1, 10, 7, 0];
rr = array2d(1..4, 1..62, [0, 7, 0, 8, 2, 0, 0, 0, 1, 0, 0, 0, 0, 9, 5, 0, 3, 8, 0, 5, 0, 0, 0, 3, 0, 0, 5, 10, 0, 0, 4, 10, 0, 4, 7, 0, 0, 7, 10, 8, 0, 0, 0, 0, 0, 5, 6, 9, 0, 2, 4, 3, 0, 0, 0, 0, 1, 0, 0, 0, 0, 0, 0, 0, 0, 0, 0, 10, 0, 2, 0, 10, 2, 0, 7, 0, 0, 6, 4, 10, 0, 8, 0, 0, 0, 0, 4, 0, 6, 0, 10, 4, 8, 4, 0, 10, 0, 6, 1, 0, 0, 8, 1, 0, 3, 0, 0, 0, 10, 0, 0, 0, 0, 0, 3, 7, 0, 0, 0, 8, 2, 2, 6, 0, 0, 0, 10, 7, 0, 10, 4, 0, 0, 0, 10, 4, 10, 0, 5, 8, 0, 1, 0, 0, 0, 0, 6, 0, 0, 3, 5, 0, 8, 0, 4, 2, 7, 0, 0, 2, 3, 0, 10, 0, 5, 0, 0, 2, 3, 10, 10, 0, 9, 0, 5, 0, 0, 0, 4, 0, 0, 0, 0, 0, 6, 0, 0, 0, 6, 0, 2, 0, 1, 5, 0, 0, 5, 4, 2, 0, 0, 0, 0, 9, 3, 4, 9, 4, 0, 0, 10, 6, 0, 3, 0, 6, 3, 0, 5, 0, 5, 0, 0, 10, 0, 5, 8, 8, 0, 0, 2, 10, 0, 4, 6, 8, 1, 10, 8, 0, 6, 2, 3, 8, 1, 2, 6, 0]);

suc = [
   {2, 3, 4},
   {9, 11, 5},
   {32, 29, 6},
   {33, 21, 13},
   {12, 22},
   {16, 17, 7},
   {8, 10, 23},
   {36, 14},
   {48},
   {60},
   {33},
   {14},
   {19, 15},
   {27, 30},
   {40, 20, 23},
   {46, 37, 22},
   {49, 18, 39},
   {27, 31},
   {34, 27},
   {22, 47},
   {41},
   {43, 45},
   {24, 28, 54},
   {25, 26, 31},
   {57, 43},
   {44, 45, 55},
   {53, 37, 46},
   {39},
   {38},
   {49, 35, 38},
   {43},
   {52},
   {35},
   {42, 59},
   {53},
   {50, 37, 38},
   {40, 54},
   {54},
   {48, 51},
   {41, 45, 47},
   {42, 51, 55},
   {52},
   {44},
   {48, 53},
   {56, 51},
   {56, 50},
   {58},
   {50},
   {58},
   {61},
   {61},
   {56},
   {59},
   {60},
   {57, 59},
   {57, 58},
   {61},
   {60},
   {62},
   {62},
   {62},
   {  } ];

deadline = array2d(1..62, 1..3, [1, 0, 5, 2, 0, 5, 2, 4, 2, 4, 0, 1, 6, 5, 2, 12, 0, 2, 21, 0, 5, 26, 2, 2, 27, 3, 0, 29, 5, 4, 30, 4, 0, 32, 0, 5, 35, 4, 2, 37, 5, 0, 38, 1, 5, 42, 3, 5, 44, 4, 5, 45, 5, 0, 46, 2, 5, 46, 4, 5, 48, 5, 0, 49, 0, 2, 50, 4, 2, 51, 1, 0, 53, 3, 5, 56, 4, 5, 59, 5, 0, 59, 2, 1, 60, 4, 2, 60, 3, 1, 62, 0, 1, 67, 1, 3, 69, 4, 3, 70, 0, 2, 70, 2, 3, 76, 4, 2, 76, 4, 1, 82, 3, 3, 83, 2, 2, 103, 2, 0, 103, 3, 2, 104, 1, 1, 113, 3, 0, 114, 1, 1, 115, 5, 0, 117, 0, 1, 117, 0, 4, 118, 3, 1, 119, 3, 1, 119, 3, 3, 125, 1, 1, 126, 3, 2, 131, 1, 2, 133, 2, 1, 134, 2, 5, 136, 1, 5, 137, 1, 5, 145, 5, 1, 147, 0, 5, 153, 5, 5, 157, 5, 2, 159, 5, 0]);
