n_res = 4;
rc = [ 16, 18, 17, 19 ];
n_tasks = 62;
d = [0, 8, 10, 5, 9, 4, 6, 2, 5, 6, 7, 9, 7, 5, 7, 2, 1, 6, 4, 10, 9, 4, 10, 9, 2, 3, 2, 9, 5, 4, 2, 1, 4, 9, 10, 9, 9, 7, 7, 6, 4, 1, 5, 4, 5, 2, 2, 9, 5, 7, 5, 1, 10, 6, 5, 4, 4, 2, 5, 1, 8, 0];
rr = array2d(1..4, 1..62, [0, 7, 0, 0, 2, 9, 2, 2, 0, 0, 3, 7, 7, 0, 3, 6, 6, 9, 7, 10, 1, 0, 1, 0, 1, 0, 4, 8, 6, 3, 10, 4, 9, 0, 0, 4, 6, 8, 10, 0, 5, 7, 1, 2, 3, 10, 5, 7, 0, 1, 3, 3, 0, 4, 8, 8, 5, 0, 9, 9, 0, 0, 0, 0, 0, 2, 3, 7, 2, 1, 6, 3, 0, 3, 7, 3, 1, 8, 4, 0, 0, 7, 0, 5, 2, 0, 0, 2, 9, 9, 10, 0, 4, 5, 0, 10, 4, 1, 9, 0, 4, 8, 6, 1, 10, 6, 10, 7, 6, 1, 5, 3, 9, 10, 7, 7, 10, 6, 8, 3, 1, 0, 7, 0, 0, 0, 9, 5, 0, 10, 0, 10, 0, 8, 0, 2, 3, 8, 6, 6, 4, 0, 4, 0, 1, 2, 8, 10, 7, 2, 0, 8, 5, 4, 2, 0, 5, 6, 3, 5, 6, 2, 0, 0, 0, 9, 9, 1, 8, 9, 0, 9, 9, 9, 9, 10, 5, 0, 0, 2, 7, 0, 6, 4, 6, 0, 0, 2, 0, 2, 2, 2, 0, 8, 9, 2, 10, 7, 9, 7, 1, 9, 4, 0, 9, 6, 1, 9, 1, 1, 6, 9, 6, 0, 8, 0, 0, 0, 10, 10, 0, 9, 4, 6, 6, 0, 0, 9, 8, 7, 10, 0, 0, 0, 7, 1, 5, 8, 8, 3, 6, 0, 0, 5, 10, 0, 6, 0]);

suc = [
   {2, 3, 4},
   {16, 19, 5},
   {8, 19, 6},
   {26, 15, 7},
   {39, 21, 23},
   {10, 12, 42},
   {56, 43, 14},
   {9, 11, 13},
   {25, 50, 14},
   {17, 20, 25},
   {50, 29},
   {32, 40},
   {16, 43, 22},
   {55},
   {38, 22, 23},
   {32, 30, 31},
   {18, 37, 30},
   {26, 36, 21},
   {41, 21, 39},
   {24, 28, 38},
   {48, 34, 31},
   {34, 36, 60},
   {42, 29},
   {49, 27, 36},
   {54},
   {33, 41},
   {40, 37, 46},
   {41, 31},
   {58, 51},
   {33, 34, 45},
   {47},
   {37},
   {46, 35, 38},
   {35, 47},
   {44, 53},
   {44, 53},
   {47},
   {40, 49},
   {42, 43, 60},
   {57, 44},
   {49, 45, 46},
   {57},
   {57},
   {50, 51},
   {48, 52, 53},
   {48, 52},
   {58, 55},
   {51, 61},
   {52, 61},
   {54},
   {56},
   {60, 54},
   {55},
   {56, 58},
   {61},
   {59},
   {59},
   {59},
   {62},
   {62},
   {62},
   {  } ];

deadline = array2d(1..62, 1..3, [9, 4, 0, 10, 2, 5, 12, 2, 5, 12, 5, 5, 14, 4, 3, 19, 1, 3, 20, 5, 4, 26, 4, 3, 27, 2, 3, 27, 3, 0, 27, 4, 5, 40, 2, 2, 43, 1, 4, 44, 3, 3, 49, 2, 1, 51, 2, 5, 54, 3, 5, 56, 1, 5, 62, 0, 4, 65, 1, 2, 72, 4, 4, 75, 2, 2, 81, 4, 3, 82, 1, 1, 82, 2, 5, 83, 3, 4, 90, 2, 1, 91, 5, 5, 97, 1, 3, 98, 2, 2, 103, 5, 3, 112, 0, 2, 118, 2, 2, 118, 2, 5, 120, 5, 0, 122, 2, 3, 130, 0, 0, 130, 5, 2, 132, 2, 3, 139, 2, 1, 145, 3, 3, 149, 4, 0, 150, 5, 2, 151, 0, 2, 151, 1, 2, 158, 2, 0, 159, 2, 5, 162, 5, 0, 164, 0, 2, 168, 1, 0, 170, 1, 4, 170, 4, 2, 171, 1, 2, 174, 2, 1, 175, 0, 2, 176, 3, 3, 179, 0, 2, 184, 4, 0, 189, 4, 5, 191, 1, 5, 194, 0, 2, 200, 3, 3]);
