n_res = 4;
rc = [ 55, 49, 38, 34 ];
n_tasks = 62;
d = [0, 7, 9, 6, 7, 8, 3, 2, 5, 1, 6, 1, 2, 7, 10, 8, 4, 7, 8, 4, 7, 9, 4, 9, 8, 8, 6, 9, 3, 1, 8, 10, 9, 8, 10, 4, 8, 7, 7, 2, 2, 9, 7, 4, 8, 4, 5, 2, 9, 2, 4, 4, 10, 6, 9, 5, 4, 5, 4, 3, 2, 0];
rr = array2d(1..4, 1..62, [0, 0, 0, 0, 7, 5, 7, 3, 0, 0, 0, 5, 10, 0, 6, 10, 6, 5, 0, 7, 3, 0, 0, 7, 5, 0, 6, 0, 2, 0, 0, 9, 2, 4, 3, 1, 5, 7, 3, 0, 0, 0, 7, 0, 5, 8, 5, 0, 3, 9, 3, 0, 0, 0, 6, 0, 5, 5, 0, 7, 6, 0, 0, 0, 2, 0, 0, 10, 0, 6, 0, 0, 9, 0, 0, 0, 7, 10, 1, 0, 0, 10, 0, 10, 7, 0, 5, 0, 5, 0, 4, 10, 5, 0, 4, 7, 4, 10, 4, 6, 8, 0, 9, 6, 0, 0, 6, 0, 0, 0, 0, 0, 0, 0, 0, 0, 0, 0, 5, 0, 9, 0, 0, 0, 0, 2, 0, 4, 7, 6, 9, 8, 5, 5, 10, 8, 0, 0, 0, 0, 0, 0, 0, 6, 0, 0, 0, 0, 4, 4, 0, 0, 0, 0, 0, 0, 0, 9, 0, 0, 3, 6, 0, 0, 7, 9, 7, 1, 0, 10, 1, 7, 0, 0, 0, 0, 4, 0, 2, 0, 0, 0, 0, 5, 0, 0, 0, 2, 0, 5, 7, 0, 0, 8, 3, 4, 3, 0, 0, 2, 0, 9, 0, 0, 4, 0, 9, 0, 0, 0, 5, 0, 7, 3, 0, 5, 0, 7, 1, 9, 0, 0, 0, 0, 3, 6, 0, 1, 0, 0, 9, 0, 3, 0, 8, 2, 0, 1, 5, 2, 5, 9, 0, 5, 0, 10, 0, 0]);

suc = [
   {2, 3, 4},
   {40, 12, 5},
   {27, 11, 6},
   {43},
   {8, 9, 7},
   {10, 15},
   {10, 22},
   {17, 59, 45},
   {35, 21, 38},
   {16, 13},
   {25},
   {20, 13, 30},
   {34, 60, 14},
   {19, 37, 23},
   {28, 39},
   {18, 20},
   {48, 61, 39},
   {26},
   {42},
   {41, 51, 36},
   {24, 29, 31},
   {59},
   {44},
   {28},
   {36},
   {33, 53},
   {36},
   {56},
   {54},
   {54},
   {32, 54},
   {34},
   {47},
   {52},
   {43},
   {56},
   {55},
   {58},
   {46},
   {52},
   {49},
   {50},
   {50, 47},
   {61},
   {52},
   {51},
   {60},
   {57},
   {50},
   {55},
   {57},
   {58},
   {57},
   {58},
   {56},
   {59},
   {60},
   {61},
   {62},
   {62},
   {62},
   {  } ];

deadline = array2d(1..62, 1..3, [1, 2, 0, 3, 4, 4, 9, 0, 3, 14, 5, 3, 17, 0, 4, 24, 3, 1, 26, 0, 4, 26, 3, 4, 27, 3, 4, 27, 5, 3, 32, 4, 2, 35, 2, 2, 36, 3, 2, 38, 5, 5, 39, 1, 3, 42, 3, 2, 45, 4, 0, 48, 0, 4, 52, 4, 5, 54, 5, 1, 57, 0, 4, 57, 1, 2, 58, 5, 1, 64, 4, 3, 64, 1, 3, 65, 1, 1, 70, 3, 2, 80, 5, 1, 81, 2, 4, 82, 4, 3, 87, 4, 0, 92, 4, 1, 96, 5, 4, 96, 1, 2, 103, 5, 0, 105, 5, 1, 107, 5, 3, 110, 1, 2, 111, 3, 3, 112, 4, 3, 114, 5, 0, 114, 5, 4, 114, 1, 2, 120, 0, 4, 120, 2, 4, 122, 5, 0, 123, 1, 4, 125, 4, 2, 128, 1, 3, 134, 3, 1, 134, 0, 4, 136, 1, 2, 141, 0, 0, 141, 3, 2, 145, 5, 5, 146, 1, 4, 146, 2, 1, 147, 1, 5, 149, 5, 4, 151, 1, 4, 154, 4, 3, 157, 3, 5]);
