n_res = 4;
rc = [ 37, 32, 40, 31 ];
n_tasks = 62;
d = [0, 5, 10, 8, 4, 1, 3, 10, 7, 9, 1, 8, 2, 5, 2, 7, 5, 8, 4, 4, 6, 5, 5, 1, 3, 5, 3, 8, 1, 7, 9, 5, 8, 2, 1, 5, 10, 5, 9, 2, 1, 9, 10, 1, 7, 3, 8, 5, 10, 2, 4, 6, 6, 6, 5, 2, 9, 5, 9, 1, 7, 0];
rr = array2d(1..4, 1..62, [0, 10, 0, 4, 9, 7, 1, 4, 0, 3, 0, 5, 5, 0, 0, 0, 6, 6, 10, 8, 5, 8, 10, 0, 2, 5, 4, 1, 2, 3, 9, 6, 10, 9, 0, 9, 4, 0, 8, 4, 5, 3, 1, 7, 0, 1, 9, 5, 6, 4, 7, 10, 3, 10, 6, 10, 4, 0, 10, 0, 7, 0, 0, 5, 7, 0, 0, 1, 0, 5, 8, 7, 7, 2, 1, 10, 2, 6, 0, 8, 10, 2, 4, 4, 2, 6, 8, 4, 2, 1, 1, 0, 10, 0, 1, 0, 0, 9, 0, 10, 7, 0, 3, 3, 6, 0, 0, 2, 10, 5, 10, 3, 0, 4, 3, 4, 7, 1, 4, 4, 4, 9, 0, 0, 0, 6, 0, 6, 5, 5, 8, 9, 2, 7, 10, 9, 0, 0, 5, 9, 6, 0, 10, 5, 6, 0, 6, 2, 0, 9, 4, 3, 1, 6, 0, 10, 10, 6, 1, 0, 0, 0, 5, 0, 4, 2, 0, 0, 0, 8, 9, 0, 0, 7, 0, 8, 10, 4, 1, 6, 9, 8, 2, 7, 10, 0, 0, 8, 5, 9, 6, 4, 5, 2, 9, 8, 0, 0, 6, 3, 0, 0, 3, 1, 5, 0, 7, 2, 4, 9, 8, 1, 0, 9, 3, 7, 0, 6, 7, 0, 8, 0, 0, 2, 10, 4, 2, 10, 7, 8, 4, 0, 2, 0, 0, 3, 0, 0, 4, 0, 4, 10, 8, 10, 3, 10, 7, 0]);

suc = [
   {2, 3, 4},
   {25},
   {41, 34},
   {5, 6, 7},
   {32, 17, 21},
   {8, 10, 20},
   {9, 41},
   {11, 14, 23},
   {12, 13, 22},
   {18, 46},
   {39, 15},
   {49},
   {16, 26, 30},
   {24, 40, 28},
   {19, 54},
   {55},
   {35, 46},
   {52},
   {44},
   {33, 27},
   {36},
   {29},
   {42},
   {34},
   {51},
   {48, 36},
   {53},
   {43, 31},
   {42},
   {38},
   {47},
   {34},
   {48, 37},
   {58},
   {58},
   {56},
   {40, 60},
   {56, 44},
   {46},
   {59},
   {42},
   {50, 54},
   {45},
   {45},
   {51},
   {50},
   {58, 52, 55},
   {50},
   {59},
   {61},
   {61},
   {56, 60},
   {57},
   {55},
   {57},
   {57},
   {61},
   {59},
   {62},
   {62},
   {62},
   {  } ];

deadline = array2d(1..62, 1..3, [6, 0, 4, 13, 0, 5, 14, 1, 0, 16, 4, 3, 28, 1, 3, 33, 4, 2, 38, 1, 3, 42, 4, 0, 42, 2, 1, 44, 0, 5, 45, 3, 4, 45, 3, 0, 54, 3, 0, 57, 3, 3, 64, 1, 1, 64, 2, 2, 65, 4, 5, 65, 5, 2, 67, 1, 0, 73, 2, 4, 76, 5, 5, 87, 5, 5, 89, 1, 5, 97, 1, 1, 99, 4, 5, 100, 0, 1, 103, 0, 2, 104, 2, 4, 106, 4, 2, 107, 1, 5, 108, 2, 2, 111, 1, 0, 112, 5, 2, 118, 3, 1, 119, 4, 5, 121, 5, 4, 121, 2, 5, 123, 2, 4, 123, 5, 2, 129, 4, 3, 129, 4, 0, 130, 2, 2, 134, 3, 1, 138, 4, 0, 139, 2, 3, 143, 4, 1, 143, 1, 4, 143, 3, 1, 146, 0, 4, 147, 1, 2, 154, 2, 1, 158, 2, 4, 162, 3, 0, 163, 4, 4, 168, 2, 3, 170, 2, 2, 172, 5, 3, 173, 4, 1, 173, 0, 3, 174, 2, 1, 178, 2, 5, 182, 1, 1]);
