n_res = 4;
rc = [ 49, 41, 43, 34 ];
n_tasks = 62;
d = [0, 6, 1, 8, 5, 1, 10, 7, 10, 9, 1, 1, 7, 9, 7, 1, 10, 3, 5, 5, 1, 10, 10, 8, 4, 8, 10, 5, 6, 1, 6, 2, 8, 10, 4, 3, 5, 1, 8, 8, 4, 8, 2, 4, 1, 3, 3, 6, 10, 5, 5, 6, 10, 4, 1, 5, 5, 5, 1, 6, 7, 0];
rr = array2d(1..4, 1..62, [0, 0, 4, 3, 9, 10, 9, 8, 9, 4, 5, 8, 4, 0, 2, 5, 6, 1, 4, 0, 6, 0, 0, 3, 9, 0, 10, 2, 6, 9, 3, 7, 10, 2, 5, 0, 5, 3, 1, 8, 4, 3, 4, 4, 8, 0, 6, 5, 10, 0, 0, 5, 4, 5, 7, 10, 8, 0, 9, 8, 10, 0, 0, 1, 0, 6, 0, 0, 5, 6, 2, 4, 0, 1, 1, 8, 10, 0, 5, 2, 5, 9, 0, 7, 2, 6, 0, 1, 0, 10, 2, 0, 0, 5, 5, 0, 10, 1, 1, 4, 4, 2, 5, 3, 9, 2, 4, 2, 2, 6, 7, 7, 7, 10, 0, 9, 6, 8, 8, 6, 0, 3, 3, 0, 0, 0, 5, 10, 0, 4, 9, 2, 3, 1, 4, 1, 0, 9, 2, 8, 3, 8, 7, 8, 0, 0, 5, 0, 7, 0, 8, 0, 0, 0, 5, 5, 3, 10, 3, 0, 0, 10, 0, 0, 4, 2, 4, 3, 5, 10, 3, 4, 9, 6, 4, 2, 9, 8, 0, 3, 4, 4, 4, 2, 0, 0, 0, 2, 9, 2, 1, 5, 0, 9, 0, 4, 0, 6, 2, 1, 8, 7, 0, 5, 0, 0, 4, 2, 8, 7, 4, 4, 2, 0, 2, 10, 0, 0, 3, 0, 2, 4, 5, 7, 0, 0, 0, 0, 1, 3, 9, 7, 4, 5, 0, 7, 3, 8, 1, 2, 0, 0, 0, 9, 3, 1, 0, 0]);

suc = [
   {2, 3, 4},
   {18, 36, 5},
   {40, 27, 14},
   {12, 6, 7},
   {8, 9, 54},
   {25, 43, 20},
   {16, 10, 13},
   {27, 23, 15},
   {48, 33, 46},
   {11, 45, 22},
   {19, 21},
   {56, 49, 20},
   {50, 19, 23},
   {17, 35, 36},
   {33, 28, 22},
   {21},
   {29, 31},
   {40, 34, 39},
   {34, 42, 30},
   {24, 30, 31},
   {41},
   {59, 52, 30},
   {35, 37, 38},
   {32, 26},
   {32, 27, 31},
   {42, 44, 55},
   {49, 35, 28},
   {50, 51, 46},
   {32, 46, 38},
   {57},
   {34, 59, 53},
   {54},
   {41, 44, 37},
   {48, 51, 37},
   {39},
   {45, 38, 39},
   {57},
   {48, 44, 47},
   {56},
   {41, 50, 43},
   {49, 42},
   {51},
   {45, 54},
   {53},
   {52, 47},
   {56, 52, 47},
   {55},
   {60, 61},
   {60},
   {53, 55},
   {60},
   {58},
   {58},
   {61},
   {57},
   {59},
   {58},
   {61},
   {62},
   {62},
   {62},
   {  } ];

deadline = array2d(1..62, 1..3, [1, 4, 2, 2, 5, 4, 5, 5, 3, 7, 4, 1, 7, 2, 1, 14, 2, 3, 15, 1, 1, 15, 5, 5, 21, 0, 0, 24, 4, 0, 25, 2, 1, 27, 4, 5, 31, 2, 1, 33, 3, 1, 38, 3, 2, 43, 0, 4, 45, 4, 0, 49, 5, 0, 49, 2, 2, 51, 3, 0, 51, 0, 0, 54, 0, 2, 58, 3, 2, 63, 3, 0, 66, 0, 4, 70, 5, 4, 71, 1, 0, 73, 1, 0, 75, 3, 5, 77, 2, 2, 79, 3, 1, 81, 0, 4, 85, 5, 3, 85, 5, 2, 86, 1, 2, 91, 1, 2, 96, 4, 5, 105, 2, 3, 106, 5, 1, 110, 1, 0, 114, 1, 0, 116, 0, 1, 121, 1, 4, 122, 1, 4, 122, 0, 1, 123, 3, 1, 125, 4, 0, 128, 2, 5, 133, 2, 2, 135, 0, 0, 138, 0, 5, 139, 3, 0, 141, 4, 1, 142, 5, 1, 143, 2, 0, 144, 4, 3, 144, 2, 4, 147, 3, 1, 155, 5, 4, 155, 5, 5, 155, 3, 3, 162, 4, 5]);
