n_res = 4;
rc = [ 17, 16, 16, 19 ];
n_tasks = 62;
d = [0, 9, 6, 6, 1, 3, 10, 7, 6, 4, 5, 2, 9, 7, 6, 5, 7, 10, 8, 5, 4, 2, 2, 4, 4, 3, 1, 10, 2, 2, 1, 9, 10, 2, 8, 7, 10, 6, 5, 4, 4, 1, 7, 9, 4, 1, 2, 4, 3, 6, 7, 8, 3, 4, 8, 6, 5, 5, 2, 10, 5, 0];
rr = array2d(1..4, 1..62, [0, 0, 0, 9, 0, 0, 0, 0, 0, 0, 0, 1, 7, 8, 0, 0, 0, 0, 0, 0, 6, 0, 0, 7, 2, 5, 2, 0, 0, 0, 0, 0, 0, 0, 3, 2, 0, 0, 0, 0, 0, 0, 0, 0, 0, 0, 0, 0, 8, 0, 0, 9, 0, 0, 3, 0, 0, 10, 0, 0, 0, 0, 0, 0, 0, 0, 5, 0, 7, 0, 0, 0, 0, 0, 0, 0, 6, 1, 0, 0, 0, 5, 0, 0, 0, 0, 0, 0, 0, 10, 0, 0, 5, 0, 0, 8, 0, 0, 0, 0, 10, 0, 0, 1, 0, 0, 0, 3, 1, 5, 0, 9, 0, 0, 7, 0, 0, 9, 0, 0, 0, 0, 0, 0, 0, 0, 3, 0, 0, 0, 0, 0, 0, 0, 0, 0, 0, 0, 0, 0, 5, 8, 0, 0, 0, 0, 7, 0, 0, 0, 0, 0, 4, 6, 0, 1, 9, 0, 0, 0, 4, 4, 0, 4, 0, 0, 0, 0, 0, 0, 0, 0, 0, 0, 8, 0, 0, 10, 0, 0, 9, 0, 0, 0, 5, 0, 0, 8, 0, 0, 0, 8, 0, 7, 8, 2, 3, 0, 0, 0, 0, 0, 0, 0, 6, 0, 0, 2, 0, 0, 0, 0, 0, 0, 0, 0, 0, 0, 0, 0, 0, 0, 0, 0, 0, 0, 7, 0, 8, 6, 3, 0, 0, 0, 0, 0, 0, 0, 0, 0, 0, 0, 0, 0, 6, 5, 0, 0]);

suc = [
   {2, 3, 4},
   {18, 43, 5},
   {16, 10, 6},
   {9, 51, 13},
   {12, 22, 7},
   {18, 11, 37},
   {8, 32, 14},
   {20, 21, 46},
   {10, 37},
   {21, 38, 15},
   {27, 36, 46},
   {25, 45, 14},
   {16, 17, 40},
   {40, 41, 51},
   {28},
   {35, 34, 19},
   {19, 29, 54},
   {32, 21, 23},
   {24, 27, 39},
   {48, 29},
   {49, 26, 27},
   {40, 57, 23},
   {25, 46},
   {32, 33},
   {26, 42, 61},
   {34, 30, 55},
   {41},
   {42, 29, 31},
   {49, 36, 47},
   {44},
   {34, 35, 54},
   {53, 47},
   {41, 43, 38},
   {39},
   {43, 36},
   {56, 45},
   {42, 38, 39},
   {57, 59},
   {44, 47},
   {58, 59},
   {53},
   {52},
   {44, 45},
   {56},
   {50},
   {50, 52, 58},
   {60},
   {49, 51, 52},
   {50, 61},
   {55},
   {53},
   {54},
   {57},
   {56, 55},
   {60},
   {59},
   {58},
   {60, 61},
   {62},
   {62},
   {62},
   {  } ];

deadline = array2d(1..62, 1..3, [1, 0, 1, 10, 0, 5, 11, 3, 3, 12, 1, 4, 12, 4, 4, 14, 5, 1, 16, 5, 4, 23, 3, 1, 24, 1, 1, 25, 0, 1, 28, 5, 0, 30, 1, 1, 31, 4, 1, 34, 0, 0, 38, 3, 3, 42, 3, 3, 46, 5, 0, 46, 1, 4, 49, 0, 1, 50, 1, 2, 51, 2, 3, 51, 3, 2, 53, 1, 5, 53, 2, 4, 54, 0, 5, 55, 0, 3, 55, 4, 4, 68, 5, 3, 71, 5, 0, 75, 1, 3, 76, 1, 5, 77, 5, 5, 78, 0, 4, 86, 0, 2, 87, 5, 5, 88, 0, 1, 91, 4, 1, 91, 5, 0, 100, 5, 4, 105, 2, 5, 107, 4, 1, 112, 1, 2, 113, 1, 0, 114, 2, 5, 115, 1, 2, 117, 4, 4, 120, 3, 5, 127, 3, 3, 135, 5, 0, 140, 1, 2, 148, 3, 5, 150, 4, 1, 153, 3, 0, 161, 3, 4, 164, 0, 3, 169, 5, 0, 170, 1, 0, 174, 0, 1, 186, 1, 1, 187, 1, 5, 193, 4, 2, 193, 0, 4]);
