n_res = 4;
rc = [ 40, 41, 50, 40 ];
n_tasks = 62;
d = [0, 3, 6, 9, 7, 5, 1, 5, 3, 2, 1, 8, 1, 9, 2, 5, 5, 10, 4, 8, 4, 8, 3, 7, 9, 7, 5, 1, 3, 4, 4, 1, 10, 9, 8, 3, 2, 9, 5, 4, 6, 5, 4, 10, 2, 6, 2, 8, 8, 1, 5, 9, 1, 4, 10, 4, 10, 9, 1, 9, 6, 0];
rr = array2d(1..4, 1..62, [0, 0, 6, 8, 7, 9, 9, 0, 8, 2, 0, 4, 0, 2, 3, 0, 7, 1, 7, 8, 3, 0, 7, 5, 6, 6, 3, 8, 1, 1, 1, 9, 0, 10, 6, 5, 0, 0, 0, 6, 8, 1, 7, 10, 6, 7, 0, 6, 2, 9, 10, 0, 0, 8, 1, 0, 3, 6, 7, 0, 5, 0, 0, 0, 4, 3, 1, 8, 3, 3, 0, 8, 4, 0, 0, 4, 6, 6, 0, 4, 4, 9, 5, 0, 6, 2, 1, 10, 3, 2, 10, 1, 7, 5, 5, 0, 4, 1, 0, 0, 0, 1, 3, 9, 0, 1, 6, 8, 5, 4, 6, 6, 7, 1, 8, 6, 2, 7, 4, 0, 0, 2, 6, 0, 0, 6, 6, 9, 0, 9, 4, 0, 8, 7, 2, 9, 1, 8, 2, 4, 7, 3, 6, 0, 2, 3, 8, 8, 0, 4, 4, 0, 5, 8, 8, 2, 10, 0, 2, 9, 3, 9, 1, 5, 0, 6, 0, 0, 0, 7, 1, 0, 0, 2, 1, 5, 0, 4, 0, 0, 6, 0, 0, 9, 2, 0, 0, 0, 7, 8, 10, 2, 5, 7, 0, 1, 5, 0, 1, 10, 4, 1, 0, 10, 1, 5, 10, 2, 0, 0, 3, 3, 3, 4, 3, 9, 0, 4, 10, 1, 9, 4, 5, 8, 0, 8, 0, 5, 4, 7, 0, 8, 2, 0, 3, 0, 8, 0, 9, 9, 8, 6, 2, 2, 3, 0, 1, 0]);

suc = [
   {2, 3, 4},
   {32, 34, 19},
   {17, 25, 31},
   {5, 6, 7},
   {16, 10, 14},
   {8, 27, 12},
   {49, 15},
   {9, 18, 37},
   {14, 47},
   {17, 11, 35},
   {45, 43, 13},
   {20, 30, 15},
   {25, 29, 57},
   {35, 30, 39},
   {26, 21},
   {33, 23},
   {41, 30, 39},
   {20, 21},
   {42, 27, 22},
   {24, 28, 45},
   {47, 39},
   {24, 40, 28},
   {26, 47, 31},
   {25, 26, 38},
   {36},
   {35, 36, 44},
   {49, 29, 31},
   {48, 58, 60},
   {36, 46},
   {44, 52, 55},
   {56, 51},
   {57, 43, 44},
   {42, 52, 38},
   {40, 41, 48},
   {50},
   {61},
   {54, 41, 38},
   {50, 43},
   {42, 45},
   {49, 50},
   {53},
   {53},
   {59, 61},
   {46},
   {54, 56, 46},
   {48},
   {51, 54},
   {59},
   {52},
   {51, 53, 55},
   {60},
   {56},
   {57},
   {61, 55},
   {60},
   {58},
   {58},
   {59},
   {62},
   {62},
   {62},
   {  } ];

deadline = array2d(1..62, 1..3, [5, 4, 4, 5, 4, 3, 14, 5, 1, 20, 0, 4, 23, 0, 2, 26, 2, 3, 27, 3, 2, 29, 0, 2, 33, 3, 5, 33, 3, 2, 34, 4, 1, 38, 1, 1, 39, 0, 3, 40, 0, 2, 43, 2, 3, 44, 1, 3, 47, 5, 4, 49, 5, 5, 52, 5, 3, 52, 0, 5, 52, 5, 4, 59, 3, 0, 67, 1, 0, 67, 1, 1, 74, 1, 3, 76, 1, 2, 80, 4, 4, 84, 2, 1, 85, 4, 1, 86, 3, 0, 91, 1, 5, 94, 2, 1, 98, 1, 3, 101, 5, 3, 124, 3, 1, 125, 0, 5, 130, 2, 3, 131, 5, 5, 135, 4, 3, 137, 0, 1, 138, 0, 0, 138, 1, 1, 140, 3, 4, 141, 4, 4, 148, 4, 0, 154, 1, 2, 158, 1, 0, 158, 4, 0, 163, 2, 2, 163, 3, 2, 164, 4, 2, 164, 5, 4, 164, 1, 0, 166, 1, 2, 166, 1, 0, 169, 0, 2, 176, 1, 5, 179, 2, 4, 191, 3, 0, 191, 1, 3, 192, 3, 3, 194, 1, 0]);
