n_res = 4;
rc = [ 23, 33, 43, 40 ];
n_tasks = 62;
d = [0, 6, 6, 4, 7, 9, 7, 10, 1, 9, 9, 1, 6, 3, 5, 3, 7, 4, 2, 1, 10, 9, 4, 10, 9, 2, 8, 9, 5, 7, 10, 6, 9, 2, 6, 2, 3, 7, 10, 4, 2, 6, 9, 5, 6, 4, 1, 7, 1, 8, 8, 6, 10, 9, 7, 7, 7, 10, 2, 1, 7, 0];
rr = array2d(1..4, 1..62, [0, 0, 0, 0, 0, 0, 0, 0, 2, 10, 0, 10, 4, 0, 0, 0, 0, 6, 3, 0, 6, 0, 0, 0, 0, 8, 0, 10, 3, 0, 4, 0, 2, 0, 0, 3, 0, 0, 9, 1, 0, 0, 2, 3, 4, 9, 0, 6, 0, 1, 1, 0, 0, 0, 0, 0, 0, 0, 8, 0, 3, 0, 0, 1, 0, 0, 3, 0, 1, 0, 3, 0, 0, 0, 5, 0, 6, 10, 0, 8, 0, 0, 7, 0, 2, 1, 0, 0, 8, 5, 8, 8, 0, 9, 1, 0, 0, 0, 0, 0, 0, 6, 0, 6, 4, 0, 9, 8, 4, 0, 10, 0, 10, 1, 1, 2, 8, 7, 2, 0, 9, 8, 9, 0, 0, 0, 0, 6, 7, 0, 5, 9, 0, 0, 6, 10, 9, 0, 10, 5, 0, 0, 0, 0, 8, 0, 0, 0, 6, 2, 6, 0, 4, 0, 8, 9, 5, 7, 4, 0, 4, 5, 9, 0, 5, 0, 0, 0, 5, 0, 3, 3, 0, 1, 0, 4, 8, 2, 10, 0, 2, 9, 4, 0, 0, 0, 0, 4, 7, 5, 0, 7, 0, 3, 8, 10, 0, 0, 0, 4, 0, 0, 10, 7, 2, 10, 0, 9, 0, 0, 9, 0, 6, 5, 10, 0, 0, 0, 0, 9, 3, 3, 0, 0, 0, 0, 0, 4, 6, 0, 6, 0, 2, 9, 2, 7, 0, 0, 0, 0, 0, 0, 0, 0, 5, 10, 0, 0]);

suc = [
   {2, 3, 4},
   {27, 6},
   {17, 12, 7},
   {25, 11, 5},
   {8},
   {10, 45, 22},
   {51, 14, 23},
   {9, 35, 37},
   {18},
   {18, 19, 13},
   {17, 33},
   {16, 34, 56},
   {33, 15},
   {20, 21},
   {48, 36, 30},
   {27, 28},
   {40},
   {54, 38, 55},
   {33, 42, 29},
   {24, 26},
   {31},
   {26},
   {24, 44},
   {57, 39, 31},
   {44, 52, 55},
   {29},
   {51, 30},
   {32, 44},
   {32, 56, 31},
   {43, 38},
   {46},
   {59, 47},
   {34},
   {36, 53, 46},
   {52, 45},
   {47},
   {48, 41},
   {58},
   {58},
   {50, 60, 46},
   {55},
   {57},
   {49, 52},
   {48, 49, 45},
   {61, 53},
   {47},
   {49},
   {57},
   {54},
   {51},
   {54},
   {58, 53},
   {59, 60},
   {61},
   {56},
   {61},
   {60},
   {59},
   {62},
   {62},
   {62},
   {  } ];

deadline = array2d(1..62, 1..3, [2, 0, 2, 5, 3, 4, 6, 0, 3, 9, 4, 1, 9, 2, 1, 12, 0, 2, 22, 0, 0, 23, 2, 1, 24, 4, 4, 25, 4, 3, 50, 1, 0, 54, 3, 0, 55, 2, 5, 55, 3, 5, 59, 4, 1, 59, 2, 2, 60, 5, 4, 60, 4, 3, 61, 0, 0, 64, 3, 1, 66, 3, 5, 68, 0, 2, 68, 1, 0, 74, 5, 0, 81, 0, 2, 82, 2, 1, 85, 0, 2, 86, 5, 2, 86, 1, 0, 90, 1, 4, 91, 1, 0, 95, 3, 2, 96, 1, 4, 100, 3, 3, 101, 0, 1, 115, 0, 1, 117, 2, 4, 118, 1, 1, 122, 5, 5, 124, 1, 4, 125, 2, 3, 127, 0, 3, 128, 5, 1, 128, 2, 5, 130, 0, 3, 131, 2, 3, 133, 3, 5, 133, 5, 1, 134, 0, 5, 134, 0, 0, 135, 0, 3, 136, 2, 1, 144, 1, 4, 147, 0, 0, 150, 5, 5, 150, 5, 3, 152, 3, 1, 157, 2, 0, 159, 5, 1, 162, 5, 1, 165, 3, 2, 168, 0, 1]);
