n_res = 4;
rc = [ 12, 13, 11, 13 ];
n_tasks = 62;
d = [0, 4, 6, 3, 5, 3, 9, 6, 7, 4, 4, 8, 1, 10, 3, 6, 2, 10, 1, 9, 3, 4, 7, 10, 7, 5, 2, 8, 10, 4, 3, 8, 7, 9, 1, 4, 5, 9, 7, 4, 9, 4, 7, 9, 7, 5, 5, 9, 6, 7, 1, 7, 3, 3, 4, 5, 10, 4, 6, 3, 10, 0];
rr = array2d(1..4, 1..62, [0, 5, 0, 0, 0, 7, 6, 0, 0, 0, 0, 0, 0, 0, 10, 0, 1, 0, 1, 0, 6, 3, 5, 0, 0, 4, 4, 0, 0, 0, 0, 0, 0, 6, 0, 0, 0, 0, 0, 2, 3, 0, 0, 5, 0, 0, 0, 0, 8, 0, 3, 0, 5, 0, 0, 0, 0, 0, 0, 5, 0, 0, 0, 0, 10, 0, 0, 0, 0, 8, 5, 0, 9, 0, 0, 0, 0, 0, 0, 0, 0, 0, 0, 0, 0, 8, 0, 0, 0, 0, 0, 1, 0, 0, 7, 0, 2, 0, 0, 3, 0, 0, 0, 6, 8, 0, 0, 0, 1, 7, 0, 0, 0, 2, 0, 0, 0, 3, 0, 0, 0, 0, 5, 0, 0, 0, 0, 8, 0, 0, 0, 0, 0, 0, 0, 6, 0, 0, 0, 9, 0, 0, 0, 0, 0, 0, 0, 0, 9, 0, 0, 0, 0, 0, 3, 8, 0, 0, 0, 0, 0, 0, 7, 0, 0, 0, 0, 0, 2, 0, 0, 0, 0, 0, 0, 0, 0, 0, 6, 0, 0, 2, 1, 0, 0, 0, 0, 0, 0, 0, 4, 0, 0, 0, 0, 4, 0, 0, 5, 8, 0, 0, 0, 7, 0, 4, 0, 0, 0, 0, 0, 0, 0, 9, 3, 0, 0, 0, 0, 0, 0, 6, 10, 0, 0, 0, 0, 0, 0, 0, 0, 7, 0, 0, 0, 2, 0, 0, 0, 10, 0, 0, 6, 0, 0, 0, 0, 0]);

suc = [
   {2, 3, 4},
   {57, 43},
   {12, 6, 7},
   {8, 9, 5},
   {19, 30, 15},
   {17, 20},
   {16, 10, 19},
   {26, 18, 11},
   {47, 14, 30},
   {28, 21, 23},
   {34, 30},
   {57, 13, 15},
   {43, 44, 29},
   {24, 21},
   {32, 49, 26},
   {24, 27, 22},
   {32, 46, 23},
   {34},
   {25, 52, 31},
   {32, 28, 37},
   {38, 29, 22},
   {25, 36},
   {33, 35, 37},
   {40, 51, 29},
   {42, 53, 46},
   {34, 35, 53},
   {51, 43, 36},
   {49, 45, 38},
   {48, 41, 46},
   {33, 52, 55},
   {33, 47},
   {35, 39},
   {40, 48, 51},
   {37},
   {44, 45},
   {41, 55, 39},
   {41, 39},
   {58},
   {58},
   {42, 44},
   {50, 45},
   {50},
   {59, 61},
   {56},
   {52},
   {49, 58},
   {48, 55},
   {50, 59, 54},
   {61, 54},
   {56},
   {53},
   {54},
   {60},
   {56},
   {57, 59},
   {60},
   {60},
   {61},
   {62},
   {62},
   {62},
   {  } ];

deadline = array2d(1..62, 1..3, [4, 0, 1, 8, 2, 3, 12, 3, 2, 19, 4, 3, 21, 0, 2, 24, 3, 0, 29, 3, 4, 30, 5, 3, 38, 1, 4, 45, 2, 5, 47, 4, 2, 51, 3, 1, 55, 3, 3, 56, 0, 2, 60, 1, 0, 62, 2, 3, 65, 5, 1, 68, 4, 5, 73, 3, 5, 78, 2, 2, 84, 4, 1, 84, 3, 3, 86, 0, 2, 91, 4, 0, 91, 3, 0, 95, 1, 4, 98, 4, 5, 99, 5, 3, 100, 5, 5, 101, 2, 1, 102, 5, 3, 104, 1, 0, 106, 5, 0, 107, 4, 0, 109, 3, 4, 116, 4, 5, 116, 4, 1, 118, 1, 1, 119, 2, 4, 120, 1, 1, 124, 4, 1, 126, 0, 0, 128, 1, 2, 134, 5, 2, 134, 5, 1, 135, 4, 2, 144, 2, 4, 145, 4, 2, 145, 1, 5, 146, 1, 2, 148, 4, 3, 152, 1, 0, 154, 1, 0, 156, 3, 3, 161, 2, 4, 162, 0, 0, 162, 4, 4, 170, 5, 4, 175, 5, 5, 181, 4, 4, 186, 2, 0, 187, 4, 5]);
