n_res = 4;
rc = [ 20, 21, 18, 21 ];
n_tasks = 62;
d = [0, 9, 4, 3, 10, 2, 6, 4, 6, 9, 9, 3, 8, 6, 6, 7, 5, 4, 9, 3, 10, 1, 9, 7, 3, 8, 3, 3, 2, 7, 6, 3, 9, 4, 3, 1, 3, 3, 8, 8, 4, 1, 6, 10, 5, 8, 2, 4, 6, 4, 5, 5, 5, 6, 7, 6, 8, 5, 10, 2, 9, 0];
rr = array2d(1..4, 1..62, [0, 0, 0, 0, 0, 4, 0, 0, 5, 0, 0, 0, 0, 0, 0, 1, 0, 0, 5, 0, 6, 0, 0, 0, 3, 0, 6, 0, 6, 2, 1, 0, 0, 5, 4, 0, 0, 0, 0, 0, 0, 9, 0, 0, 0, 0, 0, 0, 0, 0, 0, 0, 0, 0, 0, 0, 1, 0, 0, 0, 0, 0, 0, 0, 0, 2, 7, 0, 0, 0, 0, 3, 1, 0, 0, 0, 0, 0, 0, 10, 0, 0, 0, 4, 0, 0, 0, 0, 0, 6, 0, 0, 0, 0, 9, 0, 0, 2, 0, 0, 0, 0, 0, 0, 0, 0, 2, 0, 0, 0, 7, 0, 10, 0, 3, 0, 0, 1, 0, 1, 6, 0, 7, 0, 0, 4, 0, 0, 0, 0, 7, 8, 0, 0, 0, 0, 1, 0, 0, 0, 0, 0, 0, 2, 0, 0, 10, 1, 0, 0, 0, 0, 0, 0, 0, 0, 0, 0, 0, 0, 1, 0, 0, 0, 8, 0, 2, 0, 0, 2, 6, 4, 0, 2, 0, 0, 0, 0, 6, 0, 0, 0, 0, 2, 0, 0, 0, 0, 9, 0, 0, 0, 0, 0, 0, 0, 0, 4, 0, 2, 7, 0, 6, 0, 0, 0, 0, 0, 0, 0, 0, 10, 0, 0, 0, 0, 0, 8, 0, 0, 0, 0, 0, 4, 8, 3, 0, 0, 0, 10, 0, 0, 0, 0, 0, 0, 0, 3, 0, 6, 0, 0, 0, 0, 0, 0, 0, 0]);

suc = [
   {2, 3, 4},
   {16, 27, 7},
   {13, 6, 15},
   {10, 45, 5},
   {59, 29},
   {24, 14},
   {8, 34, 11},
   {9, 22, 33},
   {19},
   {55},
   {38, 12, 36},
   {48, 41, 18},
   {34, 21, 23},
   {31},
   {20, 37, 52},
   {17, 61},
   {31},
   {53},
   {59},
   {42, 28},
   {32, 40, 55},
   {58},
   {33},
   {25},
   {26},
   {47},
   {31},
   {54, 39},
   {30},
   {49},
   {50, 44},
   {57, 35},
   {57},
   {49},
   {51, 60},
   {40},
   {58},
   {53},
   {44, 46},
   {52},
   {43, 46},
   {56},
   {54},
   {57},
   {48},
   {59},
   {48},
   {51},
   {50},
   {54},
   {52},
   {53},
   {58},
   {55},
   {56},
   {60},
   {60},
   {61},
   {62},
   {62},
   {62},
   {  } ];

deadline = array2d(1..62, 1..3, [4, 1, 2, 6, 0, 0, 10, 0, 5, 10, 2, 2, 11, 0, 3, 11, 2, 5, 12, 0, 5, 14, 1, 1, 21, 5, 1, 23, 5, 4, 24, 5, 1, 29, 2, 5, 31, 0, 2, 35, 1, 2, 36, 2, 3, 41, 4, 5, 42, 2, 1, 44, 5, 4, 45, 4, 5, 46, 3, 3, 48, 4, 1, 51, 2, 2, 51, 1, 5, 53, 2, 4, 56, 0, 1, 61, 0, 0, 62, 3, 1, 64, 2, 2, 67, 0, 5, 71, 3, 1, 72, 3, 1, 79, 0, 0, 81, 5, 5, 81, 0, 5, 82, 4, 5, 83, 3, 2, 85, 4, 4, 91, 2, 2, 92, 2, 2, 93, 0, 0, 94, 4, 5, 94, 0, 5, 97, 5, 3, 99, 4, 4, 108, 3, 2, 113, 4, 4, 114, 4, 4, 114, 2, 3, 114, 2, 5, 114, 4, 1, 115, 3, 3, 118, 1, 5, 121, 5, 3, 130, 2, 5, 131, 4, 1, 135, 0, 4, 135, 4, 5, 137, 4, 3, 139, 4, 5, 145, 4, 2, 149, 5, 5, 150, 5, 3]);
