n_res = 4;
rc = [ 20, 18, 19, 18 ];
n_tasks = 62;
d = [0, 6, 7, 3, 8, 2, 3, 6, 3, 1, 6, 10, 8, 9, 10, 8, 9, 3, 7, 1, 6, 5, 5, 7, 2, 4, 7, 7, 8, 8, 2, 5, 3, 7, 2, 10, 9, 5, 5, 9, 10, 5, 8, 10, 9, 5, 5, 6, 7, 8, 8, 4, 5, 10, 8, 2, 8, 7, 4, 3, 4, 0];
rr = array2d(1..4, 1..62, [0, 6, 7, 10, 2, 9, 8, 2, 9, 3, 10, 1, 5, 2, 8, 10, 9, 8, 10, 8, 1, 9, 1, 5, 5, 1, 2, 9, 6, 6, 2, 2, 8, 1, 10, 3, 4, 8, 10, 2, 6, 8, 6, 2, 5, 7, 5, 2, 4, 6, 6, 3, 4, 6, 7, 8, 1, 3, 3, 2, 6, 0, 0, 9, 1, 5, 3, 7, 1, 3, 7, 8, 2, 7, 10, 9, 4, 9, 4, 2, 9, 7, 4, 4, 3, 7, 4, 1, 6, 4, 7, 4, 6, 4, 7, 2, 3, 8, 1, 5, 6, 1, 9, 8, 4, 1, 6, 8, 6, 7, 4, 10, 2, 10, 1, 3, 1, 4, 8, 4, 7, 8, 2, 0, 0, 2, 1, 5, 2, 10, 10, 1, 1, 1, 3, 9, 2, 8, 3, 2, 7, 10, 6, 9, 1, 6, 2, 9, 7, 8, 5, 2, 5, 10, 7, 4, 1, 2, 8, 10, 5, 5, 9, 2, 7, 10, 9, 8, 6, 3, 6, 1, 8, 7, 10, 10, 6, 8, 1, 9, 1, 3, 5, 6, 9, 0, 0, 4, 4, 10, 3, 8, 3, 3, 8, 2, 8, 6, 2, 4, 1, 9, 9, 8, 3, 6, 7, 7, 5, 3, 7, 8, 8, 1, 6, 8, 6, 10, 1, 7, 2, 2, 8, 3, 4, 3, 10, 8, 2, 5, 10, 5, 7, 7, 6, 4, 8, 3, 6, 5, 3, 4, 4, 7, 4, 7, 6, 0]);

suc = [
   {2, 3, 4},
   {9, 15, 7},
   {24, 41, 21},
   {8, 5, 6},
   {17, 27, 14},
   {58, 11, 44},
   {10, 11, 28},
   {11, 12, 21},
   {19, 47},
   {41, 22, 30},
   {54},
   {18, 29, 13},
   {41},
   {59},
   {16, 19, 20},
   {33, 34, 31},
   {56, 34, 30},
   {36, 39, 23},
   {49, 45},
   {42, 22},
   {40, 51, 38},
   {40, 26, 36},
   {34, 55},
   {25, 26, 37},
   {32, 31},
   {32, 50},
   {32, 28, 38},
   {52, 29, 30},
   {35, 31},
   {42, 35},
   {36, 45, 55},
   {51, 35, 47},
   {45, 37, 46},
   {51, 44, 37},
   {48, 39},
   {50, 43, 44},
   {43, 61, 38},
   {42, 52},
   {57},
   {43, 47},
   {46},
   {48, 49},
   {49, 53, 54},
   {46},
   {56, 50},
   {48, 61},
   {56, 55},
   {60},
   {57},
   {60, 53},
   {52, 61, 54},
   {53},
   {57},
   {60},
   {59},
   {58},
   {58},
   {59},
   {62},
   {62},
   {62},
   {  } ];

deadline = array2d(1..62, 1..3, [4, 2, 0, 8, 2, 0, 8, 5, 1, 10, 4, 3, 21, 4, 5, 23, 1, 1, 26, 0, 4, 29, 4, 4, 33, 5, 2, 39, 0, 5, 39, 4, 3, 41, 0, 0, 44, 2, 2, 47, 5, 5, 47, 3, 2, 50, 1, 2, 54, 2, 1, 55, 1, 2, 57, 0, 2, 58, 3, 5, 68, 3, 2, 69, 2, 3, 69, 4, 1, 75, 3, 2, 82, 1, 3, 84, 3, 1, 84, 2, 4, 85, 2, 2, 85, 0, 1, 89, 0, 1, 95, 2, 4, 97, 3, 2, 97, 5, 3, 103, 3, 0, 106, 5, 1, 107, 2, 2, 110, 5, 0, 113, 3, 0, 115, 1, 3, 117, 3, 3, 118, 0, 4, 120, 3, 4, 120, 5, 5, 131, 1, 5, 138, 1, 3, 138, 4, 0, 143, 2, 4, 146, 0, 4, 146, 4, 2, 147, 4, 0, 149, 1, 3, 155, 5, 4, 161, 3, 0, 162, 1, 5, 165, 4, 4, 174, 5, 1, 179, 1, 5, 181, 4, 2, 182, 2, 2, 190, 4, 1, 190, 3, 2, 193, 4, 2]);
