n_res = 4;
rc = [ 14, 18, 14, 14 ];
n_tasks = 62;
d = [0, 1, 8, 1, 7, 5, 3, 2, 3, 9, 5, 5, 3, 9, 7, 7, 3, 5, 9, 5, 9, 10, 9, 4, 5, 10, 2, 2, 10, 6, 8, 5, 6, 9, 1, 7, 5, 1, 7, 1, 4, 5, 10, 8, 3, 4, 7, 3, 6, 7, 4, 10, 2, 6, 2, 4, 8, 3, 4, 8, 4, 0];
rr = array2d(1..4, 1..62, [0, 3, 3, 4, 1, 0, 6, 3, 5, 0, 0, 0, 2, 6, 5, 0, 0, 0, 3, 2, 2, 2, 5, 3, 8, 0, 7, 0, 9, 0, 0, 6, 7, 0, 0, 0, 0, 0, 0, 2, 5, 0, 6, 0, 5, 2, 0, 0, 0, 0, 10, 6, 3, 6, 0, 0, 7, 0, 2, 6, 10, 0, 0, 2, 0, 0, 3, 0, 9, 4, 9, 10, 0, 6, 0, 2, 0, 5, 0, 0, 0, 2, 0, 10, 8, 9, 8, 6, 0, 6, 0, 0, 0, 1, 0, 0, 1, 9, 0, 0, 4, 0, 6, 0, 9, 8, 7, 3, 2, 3, 9, 3, 0, 0, 0, 0, 0, 10, 0, 0, 1, 0, 0, 0, 0, 0, 9, 9, 0, 0, 0, 0, 0, 9, 1, 1, 3, 7, 1, 8, 0, 8, 0, 0, 0, 4, 0, 0, 4, 0, 0, 0, 0, 10, 0, 1, 0, 0, 0, 1, 10, 10, 6, 4, 0, 6, 9, 0, 10, 0, 0, 8, 0, 0, 0, 4, 3, 0, 6, 0, 3, 5, 5, 4, 5, 0, 0, 0, 0, 0, 0, 2, 3, 0, 0, 0, 4, 0, 5, 6, 0, 0, 2, 0, 8, 0, 7, 7, 1, 0, 6, 0, 0, 0, 0, 0, 9, 0, 6, 10, 2, 0, 1, 2, 0, 10, 0, 1, 7, 4, 0, 0, 3, 0, 0, 0, 0, 0, 0, 0, 9, 0, 9, 0, 7, 0, 0, 0]);

suc = [
   {2, 3, 4},
   {18, 11, 23},
   {27, 5, 7},
   {19, 6},
   {50},
   {9, 11},
   {8, 10, 34},
   {16, 28, 31},
   {17, 13, 39},
   {29},
   {12, 14, 39},
   {16, 38, 15},
   {42, 35},
   {37},
   {20, 21, 60},
   {24, 33, 41},
   {32, 30},
   {26, 53, 22},
   {43, 20, 54},
   {36},
   {48, 59, 30},
   {42, 46},
   {25, 33},
   {40, 52},
   {42, 27, 44},
   {52},
   {51},
   {50, 59},
   {49, 38, 39},
   {61},
   {37},
   {49, 34, 53},
   {36, 45},
   {45, 46, 55},
   {56},
   {58},
   {40, 38},
   {44},
   {43},
   {51, 55},
   {58, 44, 54},
   {50},
   {58, 51, 55},
   {45, 46},
   {56, 47},
   {48},
   {48},
   {61},
   {56},
   {57},
   {53},
   {54},
   {59},
   {57},
   {57},
   {60},
   {60},
   {61},
   {62},
   {62},
   {62},
   {  } ];

deadline = array2d(1..62, 1..3, [6, 1, 0, 6, 5, 0, 9, 0, 5, 16, 1, 4, 17, 1, 4, 18, 1, 4, 18, 0, 4, 21, 3, 0, 21, 4, 4, 28, 5, 1, 30, 3, 5, 30, 3, 2, 35, 4, 2, 38, 4, 3, 39, 4, 5, 41, 5, 1, 43, 1, 2, 45, 0, 1, 59, 0, 3, 62, 2, 3, 64, 4, 4, 65, 0, 1, 69, 3, 1, 71, 1, 5, 73, 1, 0, 74, 0, 4, 78, 1, 4, 82, 4, 1, 82, 2, 5, 86, 0, 0, 87, 0, 5, 89, 5, 3, 93, 5, 1, 94, 2, 0, 96, 5, 5, 97, 3, 5, 100, 1, 1, 102, 2, 5, 103, 5, 5, 106, 4, 2, 109, 2, 2, 109, 5, 0, 110, 4, 3, 111, 3, 2, 115, 5, 0, 118, 5, 2, 119, 3, 3, 121, 4, 1, 136, 2, 2, 138, 2, 1, 147, 2, 1, 149, 1, 3, 153, 5, 5, 154, 1, 1, 154, 0, 1, 154, 3, 2, 155, 4, 5, 155, 2, 5, 156, 2, 2, 157, 5, 4, 159, 4, 2, 162, 3, 1]);
