n_res = 4;
rc = [ 29, 30, 24, 28 ];
n_tasks = 62;
d = [0, 9, 7, 7, 4, 1, 7, 8, 7, 6, 9, 6, 7, 9, 3, 3, 1, 10, 8, 9, 1, 5, 2, 4, 10, 10, 8, 3, 9, 10, 6, 7, 10, 8, 10, 9, 8, 10, 5, 5, 3, 10, 1, 3, 5, 8, 10, 9, 1, 8, 9, 5, 1, 4, 10, 8, 9, 2, 4, 6, 6, 0];
rr = array2d(1..4, 1..62, [0, 0, 0, 7, 0, 5, 0, 8, 0, 0, 10, 5, 1, 6, 0, 2, 0, 7, 10, 10, 0, 0, 2, 1, 2, 0, 0, 8, 8, 0, 0, 0, 5, 0, 3, 0, 0, 9, 0, 10, 0, 4, 6, 4, 1, 0, 0, 0, 0, 1, 8, 0, 10, 0, 0, 7, 3, 0, 7, 7, 2, 0, 0, 1, 9, 0, 0, 9, 2, 0, 0, 8, 3, 7, 10, 2, 3, 6, 1, 4, 10, 0, 7, 3, 0, 0, 0, 0, 0, 0, 0, 8, 0, 9, 0, 0, 6, 5, 1, 1, 10, 0, 6, 10, 0, 4, 6, 7, 0, 2, 0, 6, 0, 6, 0, 3, 0, 0, 0, 0, 5, 7, 1, 0, 0, 10, 6, 0, 0, 0, 0, 0, 0, 5, 5, 0, 0, 9, 9, 0, 0, 9, 0, 0, 3, 0, 0, 7, 0, 0, 4, 0, 0, 0, 0, 0, 0, 4, 0, 9, 0, 3, 9, 0, 6, 0, 0, 7, 6, 8, 6, 0, 2, 0, 0, 4, 6, 0, 2, 4, 0, 10, 0, 0, 0, 0, 0, 0, 0, 2, 1, 0, 1, 4, 3, 0, 0, 8, 0, 0, 0, 0, 0, 6, 3, 0, 7, 0, 0, 0, 0, 1, 10, 6, 9, 2, 10, 5, 9, 9, 0, 0, 0, 9, 0, 0, 8, 0, 0, 2, 3, 3, 0, 0, 3, 0, 2, 0, 10, 0, 0, 0, 3, 2, 1, 0, 0, 0]);

suc = [
   {2, 3, 4},
   {8, 20, 6},
   {5},
   {11, 29},
   {10, 14, 7},
   {12},
   {16, 9, 17},
   {27, 22},
   {49, 19},
   {41, 34, 30},
   {18, 50, 39},
   {13, 15},
   {49},
   {21},
   {36, 23},
   {32, 58, 61},
   {45, 31},
   {44},
   {24, 33, 54},
   {43, 44},
   {53},
   {34},
   {26},
   {25, 35},
   {46},
   {40, 39},
   {28, 36},
   {38, 55},
   {59},
   {57, 53},
   {40, 42},
   {48},
   {38},
   {35, 60},
   {56},
   {37},
   {47},
   {52},
   {45},
   {47},
   {42},
   {44},
   {45},
   {49},
   {47},
   {48, 56},
   {51},
   {53},
   {51},
   {58},
   {58, 59},
   {57},
   {59},
   {60},
   {61},
   {57},
   {61},
   {60},
   {62},
   {62},
   {62},
   {  } ];

deadline = array2d(1..62, 1..3, [1, 5, 5, 9, 4, 2, 13, 4, 2, 16, 3, 1, 17, 0, 0, 18, 3, 5, 20, 3, 2, 24, 5, 1, 29, 4, 5, 30, 4, 1, 32, 1, 3, 33, 5, 5, 38, 4, 1, 43, 1, 1, 45, 3, 0, 52, 5, 4, 53, 1, 4, 63, 0, 5, 68, 4, 1, 72, 0, 5, 80, 5, 2, 81, 1, 3, 87, 0, 0, 88, 1, 4, 89, 5, 4, 94, 1, 4, 95, 3, 0, 96, 4, 2, 96, 2, 5, 98, 1, 1, 102, 0, 1, 108, 2, 1, 109, 1, 1, 109, 1, 5, 111, 2, 4, 111, 5, 1, 117, 2, 4, 117, 4, 4, 123, 0, 4, 123, 2, 5, 123, 5, 5, 123, 1, 1, 125, 2, 0, 128, 3, 5, 131, 0, 4, 134, 4, 0, 134, 2, 4, 135, 0, 4, 142, 4, 2, 142, 3, 2, 143, 1, 1, 144, 1, 1, 145, 3, 4, 148, 5, 1, 153, 0, 5, 155, 2, 0, 157, 3, 4, 159, 4, 1, 170, 5, 5, 170, 5, 4, 183, 1, 0, 185, 0, 4]);
