n_res = 4;
rc = [ 15, 13, 13, 13 ];
n_tasks = 62;
d = [0, 3, 7, 7, 7, 8, 5, 7, 9, 8, 1, 6, 1, 3, 9, 2, 9, 5, 5, 1, 1, 4, 6, 10, 8, 4, 5, 8, 2, 7, 7, 5, 6, 1, 4, 10, 6, 2, 10, 9, 2, 5, 2, 10, 2, 5, 7, 5, 1, 8, 4, 7, 7, 6, 2, 6, 10, 3, 1, 9, 4, 0];
rr = array2d(1..4, 1..62, [0, 4, 0, 0, 9, 10, 0, 0, 0, 0, 0, 0, 0, 0, 0, 0, 0, 0, 0, 0, 0, 0, 0, 0, 1, 0, 0, 0, 0, 0, 7, 9, 0, 0, 0, 0, 0, 0, 8, 0, 9, 0, 0, 8, 0, 9, 8, 0, 0, 0, 0, 0, 8, 0, 0, 0, 0, 0, 0, 0, 0, 0, 0, 0, 5, 8, 0, 0, 0, 0, 5, 0, 9, 0, 0, 5, 0, 0, 0, 0, 0, 0, 4, 0, 0, 0, 0, 0, 6, 5, 2, 7, 0, 0, 0, 0, 0, 0, 0, 10, 0, 9, 0, 0, 2, 0, 0, 0, 0, 0, 0, 0, 1, 0, 0, 0, 0, 1, 0, 0, 0, 0, 0, 0, 0, 0, 0, 0, 0, 0, 8, 0, 0, 0, 0, 0, 3, 0, 0, 1, 5, 8, 0, 0, 0, 10, 3, 0, 0, 1, 0, 0, 0, 0, 0, 0, 0, 0, 7, 5, 0, 0, 0, 0, 0, 0, 0, 0, 5, 0, 0, 0, 1, 0, 0, 7, 0, 0, 0, 0, 2, 0, 5, 0, 4, 0, 0, 0, 0, 0, 0, 0, 0, 5, 0, 8, 0, 3, 0, 0, 4, 0, 0, 0, 9, 4, 0, 0, 0, 8, 0, 0, 0, 0, 0, 0, 0, 0, 2, 1, 0, 0, 5, 0, 0, 0, 0, 5, 0, 0, 0, 0, 0, 3, 0, 3, 0, 0, 0, 5, 4, 0, 0, 3, 0, 8, 0, 0]);

suc = [
   {2, 3, 4},
   {10, 34, 14},
   {5, 6, 7},
   {8, 9, 13},
   {17, 54},
   {16},
   {18, 26, 15},
   {12},
   {19, 44, 29},
   {32, 11, 21},
   {20, 45},
   {25, 30, 23},
   {43, 60},
   {40},
   {37},
   {50},
   {40},
   {42, 22},
   {53},
   {56, 41, 55},
   {31},
   {24, 28},
   {27},
   {31},
   {53},
   {58},
   {58},
   {34},
   {33, 36},
   {35, 61, 39},
   {59},
   {51, 43},
   {37},
   {38},
   {37},
   {40},
   {52},
   {48, 44},
   {44, 54},
   {47},
   {48},
   {57},
   {49},
   {46},
   {48},
   {50},
   {51, 53},
   {51},
   {54, 55},
   {57},
   {61},
   {56, 59},
   {56},
   {58},
   {61},
   {57},
   {60},
   {59},
   {62},
   {62},
   {62},
   {  } ];

deadline = array2d(1..62, 1..3, [1, 0, 0, 4, 3, 5, 4, 2, 3, 8, 1, 0, 15, 5, 0, 18, 1, 4, 20, 2, 2, 22, 4, 4, 23, 3, 4, 28, 3, 1, 28, 1, 5, 29, 5, 5, 31, 4, 2, 34, 5, 2, 35, 5, 4, 35, 2, 3, 38, 1, 4, 42, 2, 2, 43, 1, 1, 46, 1, 5, 47, 0, 5, 55, 1, 1, 55, 5, 0, 62, 3, 3, 64, 0, 5, 65, 5, 2, 72, 1, 5, 73, 4, 0, 78, 4, 2, 78, 3, 2, 79, 0, 2, 81, 5, 3, 81, 4, 2, 84, 2, 4, 84, 2, 1, 84, 1, 2, 84, 3, 3, 86, 2, 0, 93, 4, 1, 105, 2, 4, 105, 2, 1, 106, 2, 5, 107, 3, 5, 111, 4, 0, 113, 2, 0, 116, 5, 3, 123, 3, 3, 126, 0, 3, 129, 0, 3, 129, 0, 4, 145, 1, 2, 147, 3, 0, 158, 3, 1, 158, 4, 1, 164, 3, 2, 166, 5, 1, 168, 5, 3, 173, 4, 4, 173, 3, 3, 176, 3, 1, 190, 0, 4, 196, 5, 5]);
