n_res = 4;
rc = [ 16, 18, 26, 28 ];
n_tasks = 62;
d = [0, 9, 6, 3, 4, 3, 8, 9, 4, 7, 6, 6, 6, 8, 7, 8, 10, 4, 2, 5, 5, 2, 3, 9, 9, 3, 3, 1, 8, 2, 8, 9, 8, 1, 1, 10, 3, 5, 5, 10, 6, 1, 2, 7, 8, 5, 2, 6, 2, 7, 3, 5, 7, 1, 6, 3, 10, 8, 10, 4, 3, 0];
rr = array2d(1..4, 1..62, [0, 5, 5, 6, 1, 8, 0, 0, 0, 0, 0, 3, 3, 8, 6, 0, 4, 9, 0, 0, 3, 0, 0, 1, 0, 0, 6, 9, 2, 0, 0, 0, 0, 0, 3, 0, 7, 0, 2, 0, 5, 0, 0, 0, 7, 0, 8, 0, 1, 0, 4, 5, 8, 5, 1, 6, 0, 0, 0, 0, 8, 0, 0, 0, 7, 7, 8, 0, 0, 0, 0, 0, 0, 9, 8, 2, 0, 5, 0, 0, 0, 0, 0, 0, 4, 0, 0, 0, 0, 3, 0, 0, 5, 3, 8, 2, 0, 6, 9, 10, 9, 0, 0, 10, 0, 4, 4, 0, 7, 0, 3, 0, 5, 2, 0, 8, 0, 0, 0, 0, 0, 0, 0, 0, 0, 0, 0, 0, 1, 0, 7, 2, 0, 0, 10, 0, 7, 7, 0, 0, 6, 0, 6, 3, 0, 4, 2, 10, 0, 0, 0, 0, 0, 7, 0, 7, 0, 3, 3, 0, 0, 7, 0, 7, 7, 2, 0, 0, 6, 10, 2, 9, 3, 7, 0, 4, 0, 0, 4, 0, 0, 2, 0, 2, 1, 0, 0, 3, 3, 1, 6, 4, 6, 10, 5, 8, 0, 0, 6, 7, 1, 0, 0, 0, 0, 6, 0, 6, 10, 0, 7, 9, 9, 4, 0, 0, 2, 0, 0, 0, 0, 0, 0, 0, 0, 1, 0, 0, 3, 10, 7, 7, 0, 0, 0, 3, 7, 5, 0, 5, 0, 4, 4, 8, 6, 2, 9, 0]);

suc = [
   {2, 3, 4},
   {5, 6, 7},
   {17, 21, 15},
   {19, 22, 55},
   {8, 42, 12},
   {9, 10},
   {19, 13, 14},
   {45},
   {11, 21},
   {16, 56, 39},
   {37},
   {48, 18},
   {60, 37, 47},
   {17, 18, 20},
   {24, 35, 36},
   {29, 22, 23},
   {50, 51},
   {28, 22, 44},
   {56, 59},
   {40, 33, 27},
   {26, 46},
   {35},
   {30},
   {25, 26, 31},
   {37, 38},
   {58},
   {34, 29, 30},
   {32, 41},
   {32},
   {46, 54, 38},
   {48, 43},
   {61},
   {47, 39},
   {58, 38},
   {41},
   {61},
   {58},
   {50},
   {45, 55},
   {48, 51, 43},
   {51, 46},
   {53},
   {50, 54},
   {52, 53},
   {49},
   {52},
   {49},
   {49},
   {52, 54},
   {53, 55},
   {57},
   {59},
   {60},
   {61},
   {57},
   {57},
   {60},
   {59},
   {62},
   {62},
   {62},
   {  } ];

deadline = array2d(1..62, 1..3, [8, 3, 5, 17, 4, 4, 20, 1, 2, 26, 1, 1, 28, 5, 5, 31, 4, 0, 34, 0, 5, 34, 1, 0, 35, 4, 5, 37, 0, 5, 37, 4, 5, 38, 2, 1, 42, 3, 1, 44, 1, 0, 44, 2, 4, 44, 5, 2, 45, 2, 2, 47, 0, 3, 47, 3, 0, 52, 2, 4, 55, 2, 0, 55, 0, 1, 59, 0, 3, 59, 0, 4, 69, 2, 4, 71, 4, 0, 75, 4, 0, 75, 3, 2, 77, 3, 0, 77, 4, 5, 80, 0, 4, 84, 5, 2, 85, 5, 5, 95, 1, 0, 97, 3, 3, 100, 5, 0, 101, 0, 3, 102, 3, 4, 106, 3, 4, 113, 2, 3, 115, 3, 1, 117, 4, 0, 120, 2, 1, 124, 3, 0, 126, 4, 1, 131, 3, 3, 137, 4, 0, 137, 3, 2, 137, 0, 2, 140, 4, 1, 147, 1, 4, 148, 5, 0, 152, 2, 3, 153, 0, 1, 155, 4, 5, 156, 4, 4, 160, 4, 0, 163, 3, 2, 170, 2, 0, 171, 3, 3, 172, 2, 0, 172, 1, 1]);
