n_res = 4;
rc = [ 62, 47, 58, 68 ];
n_tasks = 62;
d = [0, 1, 2, 5, 1, 3, 1, 4, 3, 6, 5, 9, 6, 10, 1, 4, 9, 3, 4, 10, 2, 5, 4, 10, 3, 6, 4, 3, 8, 8, 8, 10, 10, 8, 10, 3, 10, 8, 3, 7, 3, 6, 3, 7, 6, 7, 4, 9, 4, 7, 10, 5, 9, 5, 10, 2, 4, 10, 7, 7, 7, 0];
rr = array2d(1..4, 1..62, [0, 4, 4, 0, 9, 9, 0, 9, 4, 0, 8, 2, 1, 1, 6, 0, 4, 5, 1, 4, 0, 5, 3, 0, 5, 9, 7, 4, 4, 9, 4, 2, 8, 4, 2, 7, 5, 7, 4, 9, 10, 0, 1, 7, 6, 7, 4, 5, 5, 5, 0, 0, 10, 4, 0, 1, 0, 0, 5, 0, 0, 0, 0, 0, 3, 6, 0, 7, 3, 6, 4, 2, 1, 0, 0, 2, 3, 2, 1, 9, 3, 1, 6, 4, 5, 5, 6, 0, 8, 0, 1, 0, 3, 6, 10, 7, 0, 10, 9, 2, 0, 6, 5, 1, 9, 0, 4, 8, 1, 3, 0, 0, 1, 6, 0, 0, 6, 0, 4, 1, 5, 0, 1, 0, 0, 9, 0, 2, 8, 0, 6, 6, 7, 2, 5, 1, 9, 9, 9, 4, 7, 7, 10, 7, 7, 4, 3, 2, 7, 1, 8, 2, 0, 0, 0, 10, 0, 8, 0, 1, 8, 0, 2, 0, 3, 0, 8, 0, 4, 0, 9, 4, 0, 10, 8, 5, 8, 0, 5, 6, 0, 10, 8, 2, 2, 0, 0, 6, 10, 3, 5, 8, 4, 6, 7, 9, 10, 6, 0, 0, 0, 3, 4, 9, 0, 0, 9, 6, 1, 9, 10, 7, 4, 9, 0, 10, 1, 4, 0, 7, 0, 10, 4, 0, 0, 9, 8, 0, 10, 6, 0, 3, 9, 7, 5, 3, 8, 10, 3, 5, 4, 0, 7, 10, 5, 1, 0, 0]);

suc = [
   {2, 3, 4},
   {29, 34, 5},
   {9, 6},
   {17, 37},
   {8, 12, 20},
   {7},
   {48, 18, 55},
   {10, 27, 47},
   {33, 11, 38},
   {16, 13, 14},
   {35, 15},
   {56},
   {58},
   {32, 53, 15},
   {21},
   {26, 19, 21},
   {28, 31},
   {24, 22},
   {44},
   {25},
   {23},
   {35},
   {43, 44},
   {30},
   {42, 50, 39},
   {57},
   {31},
   {61},
   {37, 39},
   {57},
   {41},
   {36},
   {50, 44},
   {46},
   {45},
   {56, 51},
   {40, 41},
   {43},
   {56},
   {49},
   {42, 46},
   {52},
   {58},
   {59, 51},
   {60},
   {50},
   {53},
   {59},
   {60},
   {54},
   {57},
   {59},
   {54},
   {55},
   {58},
   {61},
   {60},
   {61},
   {62},
   {62},
   {62},
   {  } ];

deadline = array2d(1..62, 1..3, [8, 2, 3, 14, 0, 0, 14, 5, 4, 15, 0, 5, 29, 0, 4, 32, 4, 3, 34, 3, 3, 38, 2, 4, 38, 0, 0, 48, 2, 3, 49, 4, 4, 50, 2, 3, 54, 5, 4, 55, 1, 1, 56, 2, 4, 57, 0, 0, 57, 2, 3, 58, 0, 2, 58, 1, 2, 59, 3, 1, 63, 3, 5, 65, 2, 2, 65, 5, 2, 72, 0, 0, 73, 5, 0, 76, 3, 5, 77, 4, 5, 78, 2, 3, 81, 5, 1, 81, 3, 4, 82, 0, 5, 83, 5, 0, 86, 3, 2, 86, 2, 4, 91, 1, 3, 95, 1, 2, 98, 1, 2, 99, 1, 5, 104, 3, 5, 104, 3, 5, 105, 1, 5, 110, 3, 0, 117, 3, 1, 121, 2, 1, 122, 4, 5, 123, 4, 1, 134, 3, 4, 135, 4, 0, 135, 0, 2, 136, 5, 5, 142, 0, 0, 144, 5, 4, 151, 2, 2, 154, 4, 4, 161, 0, 1, 167, 2, 5, 170, 0, 5, 172, 0, 1, 173, 0, 2, 175, 5, 1, 175, 2, 2, 176, 1, 1]);
