n_res = 4;
rc = [ 19, 14, 19, 20 ];
n_tasks = 62;
d = [0, 6, 1, 8, 9, 1, 1, 1, 7, 1, 9, 8, 4, 7, 8, 10, 3, 10, 3, 5, 4, 9, 4, 6, 5, 7, 2, 9, 10, 3, 2, 6, 7, 2, 9, 5, 10, 2, 9, 2, 1, 7, 6, 6, 4, 1, 8, 2, 9, 10, 10, 3, 3, 7, 5, 4, 3, 7, 3, 5, 10, 0];
rr = array2d(1..4, 1..62, [0, 0, 5, 7, 0, 0, 0, 4, 10, 10, 9, 10, 10, 2, 6, 0, 0, 0, 8, 0, 0, 1, 1, 0, 0, 2, 0, 7, 9, 0, 0, 0, 6, 9, 2, 0, 9, 8, 7, 0, 3, 0, 7, 4, 8, 2, 10, 9, 0, 9, 9, 0, 6, 7, 1, 0, 1, 2, 0, 8, 7, 0, 0, 4, 0, 0, 3, 0, 9, 9, 5, 1, 0, 0, 0, 8, 0, 6, 1, 9, 0, 0, 0, 0, 3, 8, 3, 0, 0, 2, 0, 0, 0, 5, 0, 0, 0, 10, 0, 0, 0, 0, 0, 1, 0, 3, 0, 10, 0, 0, 0, 3, 7, 0, 0, 0, 6, 6, 10, 0, 6, 1, 0, 0, 0, 0, 2, 10, 5, 0, 0, 0, 10, 0, 0, 6, 0, 0, 4, 0, 0, 0, 9, 1, 2, 8, 7, 0, 1, 0, 3, 5, 0, 0, 8, 10, 0, 0, 0, 6, 0, 0, 3, 10, 7, 0, 0, 6, 0, 0, 5, 0, 7, 0, 0, 0, 5, 0, 0, 6, 7, 0, 3, 8, 0, 0, 0, 0, 0, 0, 2, 3, 0, 4, 4, 0, 0, 0, 1, 0, 0, 9, 0, 8, 7, 0, 5, 10, 6, 1, 0, 0, 0, 8, 3, 3, 0, 0, 6, 9, 0, 0, 1, 0, 4, 9, 0, 0, 0, 0, 6, 0, 2, 0, 4, 0, 1, 5, 8, 8, 0, 0, 0, 5, 0, 0, 4, 0]);

suc = [
   {2, 3, 4},
   {9, 20, 5},
   {56, 34, 11},
   {14, 6, 7},
   {17, 18, 13},
   {24, 30},
   {8, 10, 12},
   {16, 19, 15},
   {35, 55, 47},
   {27},
   {49},
   {29},
   {29, 21},
   {44},
   {39},
   {25, 53},
   {24, 33, 23},
   {42, 53},
   {26},
   {28, 22, 31},
   {45},
   {30},
   {27},
   {58},
   {26},
   {32},
   {57},
   {41},
   {54},
   {45},
   {56, 34},
   {43, 36},
   {40},
   {44, 60},
   {48, 57, 37},
   {51},
   {61, 38},
   {42},
   {49},
   {46},
   {60},
   {46},
   {50},
   {45},
   {54, 47},
   {54},
   {51},
   {52},
   {58},
   {56, 52},
   {59},
   {61},
   {57},
   {58},
   {60},
   {61},
   {59},
   {59},
   {62},
   {62},
   {62},
   {  } ];

deadline = array2d(1..62, 1..3, [2, 5, 3, 4, 1, 5, 7, 0, 2, 13, 3, 0, 15, 4, 1, 15, 0, 0, 15, 3, 1, 17, 2, 2, 18, 4, 1, 19, 0, 5, 21, 5, 2, 25, 2, 3, 26, 3, 2, 27, 1, 1, 39, 3, 4, 43, 1, 1, 46, 2, 0, 46, 3, 4, 50, 4, 2, 55, 2, 4, 57, 1, 4, 59, 3, 2, 61, 0, 3, 62, 5, 5, 73, 0, 3, 74, 0, 1, 84, 2, 5, 87, 1, 0, 93, 0, 5, 98, 3, 3, 99, 1, 0, 102, 0, 2, 107, 0, 2, 111, 3, 2, 112, 1, 1, 113, 1, 5, 117, 4, 2, 117, 2, 1, 118, 2, 1, 122, 1, 0, 125, 3, 5, 125, 3, 5, 128, 5, 3, 129, 5, 4, 129, 4, 1, 133, 3, 4, 134, 0, 3, 137, 4, 0, 144, 5, 2, 145, 5, 0, 148, 3, 1, 149, 1, 3, 158, 0, 2, 159, 1, 2, 161, 1, 0, 164, 5, 0, 167, 1, 2, 167, 2, 0, 168, 1, 3, 169, 5, 2, 169, 5, 2, 170, 0, 0]);
