n_res = 4;
rc = [ 49, 41, 47, 38 ];
n_tasks = 62;
d = [0, 10, 3, 8, 7, 1, 10, 10, 8, 3, 7, 2, 4, 1, 9, 9, 4, 2, 8, 10, 9, 7, 1, 8, 4, 8, 8, 9, 3, 6, 3, 1, 6, 4, 4, 7, 6, 1, 10, 5, 10, 7, 1, 7, 8, 2, 7, 8, 5, 5, 9, 2, 6, 9, 6, 3, 7, 1, 3, 2, 3, 0];
rr = array2d(1..4, 1..62, [0, 9, 0, 0, 0, 3, 0, 4, 6, 5, 4, 0, 0, 3, 0, 4, 5, 10, 6, 0, 0, 9, 0, 2, 1, 8, 0, 10, 5, 5, 0, 9, 6, 6, 0, 9, 7, 0, 0, 0, 0, 1, 0, 4, 2, 3, 10, 0, 10, 5, 2, 5, 1, 0, 0, 5, 0, 0, 1, 4, 0, 0, 0, 0, 2, 7, 0, 0, 1, 10, 2, 0, 10, 0, 0, 4, 0, 10, 3, 0, 0, 3, 5, 0, 8, 0, 2, 0, 9, 10, 0, 2, 0, 0, 0, 0, 0, 9, 1, 0, 0, 0, 2, 5, 5, 2, 8, 6, 7, 0, 0, 4, 0, 6, 0, 2, 3, 0, 0, 0, 0, 0, 0, 0, 0, 0, 0, 0, 3, 0, 0, 0, 8, 10, 1, 10, 3, 0, 6, 0, 0, 0, 0, 8, 5, 4, 0, 0, 10, 0, 0, 0, 5, 4, 4, 0, 8, 8, 0, 0, 8, 8, 0, 3, 0, 0, 4, 3, 0, 0, 0, 9, 0, 6, 6, 9, 10, 0, 0, 10, 9, 7, 0, 0, 0, 0, 0, 0, 0, 8, 10, 0, 1, 4, 9, 0, 0, 1, 0, 6, 9, 0, 0, 0, 9, 0, 0, 0, 0, 7, 0, 4, 4, 1, 0, 0, 0, 0, 9, 8, 8, 10, 0, 7, 3, 0, 0, 9, 0, 0, 0, 1, 0, 4, 2, 0, 0, 0, 0, 0, 0, 0, 8, 0, 2, 3, 8, 0]);

suc = [
   {2, 3, 4},
   {35, 5, 14},
   {8, 16, 26},
   {40, 20, 21},
   {19, 6, 7},
   {10, 11, 12},
   {9, 59, 17},
   {44, 31},
   {34},
   {16, 37},
   {18, 27, 15},
   {43, 13, 23},
   {22},
   {33},
   {41, 36},
   {34, 39},
   {52, 29},
   {30},
   {61},
   {51},
   {56, 28},
   {24, 25},
   {49},
   {54},
   {46},
   {43},
   {34},
   {53},
   {45},
   {57, 42, 52},
   {32, 33, 47},
   {48},
   {38},
   {50, 45},
   {60},
   {49},
   {53},
   {46},
   {46},
   {58},
   {55},
   {49},
   {56},
   {53, 45},
   {61},
   {56},
   {58},
   {61},
   {50},
   {60},
   {58, 52},
   {55},
   {57},
   {55},
   {60},
   {57},
   {59},
   {59},
   {62},
   {62},
   {62},
   {  } ];

deadline = array2d(1..62, 1..3, [4, 5, 4, 5, 5, 2, 6, 1, 1, 8, 2, 5, 10, 0, 0, 12, 3, 2, 13, 4, 5, 14, 1, 1, 18, 0, 3, 19, 3, 0, 20, 1, 5, 24, 4, 4, 27, 0, 3, 30, 3, 5, 35, 2, 4, 35, 3, 5, 43, 5, 2, 43, 2, 1, 48, 3, 1, 49, 2, 4, 52, 2, 2, 52, 4, 2, 57, 2, 1, 57, 3, 2, 60, 1, 0, 63, 3, 1, 65, 4, 3, 66, 5, 1, 71, 2, 4, 71, 5, 0, 73, 5, 1, 73, 4, 3, 74, 4, 5, 77, 3, 4, 80, 2, 2, 84, 1, 4, 94, 1, 1, 94, 4, 2, 99, 5, 4, 100, 5, 2, 102, 5, 0, 102, 3, 1, 103, 5, 4, 104, 5, 2, 109, 5, 5, 109, 0, 0, 110, 3, 3, 113, 3, 2, 113, 3, 0, 114, 5, 4, 114, 5, 4, 116, 2, 2, 116, 5, 2, 117, 1, 1, 117, 0, 3, 118, 4, 2, 122, 3, 1, 127, 1, 2, 127, 1, 4, 128, 3, 4, 130, 5, 2, 140, 1, 0]);
