n_res = 4;
rc = [ 45, 50, 45, 51 ];
n_tasks = 62;
d = [0, 2, 9, 5, 1, 7, 3, 7, 9, 4, 8, 10, 6, 2, 6, 10, 3, 1, 4, 2, 1, 4, 2, 1, 6, 7, 3, 6, 3, 2, 5, 5, 9, 10, 9, 8, 7, 5, 5, 4, 10, 1, 9, 8, 8, 2, 2, 10, 5, 4, 4, 9, 10, 10, 9, 7, 3, 10, 2, 6, 7, 0];
rr = array2d(1..4, 1..62, [0, 7, 8, 4, 9, 9, 8, 8, 1, 2, 5, 6, 10, 5, 8, 6, 2, 1, 9, 6, 3, 6, 9, 9, 9, 10, 8, 2, 6, 3, 2, 2, 6, 1, 10, 2, 10, 4, 10, 7, 3, 4, 2, 10, 3, 5, 7, 2, 8, 3, 10, 4, 3, 8, 1, 2, 10, 4, 6, 10, 10, 0, 0, 5, 1, 7, 1, 10, 4, 9, 6, 7, 3, 5, 10, 9, 10, 2, 8, 6, 6, 8, 1, 6, 7, 7, 8, 4, 7, 10, 9, 9, 6, 3, 1, 2, 2, 4, 8, 4, 3, 8, 9, 1, 2, 1, 7, 8, 5, 10, 10, 2, 8, 6, 9, 7, 7, 5, 9, 3, 8, 2, 3, 0, 0, 9, 2, 4, 8, 10, 10, 10, 4, 7, 9, 1, 5, 10, 10, 4, 6, 7, 10, 5, 8, 8, 9, 9, 5, 1, 5, 3, 9, 2, 3, 8, 2, 8, 3, 8, 9, 6, 3, 6, 5, 7, 6, 1, 2, 1, 7, 9, 5, 1, 9, 9, 8, 3, 4, 7, 10, 8, 7, 9, 10, 0, 0, 6, 2, 6, 7, 10, 8, 9, 5, 8, 1, 3, 4, 7, 3, 9, 1, 3, 7, 2, 5, 10, 5, 4, 2, 7, 5, 7, 1, 4, 5, 6, 3, 7, 3, 9, 8, 10, 8, 3, 8, 1, 9, 9, 9, 7, 2, 4, 2, 8, 10, 4, 2, 6, 1, 3, 5, 9, 8, 5, 7, 0]);

suc = [
   {2, 3, 4},
   {8, 13, 5},
   {17, 12, 7},
   {16, 18, 15},
   {9, 10, 6},
   {16, 32, 44},
   {28, 21, 44},
   {34, 11, 38},
   {34, 47},
   {24, 26, 23},
   {25, 20, 54},
   {35, 19, 14},
   {16, 51},
   {48, 15},
   {49},
   {41, 57, 23},
   {48, 38, 31},
   {37, 21},
   {25, 26, 22},
   {32, 22, 31},
   {40, 59, 23},
   {43, 36, 46},
   {42},
   {53, 46, 39},
   {49, 43, 46},
   {32, 27},
   {28, 31},
   {33, 29, 30},
   {41, 34, 37},
   {40, 41, 42},
   {43, 47, 39},
   {56, 36},
   {45, 37, 47},
   {36, 54, 55},
   {42},
   {40, 48, 53},
   {51, 38, 39},
   {50},
   {55},
   {61},
   {50, 52, 45},
   {50, 45},
   {51, 44},
   {57},
   {60, 54},
   {52},
   {57},
   {49, 60},
   {58},
   {58},
   {52, 53},
   {60, 55},
   {59},
   {56},
   {56, 59},
   {58},
   {61},
   {61},
   {62},
   {62},
   {62},
   {  } ];

deadline = array2d(1..62, 1..3, [2, 1, 3, 5, 1, 3, 7, 1, 1, 8, 0, 3, 11, 5, 4, 11, 4, 4, 14, 1, 2, 17, 0, 0, 40, 0, 1, 45, 4, 2, 46, 1, 1, 48, 0, 4, 48, 0, 2, 52, 0, 4, 54, 2, 4, 55, 1, 5, 56, 0, 4, 70, 1, 0, 71, 1, 4, 72, 1, 0, 73, 5, 1, 75, 5, 1, 75, 0, 4, 78, 2, 1, 78, 4, 4, 81, 3, 0, 91, 1, 5, 95, 1, 3, 101, 2, 4, 102, 4, 2, 109, 5, 2, 113, 0, 5, 119, 3, 4, 122, 2, 0, 123, 3, 0, 125, 2, 4, 125, 4, 3, 126, 3, 1, 138, 0, 4, 141, 1, 5, 142, 5, 3, 148, 5, 5, 148, 1, 3, 162, 2, 0, 162, 0, 4, 174, 4, 3, 176, 5, 4, 188, 3, 0, 201, 5, 3, 202, 5, 0, 206, 2, 3, 210, 5, 3, 215, 3, 4, 223, 5, 2, 223, 3, 5, 224, 1, 4, 231, 5, 1, 232, 0, 1, 236, 5, 0, 248, 5, 5, 249, 4, 3, 252, 0, 1]);
