n_res = 4;
rc = [ 21, 21, 19, 18 ];
n_tasks = 62;
d = [0, 1, 4, 3, 1, 10, 10, 9, 4, 2, 2, 2, 6, 4, 8, 3, 1, 4, 8, 2, 6, 10, 5, 4, 1, 1, 3, 6, 9, 8, 6, 1, 6, 3, 4, 8, 4, 9, 5, 7, 6, 7, 5, 1, 4, 9, 8, 3, 1, 9, 8, 9, 3, 8, 6, 4, 6, 9, 6, 6, 4, 0];
rr = array2d(1..4, 1..62, [0, 9, 5, 5, 6, 7, 9, 3, 10, 1, 7, 9, 6, 6, 7, 5, 10, 6, 4, 10, 1, 9, 2, 3, 7, 2, 2, 10, 8, 2, 8, 6, 6, 7, 2, 8, 4, 7, 10, 6, 7, 10, 7, 5, 5, 7, 9, 5, 3, 10, 10, 5, 4, 1, 4, 2, 3, 6, 3, 5, 5, 0, 0, 5, 9, 1, 9, 10, 5, 5, 6, 2, 9, 2, 9, 4, 8, 10, 1, 9, 10, 3, 2, 9, 1, 7, 3, 1, 1, 8, 2, 10, 4, 1, 8, 1, 8, 5, 8, 8, 9, 2, 8, 9, 6, 1, 10, 6, 7, 10, 2, 9, 3, 3, 7, 6, 3, 9, 3, 5, 3, 2, 5, 0, 0, 2, 3, 5, 5, 8, 2, 4, 2, 3, 2, 8, 7, 2, 6, 3, 9, 6, 4, 9, 5, 5, 4, 9, 10, 10, 8, 6, 3, 10, 2, 10, 2, 5, 4, 3, 10, 4, 8, 5, 2, 4, 10, 7, 3, 1, 4, 6, 4, 7, 10, 6, 7, 6, 7, 4, 4, 6, 4, 10, 5, 0, 0, 4, 8, 10, 10, 10, 7, 7, 10, 6, 1, 10, 6, 1, 5, 9, 10, 5, 2, 3, 10, 4, 3, 3, 5, 5, 8, 2, 5, 4, 5, 5, 5, 10, 3, 3, 6, 2, 10, 3, 4, 5, 3, 3, 2, 6, 5, 10, 5, 4, 3, 8, 2, 2, 6, 10, 10, 9, 6, 9, 7, 0]);

suc = [
   {2, 3, 4},
   {40, 14, 15},
   {8, 9, 7},
   {10, 37, 5},
   {25, 6, 22},
   {41, 45, 30},
   {28, 12, 13},
   {20, 37, 36},
   {42, 11, 15},
   {40, 19, 23},
   {16, 26, 59},
   {29, 19, 21},
   {17, 26, 35},
   {33, 26, 27},
   {25, 34, 55},
   {18, 44, 37},
   {19, 20, 46},
   {38, 25, 30},
   {56, 33, 36},
   {49, 54},
   {40, 54, 47},
   {50, 45, 31},
   {24, 49, 54},
   {34, 28, 29},
   {43, 46},
   {43, 29, 38},
   {28, 44},
   {32, 39},
   {58, 30},
   {52, 55, 47},
   {48, 38, 39},
   {42, 36, 45},
   {55},
   {43, 35},
   {44, 47, 39},
   {50},
   {41},
   {52},
   {59},
   {41, 50, 46},
   {49, 51},
   {48, 51},
   {51},
   {57, 53},
   {48},
   {61},
   {56, 57},
   {59},
   {52},
   {58},
   {58, 53},
   {57, 53},
   {56},
   {61},
   {60},
   {61},
   {60},
   {60},
   {62},
   {62},
   {62},
   {  } ];

deadline = array2d(1..62, 1..3, [1, 2, 0, 1, 2, 1, 2, 3, 1, 8, 4, 4, 14, 0, 2, 15, 1, 3, 15, 0, 0, 16, 1, 5, 19, 2, 1, 23, 1, 0, 26, 5, 3, 30, 5, 1, 33, 4, 2, 36, 0, 2, 37, 5, 5, 46, 0, 5, 49, 3, 3, 51, 5, 5, 53, 3, 3, 55, 2, 5, 56, 1, 2, 58, 5, 0, 58, 3, 3, 59, 2, 1, 60, 4, 4, 60, 0, 2, 61, 1, 0, 69, 1, 3, 72, 0, 3, 76, 2, 3, 77, 3, 1, 80, 3, 0, 82, 4, 0, 88, 2, 5, 90, 1, 4, 96, 5, 5, 101, 2, 3, 105, 3, 2, 106, 1, 2, 107, 2, 4, 108, 3, 5, 108, 1, 3, 109, 3, 5, 109, 2, 1, 110, 4, 4, 112, 5, 2, 113, 4, 5, 118, 2, 0, 120, 0, 1, 121, 5, 3, 125, 2, 1, 126, 0, 0, 127, 5, 2, 128, 5, 3, 131, 4, 4, 135, 1, 4, 138, 3, 1, 140, 4, 1, 145, 1, 3, 147, 0, 5, 149, 5, 4, 149, 3, 3]);
