n_res = 4;
rc = [ 15, 9, 14, 15 ];
n_tasks = 62;
d = [0, 3, 3, 5, 6, 4, 7, 10, 3, 7, 1, 3, 9, 1, 7, 3, 3, 1, 3, 9, 2, 8, 6, 4, 2, 6, 1, 8, 3, 10, 2, 3, 5, 9, 4, 3, 5, 8, 6, 1, 10, 1, 10, 1, 9, 9, 6, 6, 3, 8, 9, 6, 8, 2, 2, 1, 7, 5, 4, 5, 1, 0];
rr = array2d(1..4, 1..62, [0, 0, 0, 0, 0, 0, 0, 10, 0, 7, 0, 10, 0, 0, 0, 0, 9, 3, 0, 0, 0, 0, 0, 0, 0, 8, 0, 0, 0, 0, 4, 3, 10, 5, 0, 0, 1, 0, 4, 0, 0, 0, 0, 3, 0, 9, 0, 0, 0, 0, 8, 0, 0, 0, 0, 0, 2, 0, 0, 0, 0, 0, 0, 0, 0, 3, 0, 8, 0, 0, 0, 0, 0, 0, 0, 0, 0, 0, 0, 0, 0, 0, 0, 0, 0, 0, 0, 0, 2, 5, 0, 0, 0, 0, 0, 0, 0, 9, 0, 0, 0, 6, 0, 0, 0, 0, 0, 0, 0, 0, 8, 9, 0, 0, 6, 0, 0, 0, 0, 0, 2, 0, 0, 0, 0, 0, 3, 0, 7, 0, 6, 0, 5, 0, 0, 0, 0, 0, 9, 0, 0, 0, 2, 10, 0, 3, 0, 0, 0, 0, 0, 0, 0, 0, 0, 0, 0, 0, 0, 0, 0, 0, 0, 0, 5, 0, 0, 0, 0, 0, 8, 0, 0, 0, 0, 0, 0, 0, 0, 10, 0, 0, 0, 4, 0, 0, 0, 5, 0, 0, 0, 0, 0, 0, 0, 0, 6, 0, 6, 5, 0, 9, 0, 0, 0, 0, 5, 0, 8, 2, 5, 0, 0, 0, 4, 1, 0, 0, 0, 0, 10, 0, 0, 10, 0, 0, 0, 5, 8, 0, 7, 0, 0, 1, 0, 0, 0, 5, 0, 2, 7, 0, 0, 6, 0, 0, 9, 0]);

suc = [
   {2, 3, 4},
   {25, 10, 53},
   {9, 19, 5},
   {12, 6},
   {8, 32, 51},
   {15, 13, 7},
   {18, 44, 37},
   {27},
   {11, 21},
   {36, 29, 31},
   {16, 14, 23},
   {42, 58, 47},
   {17, 45, 46},
   {32},
   {60, 30, 55},
   {49, 20},
   {18, 38},
   {33},
   {24, 54, 22},
   {61},
   {52},
   {45, 37},
   {26, 28},
   {31},
   {44, 37},
   {27, 39},
   {34, 44},
   {35, 36, 45},
   {35},
   {48, 50, 53},
   {35},
   {34, 55},
   {41},
   {47},
   {42},
   {40, 49, 43},
   {40, 41, 43},
   {42, 39},
   {41},
   {48},
   {48, 52, 47},
   {60},
   {52},
   {57, 54},
   {50},
   {49, 51},
   {56, 50},
   {58},
   {56, 59},
   {57},
   {56, 53},
   {55},
   {61},
   {58},
   {57, 59},
   {60},
   {61},
   {59},
   {62},
   {62},
   {62},
   {  } ];

deadline = array2d(1..62, 1..3, [3, 1, 5, 6, 1, 5, 8, 1, 5, 9, 2, 1, 14, 0, 1, 16, 3, 0, 18, 1, 2, 20, 3, 3, 21, 5, 3, 22, 1, 1, 22, 4, 0, 24, 2, 3, 25, 4, 2, 35, 3, 1, 36, 1, 0, 37, 5, 2, 43, 0, 1, 45, 5, 5, 46, 4, 0, 47, 5, 4, 51, 5, 3, 52, 1, 1, 56, 2, 1, 57, 1, 1, 57, 0, 4, 59, 4, 4, 62, 2, 3, 66, 0, 0, 68, 2, 0, 69, 1, 4, 69, 5, 5, 72, 3, 2, 73, 4, 2, 80, 4, 4, 83, 0, 2, 84, 2, 1, 85, 4, 3, 86, 1, 5, 93, 2, 5, 95, 3, 3, 100, 5, 1, 103, 3, 2, 104, 2, 1, 106, 5, 2, 114, 0, 0, 117, 5, 2, 124, 1, 5, 124, 2, 2, 126, 3, 2, 126, 5, 0, 127, 1, 3, 134, 0, 3, 138, 1, 1, 139, 1, 3, 148, 1, 0, 148, 2, 2, 150, 5, 2, 151, 4, 0, 152, 5, 2, 154, 1, 1, 154, 0, 4, 156, 0, 2]);
