n_res = 4;
rc = [ 37, 36, 28, 28 ];
n_tasks = 62;
d = [0, 8, 2, 3, 5, 1, 5, 9, 9, 5, 6, 9, 1, 6, 4, 10, 6, 4, 8, 7, 4, 3, 3, 1, 9, 10, 6, 3, 10, 9, 4, 1, 1, 10, 5, 8, 6, 3, 8, 2, 2, 8, 1, 8, 8, 4, 5, 4, 4, 6, 9, 8, 3, 1, 6, 7, 2, 4, 5, 1, 6, 0];
rr = array2d(1..4, 1..62, [0, 2, 6, 1, 1, 0, 0, 0, 0, 0, 3, 0, 0, 5, 9, 0, 0, 0, 6, 3, 0, 9, 8, 0, 0, 0, 0, 7, 0, 5, 8, 0, 0, 6, 0, 8, 3, 10, 6, 6, 5, 0, 3, 3, 0, 0, 3, 5, 0, 8, 3, 8, 0, 3, 0, 0, 3, 3, 0, 4, 7, 0, 0, 3, 7, 0, 3, 0, 0, 0, 10, 0, 10, 0, 0, 0, 0, 10, 0, 0, 0, 0, 0, 0, 1, 8, 0, 0, 10, 8, 0, 1, 0, 6, 0, 7, 5, 6, 0, 9, 10, 4, 10, 5, 0, 4, 0, 0, 7, 1, 5, 0, 0, 0, 2, 3, 0, 0, 0, 2, 0, 0, 1, 0, 0, 10, 6, 9, 2, 5, 0, 0, 1, 0, 0, 0, 6, 0, 4, 2, 7, 2, 2, 0, 0, 7, 5, 4, 10, 2, 5, 0, 9, 0, 0, 0, 5, 6, 0, 6, 0, 9, 6, 8, 0, 0, 0, 0, 4, 0, 0, 0, 0, 8, 0, 10, 0, 0, 2, 7, 0, 0, 5, 9, 0, 0, 0, 5, 0, 0, 0, 0, 5, 2, 5, 1, 2, 5, 3, 0, 8, 0, 0, 5, 0, 1, 10, 9, 0, 0, 0, 7, 0, 0, 7, 0, 0, 0, 9, 5, 7, 5, 5, 0, 0, 0, 3, 0, 0, 0, 9, 6, 0, 0, 0, 6, 0, 0, 0, 7, 6, 0, 2, 9, 0, 0, 0, 0]);

suc = [
   {2, 3, 4},
   {8, 9, 11},
   {19, 10, 18},
   {5, 6, 7},
   {32, 50},
   {8, 19, 61},
   {16, 15},
   {25, 53, 13},
   {21},
   {40, 17, 13},
   {41, 12},
   {14},
   {58, 44, 46},
   {24, 27, 29},
   {26},
   {27, 19},
   {35, 22},
   {56, 52, 30},
   {41, 20, 23},
   {58},
   {36, 45, 52},
   {28},
   {58, 30},
   {48, 42, 31},
   {57, 38},
   {35, 38, 31},
   {47},
   {49},
   {34},
   {39},
   {61},
   {33, 37},
   {35, 45},
   {40, 51, 61},
   {51, 52},
   {37, 47},
   {48, 60, 38},
   {43},
   {44},
   {44, 46},
   {56, 50, 43},
   {49, 43},
   {59},
   {50},
   {49, 46},
   {57},
   {48},
   {53, 54},
   {56, 57},
   {55},
   {54},
   {53, 54},
   {55},
   {55},
   {59},
   {60},
   {59},
   {60},
   {62},
   {62},
   {62},
   {  } ];

deadline = array2d(1..62, 1..3, [1, 4, 4, 3, 5, 4, 3, 0, 2, 11, 0, 5, 17, 1, 4, 17, 0, 1, 27, 2, 4, 29, 4, 4, 29, 0, 0, 30, 3, 0, 30, 3, 5, 36, 2, 0, 37, 0, 4, 40, 0, 2, 41, 1, 5, 49, 4, 1, 52, 4, 1, 56, 0, 3, 59, 4, 1, 59, 5, 4, 72, 5, 4, 73, 2, 4, 76, 0, 3, 81, 2, 1, 82, 0, 2, 83, 0, 2, 84, 5, 5, 84, 2, 5, 89, 0, 3, 95, 4, 4, 99, 1, 2, 100, 2, 5, 102, 3, 5, 102, 5, 5, 106, 5, 4, 107, 0, 1, 109, 3, 2, 110, 2, 3, 113, 1, 1, 113, 3, 5, 118, 2, 5, 119, 1, 4, 122, 1, 3, 124, 3, 1, 125, 5, 2, 126, 3, 3, 128, 4, 4, 134, 5, 5, 144, 5, 4, 148, 1, 2, 151, 3, 5, 159, 0, 1, 160, 4, 3, 164, 3, 1, 166, 5, 0, 167, 2, 2, 167, 5, 5, 169, 5, 0, 172, 3, 4, 172, 0, 3, 189, 0, 0, 189, 1, 0]);
