n_res = 4;
rc = [ 38, 38, 43, 42 ];
n_tasks = 62;
d = [0, 2, 4, 1, 5, 7, 6, 7, 4, 10, 4, 10, 2, 3, 9, 10, 8, 4, 8, 3, 6, 8, 8, 5, 4, 10, 10, 4, 9, 9, 10, 1, 10, 7, 4, 7, 3, 6, 2, 2, 4, 5, 1, 3, 7, 9, 3, 1, 10, 3, 6, 4, 7, 4, 10, 10, 10, 9, 1, 4, 9, 0];
rr = array2d(1..4, 1..62, [0, 1, 0, 0, 0, 3, 0, 2, 0, 0, 5, 0, 4, 10, 4, 0, 0, 1, 0, 4, 0, 0, 0, 1, 1, 5, 0, 8, 0, 5, 9, 9, 7, 1, 10, 0, 0, 4, 0, 0, 10, 0, 0, 7, 6, 0, 0, 0, 0, 0, 0, 2, 0, 3, 7, 8, 7, 0, 0, 0, 10, 0, 0, 0, 6, 0, 4, 0, 1, 0, 0, 5, 3, 1, 4, 2, 0, 7, 0, 4, 7, 4, 10, 0, 0, 0, 9, 8, 2, 2, 0, 9, 0, 3, 3, 0, 1, 0, 1, 7, 0, 0, 8, 0, 0, 4, 0, 8, 0, 1, 7, 8, 9, 10, 9, 0, 0, 0, 0, 0, 0, 0, 0, 0, 0, 0, 0, 0, 0, 8, 0, 0, 0, 0, 8, 0, 0, 0, 0, 7, 0, 3, 0, 6, 0, 2, 9, 3, 9, 0, 10, 10, 8, 6, 6, 5, 4, 2, 0, 3, 9, 0, 4, 0, 0, 0, 10, 0, 0, 7, 4, 0, 0, 0, 0, 0, 3, 9, 3, 0, 0, 0, 0, 0, 0, 0, 0, 0, 7, 1, 1, 0, 0, 3, 5, 0, 0, 9, 0, 10, 1, 8, 2, 9, 2, 5, 4, 1, 0, 0, 0, 8, 8, 0, 0, 0, 5, 9, 10, 0, 3, 0, 0, 0, 0, 3, 0, 7, 0, 6, 0, 0, 0, 1, 4, 0, 0, 3, 0, 4, 3, 6, 1, 9, 6, 6, 0, 0]);

suc = [
   {2, 3, 4},
   {35, 20, 7},
   {9, 10, 6},
   {61, 5, 22},
   {8, 16, 24},
   {25, 58, 12},
   {32},
   {42, 29},
   {26},
   {11, 14},
   {21, 30, 31},
   {17, 13, 15},
   {32, 18},
   {30},
   {28},
   {43, 44},
   {36},
   {27, 19, 53},
   {44},
   {43, 23},
   {61},
   {55},
   {28},
   {60},
   {49},
   {54, 38, 39},
   {40, 41},
   {37},
   {40},
   {34},
   {33, 52, 46},
   {48},
   {40},
   {47},
   {50},
   {37},
   {44},
   {48, 51},
   {50, 45},
   {56},
   {56},
   {43},
   {50},
   {52},
   {49, 46},
   {57},
   {55},
   {56},
   {53},
   {55},
   {58},
   {60},
   {60, 61},
   {59},
   {57},
   {57},
   {59},
   {59},
   {62},
   {62},
   {62},
   {  } ];

deadline = array2d(1..62, 1..3, [1, 3, 5, 2, 5, 2, 3, 1, 2, 3, 4, 0, 3, 4, 4, 4, 0, 0, 11, 3, 4, 13, 0, 5, 19, 5, 1, 20, 0, 5, 22, 2, 4, 22, 5, 0, 22, 1, 5, 24, 5, 1, 25, 5, 4, 25, 1, 4, 27, 3, 0, 31, 0, 2, 34, 3, 0, 35, 5, 0, 39, 5, 4, 47, 1, 4, 50, 2, 0, 51, 2, 1, 62, 4, 5, 66, 2, 5, 66, 1, 4, 72, 4, 5, 72, 0, 5, 83, 3, 3, 83, 0, 2, 84, 2, 2, 85, 3, 1, 86, 3, 0, 87, 2, 0, 87, 5, 0, 89, 3, 4, 96, 0, 2, 99, 5, 1, 103, 3, 1, 105, 4, 5, 109, 2, 4, 110, 5, 0, 114, 3, 5, 114, 0, 5, 115, 1, 2, 116, 5, 4, 119, 1, 0, 128, 4, 4, 130, 1, 4, 136, 3, 1, 141, 1, 2, 142, 0, 0, 143, 1, 5, 144, 3, 0, 147, 2, 4, 147, 3, 4, 148, 0, 4, 150, 3, 2, 152, 3, 0, 154, 0, 1, 155, 5, 1]);
