n_res = 4;
rc = [ 17, 22, 12, 13 ];
n_tasks = 62;
d = [0, 4, 1, 9, 2, 5, 5, 3, 3, 5, 5, 8, 2, 7, 7, 9, 3, 10, 9, 4, 10, 9, 10, 6, 5, 10, 10, 2, 5, 10, 1, 8, 6, 5, 3, 3, 3, 3, 5, 1, 6, 4, 6, 1, 8, 3, 6, 5, 7, 9, 1, 7, 10, 1, 3, 7, 7, 10, 1, 6, 2, 0];
rr = array2d(1..4, 1..62, [0, 8, 0, 7, 0, 0, 10, 9, 6, 0, 0, 8, 0, 0, 1, 9, 3, 0, 0, 0, 0, 0, 0, 2, 0, 0, 0, 9, 0, 0, 0, 0, 0, 4, 0, 3, 0, 1, 0, 0, 1, 0, 9, 0, 0, 0, 10, 0, 0, 0, 10, 5, 0, 0, 0, 0, 4, 0, 0, 0, 10, 0, 0, 0, 2, 0, 0, 0, 0, 0, 0, 0, 0, 0, 10, 0, 0, 0, 0, 5, 5, 5, 6, 0, 0, 0, 0, 8, 0, 0, 0, 10, 7, 0, 0, 0, 0, 0, 10, 0, 0, 0, 0, 3, 0, 0, 4, 10, 0, 0, 5, 9, 0, 0, 10, 0, 0, 10, 0, 0, 1, 7, 0, 0, 0, 0, 0, 0, 0, 3, 0, 0, 0, 4, 3, 0, 0, 0, 0, 0, 0, 0, 0, 0, 0, 0, 0, 0, 0, 0, 5, 0, 9, 0, 0, 0, 0, 0, 0, 0, 0, 0, 5, 4, 0, 0, 0, 3, 0, 0, 0, 0, 0, 0, 0, 0, 0, 6, 5, 0, 0, 0, 0, 0, 0, 0, 0, 0, 0, 0, 5, 0, 0, 0, 0, 0, 0, 0, 0, 10, 0, 0, 0, 0, 0, 0, 0, 4, 6, 0, 1, 0, 0, 0, 0, 0, 0, 9, 2, 0, 4, 0, 0, 0, 0, 0, 0, 0, 0, 0, 0, 0, 0, 6, 0, 0, 0, 0, 0, 0, 0, 0, 0, 3, 0, 0, 0, 0]);

suc = [
   {2, 3, 4},
   {19, 5, 6},
   {9, 14, 23},
   {8, 28, 7},
   {33, 11},
   {20, 30, 23},
   {34, 38},
   {9, 12, 13},
   {48, 10, 29},
   {16, 41, 15},
   {24, 38},
   {24, 49},
   {17, 14},
   {32, 25, 21},
   {18, 53, 39},
   {54, 22, 31},
   {32, 22},
   {33, 34, 22},
   {25, 26, 52},
   {52, 37},
   {36, 29},
   {30},
   {28},
   {43, 54, 39},
   {27, 44, 31},
   {41, 36, 37},
   {48, 33, 41},
   {35, 29, 31},
   {52, 46, 39},
   {40, 57, 35},
   {42},
   {40, 36, 37},
   {35, 38},
   {57, 44},
   {49, 46},
   {48, 42, 47},
   {42, 43, 45},
   {61},
   {56, 50},
   {51, 43, 44},
   {50, 51, 47},
   {51, 46},
   {55},
   {49, 50, 61},
   {58, 47},
   {61},
   {53, 54},
   {56},
   {58},
   {58},
   {56, 59},
   {53},
   {57, 55},
   {55},
   {59, 60},
   {60},
   {59},
   {60},
   {62},
   {62},
   {62},
   {  } ];

deadline = array2d(1..62, 1..3, [1, 2, 1, 4, 5, 4, 6, 4, 3, 8, 3, 4, 20, 3, 1, 21, 2, 1, 27, 4, 5, 41, 4, 0, 42, 2, 1, 44, 3, 1, 46, 4, 0, 47, 1, 2, 52, 1, 4, 53, 4, 3, 57, 2, 4, 60, 0, 5, 64, 4, 2, 68, 4, 3, 70, 4, 2, 73, 0, 0, 76, 0, 2, 78, 3, 5, 78, 2, 1, 81, 0, 4, 82, 2, 3, 82, 0, 0, 85, 0, 2, 91, 3, 4, 92, 1, 5, 93, 5, 4, 100, 4, 4, 107, 1, 3, 113, 0, 2, 114, 1, 2, 117, 1, 0, 120, 4, 5, 125, 1, 0, 126, 2, 1, 127, 4, 0, 130, 3, 4, 131, 1, 2, 132, 2, 3, 134, 2, 3, 137, 3, 1, 142, 3, 1, 151, 4, 2, 156, 2, 0, 158, 5, 2, 170, 4, 3, 172, 2, 1, 175, 0, 1, 175, 5, 5, 176, 3, 4, 180, 4, 4, 187, 5, 3, 191, 1, 5, 194, 5, 1, 202, 2, 3, 202, 0, 1, 203, 5, 4, 204, 1, 4, 207, 5, 1]);
