n_res = 4;
rc = [ 26, 24, 25, 24 ];
n_tasks = 62;
d = [0, 5, 4, 3, 10, 5, 1, 3, 1, 7, 7, 4, 9, 1, 1, 9, 5, 8, 9, 4, 3, 5, 3, 6, 5, 10, 8, 2, 8, 5, 5, 1, 7, 6, 7, 5, 2, 6, 8, 7, 7, 7, 2, 5, 4, 6, 10, 7, 8, 6, 2, 2, 4, 3, 10, 9, 4, 10, 5, 10, 2, 0];
rr = array2d(1..4, 1..62, [0, 7, 0, 0, 7, 10, 0, 6, 1, 9, 10, 2, 8, 0, 4, 9, 0, 0, 0, 0, 0, 7, 0, 3, 9, 7, 4, 1, 5, 4, 6, 8, 4, 4, 0, 8, 6, 1, 3, 6, 10, 10, 1, 8, 7, 3, 0, 10, 3, 0, 0, 4, 5, 8, 9, 3, 7, 8, 7, 5, 9, 0, 0, 1, 0, 5, 2, 2, 0, 9, 4, 6, 3, 7, 0, 5, 0, 3, 0, 0, 10, 9, 9, 10, 4, 7, 4, 1, 9, 2, 0, 8, 0, 0, 0, 6, 0, 7, 2, 2, 0, 10, 6, 9, 2, 9, 1, 4, 10, 0, 5, 5, 8, 7, 7, 8, 1, 9, 0, 4, 5, 0, 5, 0, 0, 7, 4, 9, 5, 0, 6, 8, 0, 6, 10, 0, 4, 1, 0, 10, 7, 0, 0, 1, 3, 9, 9, 6, 0, 2, 7, 5, 3, 1, 1, 4, 5, 10, 7, 9, 0, 4, 4, 8, 0, 0, 1, 0, 7, 9, 8, 0, 6, 6, 9, 2, 2, 7, 0, 0, 5, 10, 0, 0, 4, 0, 0, 0, 0, 6, 6, 4, 7, 9, 7, 10, 1, 10, 1, 4, 0, 3, 6, 7, 2, 4, 5, 8, 6, 4, 0, 0, 6, 0, 10, 5, 3, 0, 6, 6, 4, 8, 8, 4, 6, 0, 1, 0, 3, 0, 8, 7, 2, 0, 0, 6, 7, 7, 9, 10, 1, 4, 1, 2, 0, 6, 0, 0]);

suc = [
   {2, 3, 4},
   {11, 14, 39},
   {8, 24, 6},
   {17, 21, 5},
   {10, 13, 55},
   {9, 18, 7},
   {23, 15},
   {18, 19},
   {33, 34},
   {48, 12, 45},
   {27, 20, 22},
   {50, 30, 31},
   {16, 19, 28},
   {17, 18, 37},
   {21},
   {33, 50, 38},
   {32, 27, 52},
   {21, 31},
   {40, 34, 43},
   {24, 26},
   {30},
   {24, 25, 31},
   {40, 25, 29},
   {32, 34, 29},
   {32, 28},
   {41, 42, 36},
   {29, 38, 47},
   {43, 35, 37},
   {45, 46, 55},
   {49, 35},
   {36, 54},
   {57, 36, 55},
   {35, 39},
   {56, 50, 54},
   {59, 51},
   {49},
   {48, 38},
   {49, 58, 60},
   {56, 42},
   {42, 46, 47},
   {43, 44, 46},
   {45, 54},
   {59},
   {51, 52, 47},
   {51},
   {58},
   {48, 56},
   {58, 53},
   {59},
   {57, 52},
   {53},
   {53},
   {60},
   {57},
   {60},
   {61},
   {61},
   {61},
   {62},
   {62},
   {62},
   {  } ];

deadline = array2d(1..62, 1..3, [4, 4, 1, 5, 2, 4, 8, 3, 4, 12, 0, 4, 17, 3, 4, 25, 5, 1, 28, 4, 1, 34, 1, 3, 34, 3, 3, 34, 4, 1, 35, 5, 0, 39, 0, 1, 44, 4, 4, 46, 2, 2, 46, 4, 0, 49, 5, 0, 50, 1, 3, 57, 0, 5, 59, 1, 4, 60, 5, 5, 60, 3, 3, 62, 2, 5, 62, 5, 2, 64, 5, 3, 70, 3, 1, 72, 4, 0, 72, 3, 0, 73, 0, 4, 75, 4, 5, 82, 0, 5, 85, 4, 5, 87, 3, 0, 97, 2, 4, 106, 1, 0, 111, 4, 5, 112, 0, 1, 114, 1, 3, 114, 0, 2, 119, 0, 2, 120, 2, 4, 126, 0, 2, 128, 4, 0, 131, 1, 3, 133, 4, 1, 134, 1, 3, 134, 0, 2, 134, 5, 5, 137, 4, 3, 138, 5, 5, 140, 2, 5, 144, 0, 4, 151, 2, 4, 157, 1, 2, 167, 5, 4, 171, 1, 1, 172, 3, 0, 173, 2, 0, 176, 0, 5, 177, 0, 4, 178, 1, 2, 180, 2, 5, 181, 4, 0]);
