n_res = 4;
rc = [ 13, 15, 11, 14 ];
n_tasks = 62;
d = [0, 4, 8, 3, 5, 7, 7, 7, 7, 8, 6, 1, 5, 2, 10, 7, 8, 3, 8, 1, 9, 9, 6, 6, 4, 7, 1, 1, 4, 10, 7, 7, 3, 7, 1, 2, 2, 8, 9, 10, 9, 7, 9, 8, 4, 8, 1, 1, 2, 6, 8, 2, 8, 9, 4, 8, 2, 1, 4, 1, 10, 0];
rr = array2d(1..4, 1..62, [0, 0, 1, 0, 0, 0, 10, 8, 3, 10, 8, 0, 1, 0, 1, 0, 0, 0, 6, 0, 5, 0, 2, 0, 6, 4, 0, 0, 0, 5, 0, 0, 0, 0, 10, 0, 0, 1, 2, 0, 3, 2, 0, 0, 0, 0, 7, 0, 10, 0, 0, 0, 0, 0, 6, 2, 0, 4, 10, 1, 0, 0, 0, 1, 8, 3, 0, 0, 0, 10, 0, 6, 0, 4, 5, 9, 3, 9, 7, 0, 10, 4, 0, 0, 3, 9, 0, 0, 7, 8, 0, 0, 8, 0, 0, 1, 0, 10, 3, 1, 0, 2, 8, 5, 7, 0, 9, 0, 0, 0, 4, 7, 3, 6, 9, 0, 4, 0, 7, 9, 0, 0, 9, 0, 0, 0, 0, 0, 8, 3, 0, 4, 3, 0, 1, 2, 0, 1, 4, 0, 5, 0, 0, 4, 0, 3, 0, 0, 2, 8, 0, 0, 8, 0, 0, 0, 0, 0, 5, 8, 0, 0, 0, 0, 8, 7, 0, 3, 8, 4, 0, 2, 0, 0, 0, 1, 4, 8, 0, 0, 2, 0, 4, 0, 2, 0, 0, 8, 0, 3, 0, 10, 1, 0, 0, 0, 0, 9, 1, 1, 0, 0, 0, 5, 2, 0, 0, 0, 4, 9, 0, 0, 10, 3, 10, 9, 4, 1, 1, 0, 10, 0, 2, 6, 0, 0, 0, 9, 0, 0, 0, 0, 5, 7, 2, 0, 0, 6, 0, 8, 5, 2, 2, 0, 9, 0, 0, 0]);

suc = [
   {2, 3, 4},
   {16, 12, 20},
   {57, 7},
   {17, 5, 6},
   {9, 11, 15},
   {18},
   {8, 10, 53},
   {44, 14, 23},
   {19, 31},
   {17, 27, 13},
   {21},
   {29},
   {61, 22},
   {25, 36},
   {24, 37, 39},
   {38},
   {43, 19, 59},
   {42, 52},
   {60},
   {44, 61},
   {33, 26, 47},
   {28, 46, 23},
   {56, 43, 29},
   {45},
   {28, 45},
   {32, 45, 30},
   {35},
   {35},
   {40},
   {34, 50},
   {41, 34},
   {34, 39},
   {51, 55},
   {57, 51, 44},
   {42, 38},
   {41},
   {56, 51, 47},
   {40, 43},
   {48, 57, 56},
   {49, 58},
   {48, 46},
   {49},
   {52},
   {54},
   {48, 49},
   {54, 47},
   {52},
   {50},
   {50, 54},
   {55},
   {53},
   {58},
   {60},
   {55},
   {59},
   {58, 59},
   {61},
   {60},
   {62},
   {62},
   {62},
   {  } ];

deadline = array2d(1..62, 1..3, [3, 3, 5, 10, 3, 3, 14, 0, 1, 16, 1, 5, 19, 5, 4, 29, 0, 5, 30, 4, 3, 32, 3, 3, 33, 4, 5, 36, 0, 1, 38, 0, 3, 39, 0, 2, 40, 0, 2, 41, 2, 1, 42, 3, 5, 49, 4, 3, 49, 1, 3, 50, 4, 1, 55, 0, 3, 57, 0, 5, 60, 1, 4, 61, 4, 4, 63, 4, 4, 63, 2, 5, 65, 3, 4, 70, 2, 5, 71, 3, 4, 71, 4, 0, 72, 5, 5, 74, 1, 5, 74, 5, 5, 74, 5, 2, 80, 0, 2, 80, 0, 5, 83, 0, 2, 86, 2, 2, 86, 5, 3, 94, 2, 1, 94, 4, 2, 99, 3, 0, 101, 2, 0, 102, 1, 2, 103, 3, 5, 105, 3, 5, 111, 0, 4, 114, 3, 1, 114, 0, 0, 118, 4, 2, 130, 4, 5, 135, 1, 5, 142, 0, 1, 148, 4, 5, 153, 0, 1, 165, 4, 0, 175, 4, 1, 177, 5, 2, 181, 3, 0, 181, 5, 4, 181, 0, 5, 184, 5, 3, 184, 3, 5, 189, 2, 2]);
