n_res = 4;
rc = [ 16, 14, 16, 16 ];
n_tasks = 62;
d = [0, 7, 10, 3, 3, 6, 5, 9, 9, 9, 4, 8, 1, 3, 9, 10, 4, 2, 9, 1, 8, 5, 6, 2, 10, 3, 1, 2, 5, 3, 4, 7, 10, 8, 9, 5, 3, 3, 10, 4, 2, 9, 5, 1, 10, 10, 10, 9, 4, 5, 6, 8, 10, 4, 8, 6, 10, 7, 2, 10, 4, 0];
rr = array2d(1..4, 1..62, [0, 0, 10, 0, 0, 3, 6, 1, 7, 4, 4, 0, 4, 7, 5, 4, 0, 0, 0, 7, 2, 0, 4, 0, 8, 0, 0, 3, 0, 3, 5, 9, 3, 0, 9, 5, 3, 3, 1, 4, 0, 4, 10, 0, 2, 5, 6, 9, 5, 5, 3, 7, 0, 0, 1, 10, 0, 5, 0, 1, 9, 0, 0, 7, 5, 2, 0, 7, 4, 5, 4, 2, 1, 6, 8, 1, 0, 8, 8, 4, 7, 3, 4, 0, 0, 8, 0, 5, 0, 1, 0, 3, 4, 5, 1, 1, 6, 1, 1, 0, 6, 2, 10, 5, 4, 7, 0, 2, 0, 2, 9, 6, 8, 0, 8, 1, 8, 8, 3, 4, 0, 2, 7, 0, 0, 7, 7, 2, 0, 9, 1, 10, 1, 0, 0, 9, 0, 0, 10, 7, 9, 5, 3, 8, 6, 6, 2, 4, 5, 2, 4, 4, 1, 9, 1, 0, 4, 4, 2, 6, 3, 0, 0, 7, 10, 0, 8, 8, 3, 1, 0, 10, 1, 0, 5, 3, 0, 3, 4, 6, 2, 7, 8, 10, 4, 0, 0, 0, 5, 8, 1, 4, 8, 2, 10, 5, 1, 3, 10, 0, 1, 0, 6, 5, 10, 2, 10, 10, 2, 3, 0, 8, 8, 7, 0, 0, 6, 5, 3, 9, 3, 0, 0, 3, 4, 4, 8, 4, 7, 0, 4, 0, 8, 3, 9, 10, 5, 1, 0, 9, 5, 0, 2, 0, 0, 0, 0, 0]);

suc = [
   {2, 3, 4},
   {8, 11, 6},
   {41, 43, 37},
   {9, 5, 23},
   {32, 59, 29},
   {10, 18, 7},
   {24, 57, 13},
   {24, 12},
   {19, 14},
   {16, 25, 28},
   {32, 13, 31},
   {19, 52, 53},
   {42, 21, 15},
   {17, 26, 22},
   {33, 26, 30},
   {50, 20, 38},
   {33, 50, 39},
   {21, 22},
   {32, 34, 29},
   {51, 30, 39},
   {49, 36, 54},
   {60},
   {34, 28, 31},
   {34, 36, 38},
   {49, 27, 30},
   {36, 37, 47},
   {48, 29, 31},
   {40, 48, 37},
   {44, 47},
   {58, 46},
   {33, 59, 39},
   {41, 35, 54},
   {44, 38},
   {45},
   {42},
   {40},
   {49, 61},
   {40, 41, 47},
   {57, 52, 46},
   {43, 52},
   {51, 45},
   {58, 43, 44},
   {55},
   {45},
   {46},
   {55},
   {54},
   {51, 53},
   {59},
   {56, 53},
   {56},
   {56, 55},
   {57},
   {60},
   {61},
   {58},
   {61},
   {60},
   {62},
   {62},
   {62},
   {  } ];

deadline = array2d(1..62, 1..3, [3, 5, 2, 3, 3, 5, 23, 0, 3, 29, 5, 2, 35, 0, 0, 43, 5, 5, 49, 5, 5, 52, 2, 3, 54, 3, 4, 56, 0, 3, 58, 1, 2, 59, 0, 0, 60, 1, 4, 61, 5, 3, 63, 0, 5, 68, 1, 1, 69, 5, 0, 69, 4, 1, 70, 5, 4, 86, 1, 3, 87, 3, 1, 91, 5, 0, 91, 1, 1, 105, 4, 2, 106, 1, 5, 107, 2, 5, 125, 1, 0, 136, 2, 5, 136, 0, 4, 138, 5, 4, 142, 3, 0, 159, 1, 0, 162, 4, 0, 170, 3, 0, 174, 4, 1, 174, 2, 0, 175, 3, 5, 178, 0, 5, 179, 4, 0, 180, 3, 3, 180, 3, 1, 186, 3, 0, 192, 3, 0, 195, 3, 0, 195, 4, 0, 197, 0, 3, 197, 1, 3, 201, 4, 3, 203, 5, 0, 206, 1, 1, 209, 3, 5, 211, 4, 0, 211, 1, 2, 213, 3, 1, 216, 4, 0, 216, 3, 2, 217, 2, 2, 218, 4, 5, 222, 1, 5, 225, 3, 5, 226, 2, 3, 226, 5, 2]);
