n_res = 4;
rc = [ 17, 15, 13, 14 ];
n_tasks = 62;
d = [0, 2, 2, 5, 9, 6, 3, 6, 8, 9, 7, 8, 5, 6, 2, 6, 5, 10, 9, 10, 3, 2, 6, 6, 7, 3, 9, 9, 5, 8, 2, 7, 4, 5, 2, 9, 7, 2, 4, 5, 6, 4, 1, 1, 5, 7, 7, 8, 1, 6, 2, 6, 5, 1, 1, 9, 8, 8, 9, 6, 10, 0];
rr = array2d(1..4, 1..62, [0, 0, 0, 0, 7, 2, 10, 0, 0, 0, 0, 0, 0, 3, 0, 4, 0, 7, 2, 10, 2, 0, 0, 0, 10, 10, 10, 2, 0, 7, 8, 0, 3, 1, 8, 9, 1, 1, 0, 3, 5, 2, 1, 0, 3, 1, 10, 6, 8, 9, 0, 0, 6, 0, 0, 7, 7, 1, 0, 0, 9, 0, 0, 2, 0, 0, 10, 9, 8, 5, 0, 2, 1, 2, 7, 0, 0, 1, 0, 0, 1, 0, 6, 0, 1, 0, 0, 1, 0, 9, 0, 0, 0, 0, 0, 6, 0, 0, 0, 2, 0, 0, 4, 0, 0, 0, 0, 0, 6, 8, 0, 6, 0, 1, 0, 0, 0, 10, 0, 0, 0, 7, 10, 0, 0, 0, 2, 8, 9, 0, 1, 0, 9, 8, 0, 0, 10, 0, 5, 0, 5, 0, 0, 0, 9, 3, 2, 8, 0, 8, 0, 8, 0, 1, 9, 0, 0, 0, 0, 10, 0, 4, 0, 0, 10, 2, 0, 8, 8, 0, 0, 0, 0, 0, 10, 0, 5, 8, 7, 4, 0, 0, 0, 0, 0, 0, 0, 1, 2, 0, 0, 0, 0, 0, 6, 6, 0, 2, 9, 3, 0, 7, 9, 4, 0, 0, 0, 1, 0, 0, 9, 2, 5, 6, 4, 0, 0, 7, 0, 7, 3, 0, 1, 0, 1, 0, 0, 5, 0, 9, 6, 3, 6, 0, 0, 0, 6, 0, 4, 0, 0, 0, 10, 1, 1, 0, 8, 0]);

suc = [
   {2, 3, 4},
   {8, 33, 44},
   {10, 5, 6},
   {18, 51, 39},
   {8, 17, 12},
   {28, 30, 7},
   {16, 9, 37},
   {40, 19, 20},
   {11},
   {49, 13, 38},
   {18, 13},
   {24, 52, 29},
   {22, 14, 15},
   {32, 39},
   {51, 35},
   {56, 53, 23},
   {31},
   {26, 20, 31},
   {27, 28},
   {21},
   {36},
   {25, 41},
   {34, 35},
   {54},
   {52, 61},
   {57, 52},
   {50, 45, 47},
   {50},
   {40, 58, 45},
   {34},
   {56, 57},
   {50, 47},
   {40},
   {39},
   {41, 44},
   {49, 43, 46},
   {43},
   {48, 54, 47},
   {42, 45},
   {41},
   {48},
   {48, 44},
   {57, 55},
   {46, 55},
   {55},
   {54},
   {53},
   {59, 60},
   {53},
   {51},
   {59},
   {56, 60},
   {61},
   {58},
   {60},
   {59},
   {58},
   {61},
   {62},
   {62},
   {62},
   {  } ];

deadline = array2d(1..62, 1..3, [4, 5, 4, 7, 1, 0, 9, 0, 0, 10, 1, 0, 11, 3, 3, 23, 0, 0, 26, 2, 2, 29, 2, 3, 31, 1, 1, 32, 1, 5, 36, 1, 4, 36, 4, 2, 37, 2, 3, 42, 3, 3, 44, 4, 2, 51, 2, 5, 59, 5, 4, 70, 5, 3, 70, 5, 1, 73, 0, 3, 76, 4, 3, 77, 5, 5, 78, 3, 0, 79, 0, 2, 88, 2, 5, 91, 4, 2, 92, 0, 0, 93, 3, 4, 93, 5, 3, 95, 3, 3, 95, 0, 0, 98, 3, 1, 99, 1, 1, 102, 2, 1, 110, 0, 3, 120, 3, 4, 122, 2, 0, 127, 4, 1, 128, 2, 0, 148, 5, 3, 151, 0, 0, 157, 0, 5, 161, 2, 3, 164, 3, 2, 165, 0, 4, 169, 0, 1, 172, 3, 3, 173, 2, 4, 175, 3, 1, 179, 2, 5, 180, 5, 1, 180, 1, 1, 183, 5, 5, 186, 1, 2, 188, 3, 0, 188, 0, 4, 198, 4, 0, 198, 2, 0, 204, 5, 0, 205, 4, 2, 205, 3, 1, 208, 1, 1]);
