n_res = 4;
rc = [ 23, 20, 31, 21 ];
n_tasks = 62;
d = [0, 3, 10, 7, 9, 5, 8, 5, 5, 3, 2, 4, 7, 9, 9, 3, 9, 9, 4, 4, 7, 8, 2, 9, 3, 5, 1, 4, 5, 10, 9, 8, 2, 10, 5, 8, 10, 6, 6, 1, 6, 1, 6, 9, 3, 3, 7, 4, 5, 1, 5, 4, 3, 9, 9, 10, 6, 8, 6, 2, 7, 0];
rr = array2d(1..4, 1..62, [0, 0, 1, 0, 4, 0, 1, 0, 0, 0, 0, 0, 0, 0, 0, 0, 0, 0, 0, 0, 0, 0, 0, 0, 0, 3, 0, 0, 0, 0, 0, 0, 0, 0, 10, 0, 0, 0, 0, 0, 10, 4, 0, 0, 1, 3, 7, 0, 0, 0, 0, 0, 10, 6, 0, 0, 0, 7, 0, 8, 0, 0, 0, 1, 0, 0, 0, 2, 0, 0, 0, 0, 0, 0, 7, 6, 0, 0, 0, 0, 3, 0, 0, 0, 0, 0, 0, 0, 6, 0, 0, 0, 7, 7, 0, 0, 0, 1, 0, 0, 0, 0, 0, 0, 0, 0, 0, 0, 0, 0, 7, 0, 8, 0, 0, 0, 7, 6, 6, 0, 9, 0, 0, 0, 0, 0, 0, 0, 0, 0, 0, 0, 9, 0, 7, 8, 0, 0, 0, 8, 2, 0, 0, 0, 0, 0, 8, 10, 9, 0, 0, 0, 3, 2, 0, 0, 0, 4, 0, 0, 0, 0, 0, 0, 0, 0, 8, 5, 0, 0, 0, 2, 0, 0, 0, 1, 0, 0, 0, 0, 0, 0, 0, 0, 0, 0, 0, 0, 0, 8, 0, 0, 0, 4, 0, 9, 0, 0, 0, 0, 3, 0, 0, 4, 0, 8, 5, 3, 0, 0, 0, 0, 0, 2, 0, 0, 0, 0, 8, 0, 0, 0, 2, 9, 7, 6, 0, 0, 0, 0, 0, 0, 0, 0, 0, 4, 0, 0, 0, 0, 0, 0, 0, 0, 0, 0, 5, 0]);

suc = [
   {2, 3, 4},
   {25, 13, 14},
   {17, 5, 7},
   {11, 6, 23},
   {10, 35, 12},
   {8, 18, 15},
   {9, 19, 25},
   {10, 26, 34},
   {49, 44, 38},
   {32, 50, 29},
   {24, 46},
   {40, 48, 28},
   {16, 53, 37},
   {21},
   {25, 39},
   {56, 35, 47},
   {51, 29, 31},
   {34, 20, 52},
   {33, 59, 53},
   {33, 45},
   {38, 42, 22},
   {40, 27, 36},
   {32, 43},
   {39, 30, 31},
   {40, 34, 36},
   {27, 29, 39},
   {49, 28, 44},
   {32, 50, 54},
   {33, 42},
   {35, 60, 38},
   {48, 36, 52},
   {41, 45, 57},
   {55},
   {48, 60, 37},
   {55},
   {43, 37},
   {41},
   {41, 51},
   {42, 43, 47},
   {44, 45},
   {56},
   {49, 60},
   {50, 54},
   {57, 52, 46},
   {46},
   {47},
   {58, 51},
   {59, 61},
   {54},
   {53},
   {55},
   {56},
   {61},
   {57},
   {61},
   {58},
   {58},
   {59},
   {62},
   {62},
   {62},
   {  } ];

deadline = array2d(1..62, 1..3, [14, 2, 4, 20, 4, 3, 21, 1, 1, 26, 0, 2, 26, 4, 1, 27, 0, 2, 28, 0, 1, 29, 1, 5, 31, 4, 3, 31, 3, 3, 39, 3, 3, 39, 5, 0, 39, 5, 4, 39, 4, 4, 41, 5, 4, 41, 1, 5, 49, 1, 2, 50, 2, 0, 59, 0, 3, 60, 2, 3, 62, 0, 2, 63, 1, 5, 63, 2, 2, 63, 0, 5, 66, 1, 1, 68, 5, 1, 70, 2, 3, 73, 0, 5, 73, 3, 3, 77, 1, 5, 79, 3, 2, 87, 4, 4, 94, 0, 5, 95, 3, 5, 96, 5, 5, 97, 2, 0, 102, 2, 1, 103, 4, 5, 103, 3, 3, 109, 1, 0, 119, 4, 3, 120, 1, 4, 122, 3, 1, 132, 4, 4, 132, 4, 0, 133, 5, 2, 148, 2, 3, 148, 2, 5, 150, 3, 5, 157, 0, 2, 161, 4, 1, 162, 2, 5, 162, 4, 1, 164, 0, 4, 165, 2, 4, 170, 2, 5, 171, 1, 0, 175, 3, 2, 181, 3, 4, 183, 3, 1, 186, 1, 1, 187, 5, 0]);
