n_res = 4;
rc = [ 20, 17, 16, 21 ];
n_tasks = 62;
d = [0, 10, 7, 1, 1, 8, 2, 4, 10, 7, 3, 5, 10, 7, 2, 10, 2, 4, 1, 5, 3, 8, 1, 9, 2, 2, 8, 1, 9, 8, 4, 2, 2, 1, 8, 2, 9, 10, 3, 7, 3, 2, 10, 5, 1, 4, 7, 8, 10, 6, 10, 9, 1, 10, 5, 5, 5, 5, 5, 1, 1, 0];
rr = array2d(1..4, 1..62, [0, 2, 1, 2, 0, 8, 7, 7, 3, 0, 8, 6, 4, 4, 8, 3, 0, 0, 3, 0, 6, 0, 7, 6, 4, 5, 2, 1, 1, 6, 1, 8, 4, 5, 5, 7, 0, 7, 0, 4, 7, 8, 5, 5, 9, 2, 9, 0, 7, 3, 5, 1, 2, 10, 0, 5, 6, 1, 8, 1, 1, 0, 0, 5, 2, 8, 0, 0, 0, 0, 5, 4, 3, 0, 6, 0, 6, 0, 1, 2, 3, 0, 8, 9, 0, 10, 6, 6, 5, 10, 8, 0, 10, 0, 8, 5, 1, 0, 2, 1, 1, 5, 1, 2, 1, 4, 8, 7, 9, 10, 0, 1, 7, 0, 10, 5, 1, 2, 4, 7, 6, 0, 6, 0, 0, 5, 10, 10, 10, 0, 6, 7, 3, 0, 0, 0, 1, 4, 6, 2, 0, 6, 5, 4, 1, 0, 1, 4, 0, 6, 7, 10, 4, 8, 0, 0, 6, 10, 7, 0, 1, 7, 0, 3, 3, 0, 0, 1, 2, 8, 9, 1, 0, 1, 5, 6, 0, 0, 4, 10, 2, 2, 8, 1, 0, 0, 0, 4, 4, 7, 5, 10, 0, 3, 4, 8, 1, 10, 6, 10, 0, 0, 8, 3, 0, 7, 6, 9, 4, 1, 0, 1, 7, 5, 0, 3, 4, 3, 0, 0, 1, 2, 2, 10, 2, 0, 3, 3, 5, 0, 0, 10, 0, 2, 2, 4, 1, 10, 0, 10, 6, 0, 0, 0, 3, 6, 0, 0]);

suc = [
   {2, 3, 4},
   {17, 29, 7},
   {26, 6},
   {12, 5, 15},
   {8},
   {32, 9, 10},
   {14},
   {18, 13, 30},
   {11, 46, 39},
   {28, 44},
   {23},
   {54},
   {25, 34},
   {16, 48},
   {45},
   {24},
   {33, 19, 20},
   {41},
   {45, 60, 21},
   {24, 22, 55},
   {43, 27},
   {36},
   {47},
   {58, 31},
   {61, 29},
   {31},
   {57},
   {49},
   {40, 35},
   {37},
   {50},
   {60},
   {38},
   {52},
   {56, 49},
   {40, 48},
   {39},
   {47},
   {53},
   {53},
   {42},
   {51, 58, 43},
   {55},
   {47},
   {59},
   {57, 53},
   {48},
   {50},
   {57},
   {51},
   {59},
   {61},
   {56},
   {56, 55},
   {61},
   {58},
   {59},
   {60},
   {62},
   {62},
   {62},
   {  } ];

deadline = array2d(1..62, 1..3, [6, 0, 2, 10, 0, 1, 13, 5, 3, 17, 0, 5, 18, 2, 1, 21, 2, 3, 22, 2, 3, 27, 1, 2, 27, 5, 4, 27, 3, 2, 28, 3, 5, 30, 0, 0, 31, 0, 1, 34, 2, 5, 36, 0, 2, 38, 5, 1, 39, 1, 0, 41, 3, 3, 44, 3, 5, 44, 2, 1, 51, 3, 5, 51, 5, 2, 53, 0, 4, 56, 5, 0, 59, 5, 4, 61, 0, 4, 63, 2, 1, 64, 5, 1, 68, 2, 1, 72, 0, 2, 73, 2, 4, 77, 3, 2, 80, 0, 4, 86, 0, 4, 86, 1, 3, 91, 1, 1, 92, 0, 4, 97, 0, 4, 98, 0, 1, 102, 4, 5, 115, 5, 0, 117, 3, 2, 126, 4, 4, 127, 2, 5, 128, 0, 0, 131, 1, 4, 133, 0, 5, 133, 0, 1, 135, 1, 1, 135, 3, 1, 137, 2, 4, 148, 2, 3, 148, 3, 4, 148, 1, 0, 151, 0, 0, 155, 5, 1, 155, 4, 0, 157, 5, 0, 158, 2, 4, 159, 4, 0, 162, 4, 1, 162, 0, 0]);
