n_res = 4;
rc = [ 36, 42, 41, 37 ];
n_tasks = 62;
d = [0, 2, 5, 3, 7, 3, 10, 9, 7, 4, 4, 9, 1, 5, 3, 8, 9, 1, 7, 9, 7, 1, 10, 2, 8, 9, 10, 1, 1, 2, 5, 1, 10, 2, 10, 1, 5, 5, 7, 3, 2, 6, 4, 9, 5, 2, 10, 1, 8, 7, 4, 1, 6, 7, 8, 4, 6, 3, 4, 7, 8, 0];
rr = array2d(1..4, 1..62, [0, 6, 4, 8, 9, 1, 7, 8, 3, 2, 9, 7, 9, 7, 5, 3, 5, 6, 3, 2, 7, 1, 9, 9, 3, 5, 8, 4, 7, 5, 8, 6, 8, 6, 9, 3, 6, 5, 3, 5, 2, 4, 5, 8, 9, 1, 5, 8, 6, 4, 2, 4, 6, 10, 10, 1, 1, 5, 5, 7, 3, 0, 0, 1, 4, 6, 10, 3, 8, 7, 4, 1, 6, 9, 2, 6, 1, 6, 8, 1, 10, 3, 8, 3, 5, 8, 10, 7, 10, 1, 3, 5, 9, 6, 9, 1, 2, 5, 9, 2, 5, 3, 7, 2, 2, 9, 2, 10, 2, 7, 6, 10, 6, 8, 3, 1, 5, 5, 5, 2, 3, 1, 7, 0, 0, 10, 4, 3, 6, 10, 9, 6, 8, 4, 2, 6, 1, 7, 10, 5, 8, 2, 3, 9, 5, 3, 1, 9, 9, 3, 9, 2, 10, 7, 9, 3, 9, 1, 4, 3, 10, 10, 1, 7, 5, 2, 10, 1, 10, 8, 3, 8, 8, 2, 1, 10, 5, 3, 6, 8, 7, 7, 4, 5, 1, 0, 0, 2, 9, 8, 6, 8, 9, 9, 8, 8, 5, 3, 7, 8, 1, 8, 9, 2, 2, 1, 8, 4, 1, 2, 2, 1, 7, 8, 4, 10, 4, 8, 10, 5, 1, 3, 1, 1, 8, 6, 8, 3, 2, 7, 10, 2, 3, 5, 1, 8, 7, 7, 2, 9, 4, 10, 3, 7, 3, 4, 7, 0]);

suc = [
   {2, 3, 4},
   {5, 14, 15},
   {8, 10, 6},
   {18, 11, 46},
   {12, 23},
   {33, 36, 7},
   {19, 30, 47},
   {9, 18, 13},
   {40, 21},
   {12},
   {17, 27, 20},
   {28, 38},
   {48, 21},
   {24, 25, 42},
   {16, 22},
   {49, 51, 31},
   {25, 43},
   {35, 44, 29},
   {28, 37, 60},
   {39, 23},
   {52, 31},
   {26, 34, 39},
   {50},
   {61},
   {35},
   {50},
   {54},
   {32, 43},
   {49},
   {52, 55},
   {33},
   {42, 45},
   {44},
   {40},
   {40, 38},
   {48, 57},
   {41, 38, 55},
   {53, 45},
   {42, 44},
   {56, 51},
   {48, 45},
   {49},
   {54, 55},
   {50},
   {56, 58},
   {47},
   {58},
   {56},
   {53},
   {57, 60, 53},
   {57, 52, 61},
   {60},
   {54},
   {59},
   {58},
   {59},
   {59},
   {61},
   {62},
   {62},
   {62},
   {  } ];

deadline = array2d(1..62, 1..3, [1, 5, 5, 5, 4, 5, 7, 1, 3, 8, 3, 5, 11, 1, 3, 11, 2, 0, 16, 0, 5, 16, 1, 4, 16, 0, 4, 17, 2, 5, 25, 4, 3, 30, 4, 4, 34, 2, 0, 40, 2, 2, 43, 0, 1, 43, 5, 0, 49, 4, 3, 58, 3, 1, 59, 3, 2, 62, 5, 2, 63, 4, 2, 64, 1, 5, 68, 5, 2, 70, 1, 1, 75, 1, 3, 77, 2, 2, 86, 0, 1, 88, 0, 2, 90, 4, 4, 91, 0, 1, 92, 4, 5, 92, 2, 4, 99, 1, 5, 101, 1, 0, 102, 2, 4, 110, 1, 1, 114, 2, 4, 116, 3, 0, 120, 5, 1, 125, 5, 5, 125, 4, 5, 128, 0, 3, 128, 3, 4, 129, 5, 2, 138, 5, 1, 139, 2, 1, 140, 1, 0, 142, 3, 4, 148, 5, 3, 150, 3, 0, 150, 3, 1, 151, 0, 2, 158, 1, 3, 162, 5, 3, 168, 0, 2, 169, 5, 5, 174, 0, 4, 177, 5, 4, 183, 1, 1, 186, 2, 0, 188, 4, 5, 189, 3, 1]);
