n_res = 4;
rc = [ 21, 21, 22, 17 ];
n_tasks = 62;
d = [0, 9, 5, 1, 3, 9, 4, 10, 4, 1, 8, 1, 8, 1, 6, 7, 9, 9, 9, 6, 5, 1, 7, 9, 9, 8, 10, 6, 7, 6, 7, 3, 4, 7, 7, 2, 7, 1, 3, 8, 3, 9, 2, 7, 5, 10, 6, 8, 9, 3, 3, 2, 9, 1, 9, 6, 10, 10, 4, 3, 8, 0];
rr = array2d(1..4, 1..62, [0, 0, 0, 0, 6, 0, 0, 3, 0, 0, 0, 0, 0, 2, 0, 0, 0, 0, 0, 1, 10, 0, 3, 0, 5, 4, 6, 9, 7, 0, 0, 0, 1, 0, 0, 0, 0, 0, 0, 0, 0, 0, 0, 0, 0, 0, 0, 0, 0, 0, 0, 0, 0, 1, 0, 0, 0, 0, 0, 0, 0, 0, 0, 0, 0, 0, 0, 9, 0, 0, 0, 7, 8, 0, 0, 0, 0, 0, 0, 0, 0, 0, 0, 2, 0, 0, 0, 0, 0, 0, 0, 0, 0, 0, 0, 0, 0, 0, 0, 3, 0, 1, 0, 9, 0, 0, 5, 0, 0, 6, 9, 6, 7, 0, 4, 0, 0, 0, 3, 1, 0, 7, 10, 0, 0, 0, 0, 0, 0, 0, 0, 0, 6, 0, 0, 3, 2, 0, 0, 10, 3, 4, 10, 0, 0, 0, 0, 0, 0, 0, 0, 0, 0, 0, 6, 8, 0, 0, 1, 8, 7, 0, 8, 0, 0, 0, 0, 0, 0, 1, 10, 0, 0, 0, 0, 4, 0, 0, 1, 4, 0, 0, 0, 0, 0, 0, 0, 1, 6, 1, 0, 0, 1, 0, 0, 0, 0, 0, 0, 0, 7, 0, 0, 0, 0, 0, 0, 0, 0, 3, 0, 0, 0, 0, 0, 6, 0, 0, 0, 1, 0, 0, 0, 0, 0, 0, 5, 0, 5, 6, 0, 0, 0, 0, 0, 0, 0, 0, 0, 0, 0, 0, 0, 0, 3, 0, 0, 0]);

suc = [
   {2, 3, 4},
   {57, 5, 31},
   {29, 13, 6},
   {8},
   {56},
   {18, 22, 7},
   {12, 47},
   {9, 10, 11},
   {25, 34},
   {26, 19, 14},
   {33, 20, 14},
   {16, 17, 25},
   {15},
   {51, 23},
   {45},
   {24, 34},
   {40, 44},
   {53, 38, 23},
   {28, 29},
   {21, 30},
   {34},
   {35, 36, 38},
   {28},
   {35, 45},
   {41, 27, 49},
   {43, 28},
   {33},
   {45, 46},
   {32, 33, 42},
   {48, 37, 39},
   {48, 51},
   {36, 39},
   {36},
   {48},
   {40},
   {50},
   {58},
   {43},
   {40, 56},
   {51, 61},
   {56, 50},
   {52, 55},
   {60, 47},
   {52, 55},
   {58, 54, 55},
   {49, 47},
   {57, 50},
   {49},
   {61},
   {54},
   {53},
   {58, 53},
   {60, 54},
   {59},
   {57, 61},
   {59},
   {59},
   {60},
   {62},
   {62},
   {62},
   {  } ];

deadline = array2d(1..62, 1..3, [2, 1, 3, 4, 0, 4, 4, 5, 4, 5, 3, 3, 11, 0, 1, 12, 5, 5, 19, 0, 1, 22, 1, 3, 29, 0, 4, 34, 3, 2, 35, 0, 5, 35, 2, 2, 36, 1, 4, 37, 4, 5, 38, 1, 1, 41, 3, 2, 43, 0, 1, 44, 3, 2, 48, 5, 0, 51, 5, 3, 54, 0, 3, 66, 2, 3, 66, 1, 4, 66, 2, 3, 68, 2, 1, 70, 2, 0, 71, 0, 5, 74, 2, 0, 74, 2, 0, 76, 3, 1, 88, 3, 4, 88, 5, 4, 88, 2, 2, 94, 5, 0, 95, 3, 5, 96, 5, 4, 100, 1, 3, 100, 2, 4, 100, 3, 1, 103, 2, 4, 104, 0, 0, 105, 1, 3, 110, 5, 1, 113, 4, 3, 115, 1, 3, 116, 3, 3, 117, 4, 3, 124, 3, 3, 125, 1, 2, 127, 3, 5, 130, 2, 5, 138, 4, 2, 143, 0, 1, 145, 2, 1, 151, 4, 4, 153, 1, 0, 157, 2, 5, 160, 3, 1, 161, 3, 4, 164, 5, 1, 167, 1, 5, 167, 5, 3]);
