n_res = 4;
rc = [ 25, 21, 35, 20 ];
n_tasks = 62;
d = [0, 10, 8, 10, 4, 9, 3, 4, 5, 5, 2, 3, 3, 1, 1, 10, 3, 4, 2, 5, 2, 9, 4, 4, 9, 4, 2, 2, 7, 8, 5, 2, 9, 3, 7, 10, 6, 6, 2, 1, 4, 3, 3, 3, 5, 5, 9, 2, 5, 7, 9, 9, 10, 6, 2, 9, 10, 7, 8, 4, 1, 0];
rr = array2d(1..4, 1..62, [0, 1, 3, 10, 9, 0, 0, 5, 3, 0, 9, 0, 0, 0, 7, 0, 0, 0, 2, 0, 0, 0, 2, 9, 0, 0, 1, 0, 0, 5, 3, 0, 0, 0, 0, 5, 0, 3, 8, 3, 10, 6, 9, 0, 0, 5, 3, 8, 0, 2, 9, 0, 0, 8, 9, 10, 0, 0, 3, 0, 0, 0, 0, 4, 0, 0, 0, 0, 2, 0, 8, 0, 0, 0, 3, 1, 3, 0, 2, 0, 5, 1, 3, 1, 0, 0, 6, 10, 0, 2, 3, 0, 0, 0, 0, 10, 6, 8, 5, 4, 0, 5, 4, 0, 9, 7, 0, 1, 0, 0, 0, 10, 0, 0, 0, 9, 8, 8, 0, 9, 0, 5, 1, 0, 0, 5, 0, 7, 0, 2, 0, 7, 2, 8, 5, 4, 4, 7, 0, 4, 3, 2, 0, 10, 1, 0, 3, 7, 0, 7, 5, 0, 6, 8, 0, 2, 0, 9, 6, 5, 0, 0, 0, 0, 6, 0, 0, 0, 4, 0, 0, 0, 8, 0, 0, 0, 0, 0, 0, 0, 9, 0, 10, 8, 5, 0, 0, 0, 6, 3, 1, 7, 0, 8, 0, 0, 1, 0, 0, 0, 3, 4, 5, 0, 6, 0, 3, 0, 0, 0, 3, 0, 0, 0, 0, 0, 6, 0, 8, 1, 0, 3, 0, 0, 3, 3, 0, 7, 7, 0, 0, 0, 1, 0, 2, 0, 8, 7, 1, 0, 7, 0, 0, 0, 3, 0, 0, 0]);

suc = [
   {2, 3, 4},
   {9, 28, 36},
   {32, 21},
   {19, 5, 6},
   {17, 27, 7},
   {8, 18, 30},
   {49, 30},
   {33, 60, 15},
   {10, 35, 12},
   {24, 25, 11},
   {26, 14},
   {37, 13},
   {52},
   {23},
   {16, 20, 29},
   {39},
   {22},
   {59},
   {43, 53, 31},
   {25},
   {33},
   {49, 46, 39},
   {58},
   {41},
   {43},
   {37},
   {48},
   {46},
   {57},
   {32, 56},
   {42},
   {34},
   {61},
   {44, 47},
   {43},
   {41, 52, 38},
   {50},
   {45},
   {40},
   {45},
   {57},
   {44},
   {54},
   {51},
   {53},
   {58},
   {55},
   {49},
   {61},
   {55},
   {58},
   {56, 55},
   {61, 54},
   {56},
   {59},
   {57},
   {59},
   {60},
   {62},
   {62},
   {62},
   {  } ];

deadline = array2d(1..62, 1..3, [1, 5, 3, 1, 3, 5, 2, 0, 2, 14, 4, 2, 18, 3, 4, 18, 0, 5, 29, 4, 4, 30, 3, 4, 34, 0, 3, 38, 2, 3, 43, 4, 3, 52, 2, 2, 52, 4, 1, 56, 4, 3, 56, 2, 2, 58, 0, 0, 63, 2, 2, 72, 1, 3, 73, 1, 2, 73, 3, 0, 76, 0, 4, 81, 5, 2, 86, 0, 0, 87, 0, 0, 92, 3, 0, 94, 1, 1, 96, 3, 0, 96, 3, 4, 97, 1, 5, 97, 0, 0, 103, 3, 4, 104, 4, 3, 109, 1, 2, 110, 5, 1, 110, 0, 1, 112, 2, 2, 115, 0, 5, 115, 5, 4, 116, 0, 3, 118, 0, 2, 122, 1, 5, 126, 1, 2, 127, 0, 3, 127, 1, 4, 130, 4, 2, 136, 3, 0, 138, 0, 1, 146, 3, 0, 146, 0, 4, 147, 0, 1, 148, 4, 2, 149, 2, 1, 152, 3, 5, 167, 5, 1, 169, 3, 0, 170, 5, 3, 175, 5, 0, 186, 0, 4, 195, 4, 3, 206, 0, 5, 212, 0, 5, 212, 4, 1]);
