n_res = 4;
rc = [ 14, 15, 14, 16 ];
n_tasks = 62;
d = [0, 7, 8, 7, 5, 8, 4, 6, 3, 1, 4, 5, 3, 4, 5, 3, 2, 7, 10, 3, 4, 7, 9, 7, 8, 5, 4, 5, 7, 9, 4, 3, 4, 2, 1, 2, 10, 1, 9, 8, 6, 10, 3, 1, 7, 6, 6, 8, 2, 2, 3, 7, 6, 2, 7, 1, 2, 2, 1, 10, 4, 0];
rr = array2d(1..4, 1..62, [0, 5, 1, 0, 1, 0, 0, 6, 0, 0, 6, 0, 3, 3, 8, 3, 0, 0, 2, 0, 2, 0, 10, 0, 0, 0, 0, 0, 0, 8, 0, 5, 7, 0, 0, 0, 0, 4, 0, 9, 0, 0, 0, 0, 0, 9, 4, 7, 0, 0, 0, 1, 0, 0, 0, 3, 7, 0, 0, 4, 2, 0, 0, 0, 0, 7, 3, 8, 9, 6, 0, 9, 4, 3, 0, 9, 0, 2, 0, 6, 0, 2, 5, 0, 8, 0, 7, 0, 0, 4, 2, 0, 0, 3, 0, 10, 10, 3, 0, 5, 0, 3, 0, 9, 0, 0, 0, 0, 10, 4, 0, 1, 7, 3, 7, 8, 0, 1, 5, 9, 0, 10, 6, 0, 0, 0, 0, 2, 5, 2, 0, 6, 8, 0, 0, 3, 5, 0, 1, 0, 0, 7, 1, 0, 2, 10, 0, 6, 10, 5, 9, 0, 7, 4, 0, 6, 6, 0, 6, 4, 3, 0, 0, 0, 0, 0, 0, 6, 5, 0, 0, 9, 6, 0, 7, 0, 0, 0, 1, 0, 8, 0, 0, 0, 0, 0, 0, 0, 0, 0, 0, 0, 4, 0, 0, 0, 9, 0, 0, 0, 0, 0, 6, 4, 0, 0, 0, 2, 0, 0, 7, 0, 2, 0, 0, 0, 8, 6, 10, 1, 8, 0, 4, 6, 1, 1, 9, 0, 10, 6, 4, 3, 5, 0, 0, 0, 5, 8, 0, 8, 2, 0, 1, 0, 6, 5, 1, 0]);

suc = [
   {2, 3, 4},
   {21, 5, 7},
   {16, 10, 6},
   {24, 26},
   {9, 36},
   {8, 34, 13},
   {18, 36, 39},
   {19, 28},
   {11, 13, 14},
   {31, 22, 30},
   {17, 12, 20},
   {24, 50},
   {25, 27, 37},
   {56, 17, 15},
   {41, 26, 31},
   {49, 29},
   {24, 53, 22},
   {32, 26, 43},
   {27, 46, 47},
   {29, 46, 23},
   {33, 44},
   {25, 45},
   {41, 55, 39},
   {25, 41},
   {52},
   {52, 54, 47},
   {32, 35, 61},
   {56, 29, 31},
   {35, 61, 38},
   {40, 33, 44},
   {32, 33, 38},
   {49, 42},
   {58, 35},
   {40, 38},
   {48, 55},
   {40, 45},
   {43, 39},
   {42, 44},
   {51},
   {42, 51},
   {59, 45},
   {52},
   {48, 51, 46},
   {50, 60, 47},
   {60, 54},
   {49, 58},
   {48},
   {53},
   {50, 53},
   {55},
   {56, 57, 54},
   {58},
   {57},
   {61},
   {57},
   {59},
   {59},
   {60},
   {62},
   {62},
   {62},
   {  } ];

deadline = array2d(1..62, 1..3, [3, 4, 0, 6, 3, 0, 8, 3, 3, 12, 1, 4, 17, 4, 4, 19, 5, 2, 21, 0, 1, 22, 4, 4, 27, 1, 2, 31, 1, 5, 31, 3, 5, 31, 3, 2, 34, 4, 2, 36, 3, 2, 36, 1, 4, 40, 2, 1, 40, 4, 1, 41, 1, 3, 42, 0, 5, 46, 3, 2, 48, 4, 3, 51, 1, 5, 55, 1, 0, 64, 5, 1, 67, 2, 0, 72, 4, 2, 86, 0, 1, 91, 0, 4, 93, 3, 1, 94, 2, 5, 101, 3, 1, 101, 3, 4, 101, 1, 1, 104, 3, 4, 105, 3, 2, 107, 1, 1, 110, 1, 3, 110, 2, 2, 111, 5, 2, 113, 2, 2, 114, 2, 1, 117, 5, 2, 119, 5, 2, 121, 0, 5, 121, 4, 5, 131, 5, 3, 134, 0, 3, 136, 2, 0, 137, 3, 4, 141, 2, 5, 146, 4, 4, 149, 3, 3, 150, 4, 5, 150, 4, 5, 152, 2, 1, 152, 0, 0, 155, 2, 0, 155, 5, 5, 157, 1, 2, 160, 3, 4, 167, 5, 3, 169, 5, 3]);
