n_res = 4;
rc = [ 38, 34, 37, 28 ];
n_tasks = 62;
d = [0, 5, 3, 6, 3, 5, 7, 9, 1, 5, 7, 8, 10, 1, 10, 2, 8, 10, 10, 5, 4, 10, 7, 5, 3, 2, 10, 4, 8, 7, 6, 8, 4, 8, 7, 8, 1, 6, 4, 3, 3, 1, 10, 9, 3, 9, 4, 3, 3, 3, 9, 6, 2, 10, 7, 7, 2, 1, 5, 8, 9, 0];
rr = array2d(1..4, 1..62, [0, 10, 6, 6, 9, 10, 10, 1, 9, 4, 7, 7, 1, 3, 0, 0, 7, 0, 1, 2, 9, 9, 0, 3, 1, 0, 4, 0, 0, 9, 9, 7, 7, 0, 5, 6, 0, 0, 9, 0, 0, 3, 1, 2, 1, 6, 4, 0, 2, 4, 7, 0, 5, 9, 0, 2, 0, 9, 4, 5, 6, 0, 0, 0, 1, 4, 4, 0, 0, 5, 8, 1, 0, 9, 6, 9, 3, 6, 0, 6, 8, 10, 0, 1, 0, 3, 4, 6, 3, 0, 6, 0, 0, 0, 7, 0, 3, 10, 9, 0, 4, 4, 8, 0, 1, 0, 0, 7, 8, 0, 0, 5, 1, 3, 3, 9, 10, 6, 8, 3, 2, 3, 6, 0, 0, 10, 2, 5, 8, 1, 0, 3, 2, 8, 6, 0, 0, 0, 0, 4, 8, 0, 2, 3, 3, 9, 9, 5, 5, 5, 0, 0, 5, 2, 9, 8, 5, 4, 3, 8, 7, 10, 9, 0, 2, 0, 10, 1, 2, 3, 3, 3, 4, 3, 3, 2, 2, 5, 6, 1, 10, 3, 0, 2, 8, 0, 0, 0, 2, 0, 4, 7, 6, 0, 1, 3, 8, 6, 0, 3, 0, 10, 10, 3, 3, 1, 5, 0, 3, 0, 0, 0, 2, 3, 0, 10, 6, 0, 3, 8, 4, 1, 4, 6, 6, 6, 0, 3, 8, 5, 9, 5, 3, 4, 5, 0, 4, 10, 4, 9, 2, 8, 6, 10, 7, 9, 0, 0]);

suc = [
   {2, 3, 4},
   {24, 31, 7},
   {10, 21, 5},
   {35, 11},
   {8, 6},
   {9, 60, 13},
   {41, 13, 14},
   {46, 9, 22},
   {16, 44, 37},
   {12, 20, 15},
   {24, 34},
   {18, 13, 38},
   {19},
   {56},
   {17, 61, 47},
   {27},
   {26, 36, 53},
   {40},
   {42},
   {28, 23},
   {25},
   {50},
   {45},
   {49, 30},
   {30, 39},
   {32, 29, 30},
   {34, 43, 38},
   {33, 52},
   {35},
   {54},
   {33, 45, 54},
   {40, 35, 39},
   {38},
   {58, 55},
   {51, 46},
   {51, 39},
   {48, 43},
   {42, 50},
   {55},
   {51, 46},
   {48, 57, 43},
   {48, 47},
   {50, 45},
   {56},
   {58, 53, 47},
   {59, 52},
   {59},
   {49, 53},
   {56},
   {61},
   {60},
   {54},
   {55},
   {57},
   {59},
   {58},
   {60},
   {61},
   {62},
   {62},
   {62},
   {  } ];

deadline = array2d(1..62, 1..3, [1, 4, 4, 1, 2, 1, 2, 2, 1, 2, 4, 3, 3, 4, 4, 4, 2, 4, 5, 0, 5, 15, 5, 2, 17, 2, 1, 18, 5, 2, 19, 2, 1, 25, 2, 3, 31, 5, 4, 31, 5, 0, 32, 3, 0, 37, 2, 0, 37, 1, 1, 46, 1, 0, 47, 4, 5, 49, 3, 3, 56, 2, 3, 59, 3, 1, 66, 1, 0, 67, 3, 4, 69, 0, 5, 70, 0, 0, 70, 0, 4, 70, 0, 2, 71, 4, 4, 75, 5, 4, 79, 5, 0, 80, 5, 2, 86, 4, 4, 89, 5, 4, 89, 1, 3, 89, 4, 2, 95, 5, 5, 103, 4, 5, 108, 2, 5, 111, 3, 2, 129, 2, 0, 129, 0, 4, 130, 5, 4, 132, 5, 5, 132, 2, 1, 133, 0, 3, 135, 4, 1, 136, 0, 2, 140, 5, 3, 145, 4, 4, 155, 5, 3, 159, 5, 1, 161, 4, 5, 165, 1, 5, 166, 3, 3, 170, 3, 4, 170, 4, 2, 173, 2, 0, 175, 0, 4, 180, 5, 1, 188, 4, 4, 192, 3, 1]);
