n_res = 4;
rc = [ 17, 16, 19, 18 ];
n_tasks = 62;
d = [0, 2, 8, 2, 8, 7, 2, 3, 3, 7, 8, 1, 8, 6, 6, 2, 1, 8, 4, 9, 8, 5, 2, 3, 2, 7, 9, 10, 8, 6, 10, 1, 10, 5, 7, 3, 1, 7, 6, 2, 2, 7, 1, 3, 10, 7, 5, 8, 8, 10, 9, 2, 6, 8, 4, 3, 4, 2, 8, 7, 6, 0];
rr = array2d(1..4, 1..62, [0, 0, 9, 0, 2, 8, 0, 10, 2, 7, 0, 1, 0, 0, 10, 0, 0, 0, 10, 0, 0, 3, 0, 4, 0, 0, 1, 0, 0, 0, 3, 1, 5, 0, 8, 9, 7, 0, 0, 3, 0, 10, 7, 0, 8, 0, 3, 8, 9, 0, 0, 6, 0, 0, 0, 0, 0, 1, 0, 6, 0, 0, 0, 7, 5, 0, 9, 5, 9, 0, 0, 0, 6, 10, 0, 3, 4, 0, 9, 9, 1, 4, 0, 0, 9, 9, 0, 3, 0, 2, 5, 9, 0, 0, 0, 0, 0, 0, 0, 8, 0, 0, 5, 8, 1, 8, 0, 7, 0, 0, 0, 0, 7, 6, 7, 0, 0, 8, 0, 4, 8, 0, 9, 0, 0, 0, 3, 0, 0, 0, 1, 0, 0, 0, 7, 0, 9, 3, 0, 1, 0, 5, 0, 4, 0, 0, 9, 0, 1, 3, 0, 0, 0, 7, 8, 6, 10, 7, 0, 0, 4, 2, 6, 9, 9, 6, 1, 3, 3, 2, 5, 0, 0, 0, 7, 5, 10, 4, 0, 0, 1, 0, 0, 0, 0, 0, 0, 9, 0, 2, 7, 5, 0, 0, 0, 0, 0, 3, 0, 5, 10, 0, 0, 3, 5, 0, 3, 3, 0, 3, 2, 0, 3, 0, 9, 0, 9, 0, 7, 7, 0, 0, 3, 0, 4, 5, 0, 0, 0, 0, 9, 0, 0, 0, 0, 10, 0, 0, 0, 0, 5, 10, 9, 8, 0, 4, 2, 0]);

suc = [
   {2, 3, 4},
   {18, 36, 21},
   {25, 11, 14},
   {9, 12, 5},
   {8, 6, 7},
   {27, 22, 55},
   {31, 13, 23},
   {10, 20, 47},
   {24, 15},
   {19, 15},
   {41, 38, 47},
   {28, 30},
   {40},
   {17, 45, 33},
   {16},
   {60},
   {29},
   {25, 37, 31},
   {57},
   {26},
   {24, 30, 39},
   {54},
   {46},
   {60, 31},
   {51, 45, 39},
   {42, 28},
   {33, 35, 38},
   {48, 41},
   {50, 36, 54},
   {48, 49, 34},
   {32, 33},
   {48},
   {58, 44},
   {35, 37, 46},
   {43},
   {61},
   {38},
   {61, 43, 45},
   {40, 56},
   {50, 52},
   {51},
   {43},
   {54},
   {50},
   {59, 60},
   {47},
   {51},
   {53},
   {52, 53},
   {61},
   {52, 53},
   {57, 58},
   {55},
   {56},
   {56, 58},
   {57},
   {59},
   {59},
   {62},
   {62},
   {62},
   {  } ];

deadline = array2d(1..62, 1..3, [1, 3, 4, 3, 1, 1, 6, 5, 0, 8, 3, 2, 9, 2, 1, 10, 0, 0, 11, 0, 5, 21, 2, 3, 21, 0, 4, 22, 0, 4, 30, 4, 3, 36, 1, 5, 36, 4, 5, 39, 4, 3, 41, 5, 5, 41, 3, 5, 44, 2, 4, 45, 5, 1, 46, 3, 1, 49, 4, 2, 55, 0, 3, 62, 4, 2, 71, 5, 2, 73, 4, 3, 78, 2, 4, 82, 5, 0, 82, 3, 4, 85, 4, 2, 88, 4, 4, 94, 1, 4, 94, 4, 2, 96, 1, 0, 101, 3, 2, 101, 3, 0, 104, 2, 3, 107, 5, 1, 107, 2, 3, 111, 2, 0, 118, 2, 2, 121, 5, 2, 130, 2, 5, 131, 5, 5, 143, 0, 2, 146, 5, 5, 147, 2, 1, 147, 2, 5, 147, 1, 2, 147, 0, 1, 149, 0, 4, 150, 5, 1, 152, 0, 3, 152, 1, 3, 153, 3, 1, 153, 1, 0, 158, 3, 1, 162, 5, 2, 171, 4, 4, 178, 4, 2, 178, 1, 2, 180, 5, 5, 183, 3, 1, 185, 2, 2]);
