n_res = 4;
rc = [ 42, 35, 33, 39 ];
n_tasks = 62;
d = [0, 6, 9, 7, 1, 8, 2, 4, 2, 3, 3, 3, 9, 10, 1, 4, 5, 9, 4, 3, 9, 3, 1, 4, 9, 7, 2, 8, 10, 8, 4, 7, 7, 10, 10, 4, 1, 2, 6, 4, 2, 8, 5, 1, 2, 9, 5, 8, 4, 8, 10, 5, 7, 1, 6, 2, 6, 8, 1, 3, 9, 0];
rr = array2d(1..4, 1..62, [0, 3, 1, 2, 3, 5, 4, 10, 8, 3, 5, 9, 8, 7, 8, 6, 2, 3, 10, 2, 3, 3, 9, 3, 5, 9, 4, 6, 2, 10, 6, 2, 1, 5, 2, 8, 5, 10, 7, 6, 4, 5, 2, 7, 6, 10, 7, 9, 10, 1, 6, 10, 8, 4, 4, 2, 3, 9, 1, 9, 2, 0, 0, 5, 5, 3, 9, 9, 7, 8, 5, 6, 2, 9, 4, 7, 4, 8, 1, 7, 3, 1, 2, 1, 1, 3, 1, 6, 7, 9, 8, 9, 4, 7, 1, 5, 10, 3, 6, 8, 9, 6, 8, 6, 3, 2, 6, 2, 7, 7, 2, 10, 10, 7, 8, 10, 2, 9, 3, 2, 10, 10, 9, 0, 0, 5, 8, 4, 3, 5, 8, 1, 4, 5, 6, 8, 2, 3, 8, 9, 4, 7, 1, 9, 7, 6, 1, 9, 2, 4, 7, 6, 4, 1, 9, 2, 5, 6, 5, 8, 2, 3, 3, 1, 5, 8, 2, 4, 4, 4, 3, 8, 2, 10, 3, 10, 7, 5, 5, 5, 10, 3, 10, 4, 5, 0, 0, 2, 5, 3, 5, 5, 7, 1, 10, 3, 8, 7, 1, 9, 7, 8, 9, 2, 1, 2, 9, 7, 4, 5, 5, 5, 4, 9, 10, 9, 10, 9, 6, 10, 6, 4, 5, 3, 1, 1, 10, 1, 1, 1, 8, 6, 2, 5, 3, 8, 2, 7, 5, 7, 4, 2, 6, 4, 1, 1, 8, 0]);

suc = [
   {2, 3, 4},
   {7},
   {8},
   {17, 5, 14},
   {12, 21, 6},
   {9, 13},
   {18},
   {9, 10, 27},
   {35, 61},
   {33, 11, 43},
   {35, 22, 15},
   {58, 45, 46},
   {19, 22, 30},
   {20, 38},
   {16, 24},
   {50, 28, 54},
   {23},
   {20, 29, 39},
   {40, 41},
   {24, 33, 27},
   {26, 47},
   {23},
   {32, 36},
   {40, 25, 48},
   {49},
   {40},
   {42},
   {49, 51, 52},
   {32, 50, 31},
   {56},
   {34, 51, 46},
   {44},
   {57, 42},
   {35, 36, 37},
   {52, 60},
   {60},
   {38},
   {41, 44, 49},
   {58},
   {51, 46},
   {56, 42, 43},
   {45, 54},
   {47},
   {45},
   {52},
   {56},
   {53},
   {50, 54, 55},
   {61, 60, 53},
   {57},
   {55},
   {59},
   {55},
   {58},
   {57},
   {61},
   {59},
   {59},
   {62},
   {62},
   {62},
   {  } ];

deadline = array2d(1..62, 1..3, [10, 1, 5, 11, 1, 2, 19, 5, 1, 25, 4, 2, 25, 4, 2, 26, 4, 4, 34, 2, 1, 37, 4, 5, 38, 4, 0, 38, 4, 4, 39, 3, 5, 46, 2, 1, 56, 0, 1, 63, 4, 1, 63, 1, 5, 63, 5, 1, 64, 1, 2, 68, 5, 1, 69, 5, 1, 70, 3, 1, 76, 4, 1, 79, 2, 1, 84, 2, 2, 84, 3, 4, 85, 0, 3, 93, 4, 4, 94, 3, 3, 94, 0, 1, 97, 3, 0, 98, 3, 1, 99, 2, 0, 100, 1, 2, 103, 2, 0, 106, 5, 4, 109, 4, 2, 111, 3, 1, 111, 3, 2, 116, 1, 5, 122, 2, 0, 128, 5, 0, 129, 1, 3, 134, 1, 3, 135, 4, 3, 142, 0, 3, 145, 4, 4, 147, 2, 4, 149, 5, 0, 151, 4, 0, 160, 4, 3, 160, 4, 1, 162, 5, 3, 163, 1, 5, 164, 2, 3, 165, 0, 5, 170, 4, 1, 171, 5, 5, 172, 4, 3, 179, 2, 2, 180, 0, 5, 183, 2, 1, 184, 4, 2, 187, 5, 4]);
