n_res = 4;
rc = [ 23, 31, 16, 24 ];
n_tasks = 62;
d = [0, 9, 2, 5, 1, 7, 2, 5, 4, 2, 9, 6, 4, 1, 2, 4, 9, 5, 5, 1, 1, 8, 5, 5, 8, 1, 1, 3, 3, 10, 7, 1, 6, 8, 4, 1, 6, 10, 7, 7, 5, 6, 9, 6, 5, 8, 3, 4, 7, 5, 7, 7, 9, 2, 2, 9, 5, 3, 3, 9, 7, 0];
rr = array2d(1..4, 1..62, [0, 0, 0, 2, 0, 5, 0, 10, 0, 0, 0, 0, 3, 0, 0, 5, 0, 0, 0, 0, 0, 0, 0, 0, 0, 1, 0, 0, 0, 0, 0, 4, 0, 0, 0, 0, 0, 0, 2, 0, 7, 0, 4, 0, 0, 6, 0, 4, 0, 0, 0, 0, 0, 9, 1, 0, 0, 3, 0, 0, 2, 0, 0, 0, 1, 0, 2, 0, 5, 0, 0, 0, 3, 0, 0, 9, 0, 0, 0, 0, 0, 0, 10, 1, 7, 0, 5, 0, 0, 0, 0, 0, 0, 0, 0, 0, 0, 0, 8, 0, 0, 7, 0, 0, 0, 0, 7, 0, 0, 0, 0, 0, 0, 5, 0, 0, 0, 8, 10, 0, 0, 0, 0, 0, 0, 0, 0, 0, 0, 0, 0, 0, 0, 5, 0, 0, 0, 0, 4, 0, 0, 7, 4, 10, 0, 0, 0, 0, 0, 0, 2, 0, 0, 0, 1, 0, 1, 0, 0, 0, 0, 0, 0, 0, 0, 4, 0, 0, 0, 0, 0, 0, 0, 3, 7, 0, 9, 0, 0, 0, 0, 0, 2, 0, 0, 0, 0, 4, 0, 0, 0, 0, 0, 0, 1, 0, 0, 7, 0, 0, 0, 0, 2, 0, 0, 0, 0, 0, 0, 1, 0, 0, 0, 5, 10, 4, 0, 0, 0, 1, 1, 6, 0, 2, 0, 0, 0, 0, 0, 3, 0, 0, 2, 0, 6, 0, 0, 0, 0, 0, 0, 0, 0, 0, 0, 8, 0, 0]);

suc = [
   {2, 3, 4},
   {27, 11, 6},
   {17, 10, 5},
   {28, 13, 7},
   {19, 12, 15},
   {8, 9, 18},
   {36},
   {34, 20},
   {44},
   {57},
   {35, 14, 30},
   {32, 33, 22},
   {16, 37},
   {29},
   {33, 35},
   {59},
   {24, 45},
   {42},
   {21, 31},
   {23},
   {46},
   {49},
   {26, 55},
   {25, 43},
   {58, 44},
   {29},
   {61, 52, 29},
   {41, 57, 49},
   {53},
   {52},
   {58},
   {58},
   {42},
   {38},
   {37},
   {39},
   {43},
   {48, 47},
   {40},
   {46},
   {50},
   {59},
   {54},
   {56},
   {57},
   {54},
   {51, 53},
   {60},
   {50, 51},
   {59},
   {56},
   {53, 55},
   {54},
   {56},
   {60},
   {60},
   {61},
   {61},
   {62},
   {62},
   {62},
   {  } ];

deadline = array2d(1..62, 1..3, [3, 5, 4, 3, 0, 5, 4, 0, 1, 8, 2, 4, 12, 2, 3, 12, 3, 1, 17, 1, 4, 18, 1, 5, 20, 2, 2, 21, 3, 2, 22, 2, 0, 23, 2, 0, 23, 2, 1, 24, 2, 0, 27, 4, 3, 30, 1, 1, 32, 3, 2, 39, 1, 3, 42, 3, 4, 47, 3, 3, 54, 3, 0, 55, 0, 4, 61, 3, 4, 62, 4, 3, 62, 2, 4, 68, 3, 1, 71, 3, 4, 76, 1, 5, 82, 3, 2, 83, 4, 4, 93, 0, 5, 94, 5, 2, 96, 3, 0, 99, 0, 2, 103, 3, 0, 107, 2, 0, 107, 0, 3, 110, 1, 5, 116, 4, 4, 117, 5, 2, 118, 2, 0, 120, 5, 1, 121, 0, 3, 123, 5, 3, 123, 4, 3, 124, 2, 2, 128, 3, 5, 131, 0, 3, 132, 4, 0, 134, 2, 4, 134, 4, 3, 135, 4, 1, 136, 0, 3, 137, 1, 5, 152, 5, 5, 152, 3, 5, 153, 2, 3, 155, 4, 5, 155, 3, 4, 171, 5, 2, 172, 1, 3, 177, 2, 1]);
