n_res = 4;
rc = [ 24, 13, 14, 24 ];
n_tasks = 62;
d = [0, 5, 5, 2, 8, 10, 9, 4, 2, 7, 7, 8, 1, 6, 8, 8, 10, 5, 5, 2, 10, 9, 1, 1, 10, 8, 3, 4, 9, 8, 9, 9, 1, 2, 1, 3, 10, 2, 5, 2, 6, 7, 7, 3, 8, 10, 1, 9, 7, 1, 2, 5, 5, 1, 6, 9, 1, 2, 3, 10, 7, 0];
rr = array2d(1..4, 1..62, [0, 3, 0, 0, 0, 0, 0, 0, 0, 0, 0, 4, 5, 0, 0, 2, 0, 0, 9, 9, 0, 0, 0, 0, 0, 0, 8, 0, 6, 10, 5, 0, 0, 0, 0, 7, 0, 0, 0, 8, 8, 0, 0, 5, 10, 0, 0, 0, 6, 0, 6, 0, 0, 0, 0, 0, 0, 0, 0, 0, 0, 0, 0, 0, 9, 0, 0, 0, 0, 0, 6, 0, 0, 0, 0, 0, 3, 0, 0, 0, 0, 0, 0, 6, 8, 0, 0, 0, 0, 7, 0, 0, 0, 0, 0, 0, 0, 0, 0, 9, 4, 0, 0, 0, 0, 0, 0, 0, 0, 0, 0, 0, 0, 7, 0, 1, 0, 6, 0, 0, 8, 1, 0, 0, 0, 0, 0, 6, 7, 0, 0, 5, 0, 0, 1, 0, 0, 0, 0, 0, 3, 0, 0, 0, 4, 0, 0, 2, 0, 4, 0, 0, 0, 0, 0, 0, 0, 7, 0, 0, 0, 0, 0, 0, 0, 4, 0, 0, 0, 7, 0, 0, 0, 6, 0, 0, 4, 0, 5, 0, 4, 10, 0, 0, 0, 0, 0, 0, 0, 0, 0, 2, 9, 0, 0, 2, 0, 0, 0, 9, 0, 0, 0, 7, 0, 0, 0, 0, 0, 0, 9, 0, 0, 0, 0, 0, 0, 4, 2, 0, 6, 0, 7, 0, 0, 0, 0, 0, 6, 0, 0, 0, 2, 7, 0, 0, 0, 0, 0, 0, 0, 0, 0, 0, 0, 0, 8, 0]);

suc = [
   {2, 3, 4},
   {32, 10},
   {15, 6, 7},
   {9, 13, 5},
   {8},
   {41, 18, 12},
   {57, 30},
   {28, 31},
   {16, 25},
   {11, 28},
   {24, 22, 39},
   {27, 50, 19},
   {14},
   {20, 31},
   {26, 43, 20},
   {17, 37, 23},
   {33, 43, 38},
   {21, 54, 47},
   {24, 22},
   {49, 34, 22},
   {32, 52, 29},
   {33, 36, 38},
   {43, 35},
   {58, 31},
   {49, 51, 46},
   {30},
   {33, 35, 30},
   {35, 39},
   {40},
   {34, 44},
   {44, 55},
   {57},
   {59},
   {45},
   {53},
   {56},
   {50},
   {60},
   {42},
   {48},
   {47},
   {56, 47},
   {51, 46},
   {46},
   {54},
   {52},
   {52, 60},
   {49, 51},
   {57, 50},
   {58, 61, 55},
   {56, 61, 53},
   {53},
   {59},
   {55},
   {59},
   {58},
   {61},
   {60},
   {62},
   {62},
   {62},
   {  } ];

deadline = array2d(1..62, 1..3, [2, 1, 4, 2, 3, 1, 5, 1, 4, 8, 0, 4, 11, 0, 5, 11, 3, 1, 15, 3, 5, 16, 2, 2, 27, 3, 1, 34, 5, 0, 35, 3, 2, 37, 2, 3, 38, 3, 4, 40, 5, 4, 52, 0, 2, 56, 1, 1, 58, 3, 1, 61, 0, 3, 61, 3, 3, 64, 4, 0, 73, 4, 2, 75, 2, 1, 75, 3, 5, 77, 3, 1, 78, 0, 0, 80, 1, 0, 80, 1, 2, 80, 4, 1, 82, 0, 4, 83, 2, 0, 85, 4, 5, 88, 5, 0, 89, 1, 1, 97, 5, 4, 97, 2, 0, 98, 1, 5, 106, 1, 5, 115, 0, 4, 117, 3, 4, 119, 5, 5, 127, 0, 5, 127, 5, 2, 127, 1, 3, 129, 1, 0, 131, 0, 1, 134, 4, 1, 134, 2, 5, 139, 3, 1, 143, 3, 4, 150, 0, 2, 152, 1, 0, 154, 3, 2, 155, 2, 5, 156, 2, 0, 161, 5, 5, 162, 3, 3, 167, 4, 1, 168, 1, 4, 168, 2, 0, 168, 1, 3, 176, 4, 5, 179, 5, 1]);
