n_res = 4;
rc = [ 27, 31, 28, 31 ];
n_tasks = 62;
d = [0, 9, 8, 8, 5, 1, 6, 6, 2, 8, 9, 4, 5, 3, 6, 9, 1, 7, 5, 6, 3, 1, 10, 5, 5, 6, 6, 4, 7, 4, 4, 6, 8, 10, 8, 2, 6, 4, 6, 6, 5, 2, 10, 7, 7, 4, 6, 10, 10, 1, 6, 4, 4, 1, 3, 8, 4, 1, 9, 2, 5, 0];
rr = array2d(1..4, 1..62, [0, 1, 0, 0, 0, 2, 8, 10, 0, 7, 10, 0, 3, 8, 3, 1, 7, 0, 0, 5, 9, 10, 1, 2, 0, 3, 5, 2, 10, 0, 9, 4, 10, 0, 5, 5, 0, 4, 9, 0, 10, 10, 3, 3, 8, 8, 0, 0, 0, 4, 4, 8, 4, 3, 9, 0, 3, 10, 1, 8, 7, 0, 0, 7, 2, 1, 10, 5, 0, 2, 0, 0, 3, 3, 2, 0, 0, 2, 9, 7, 2, 0, 2, 4, 8, 0, 3, 5, 1, 8, 0, 6, 1, 4, 0, 4, 6, 0, 9, 7, 7, 10, 5, 8, 9, 7, 8, 7, 0, 0, 8, 2, 2, 0, 6, 6, 0, 8, 1, 0, 0, 7, 0, 0, 0, 8, 8, 2, 9, 5, 3, 10, 2, 0, 10, 4, 6, 7, 6, 10, 6, 2, 0, 6, 0, 10, 5, 10, 3, 0, 8, 0, 2, 4, 10, 4, 0, 1, 0, 0, 0, 0, 7, 0, 10, 0, 3, 2, 8, 4, 6, 6, 7, 0, 5, 10, 9, 0, 0, 2, 1, 2, 1, 2, 2, 0, 0, 4, 0, 8, 9, 9, 3, 2, 6, 6, 0, 9, 2, 5, 5, 0, 8, 5, 10, 0, 9, 0, 10, 6, 3, 5, 4, 0, 7, 9, 7, 2, 0, 0, 5, 8, 7, 7, 0, 10, 2, 2, 1, 6, 2, 0, 5, 8, 7, 1, 1, 8, 4, 5, 5, 10, 7, 3, 0, 10, 5, 0]);

suc = [
   {2, 3, 4},
   {8, 5, 7},
   {40, 13, 14},
   {9, 42},
   {32, 6, 14},
   {9, 19, 31},
   {17, 10, 15},
   {41, 50, 46},
   {35},
   {16, 11, 12},
   {18, 37, 23},
   {24, 20, 22},
   {39, 22, 30},
   {35, 20},
   {18, 35, 31},
   {18, 27, 29},
   {41, 34, 21},
   {21},
   {33, 27, 53},
   {59, 47},
   {40, 26, 28},
   {41, 28, 36},
   {26, 43, 45},
   {25, 55},
   {28, 37, 31},
   {36, 55},
   {45, 38, 39},
   {44},
   {57, 43, 60},
   {33, 38},
   {49, 34, 45},
   {40, 36, 39},
   {37, 54},
   {53},
   {56, 52, 46},
   {44, 38},
   {48, 49, 47},
   {48, 51},
   {54, 42, 46},
   {42, 53},
   {48, 61},
   {43, 60, 55},
   {50},
   {49, 50, 52},
   {54, 47},
   {61},
   {61},
   {58, 52},
   {51},
   {51},
   {58},
   {59},
   {57, 60},
   {56},
   {56},
   {57},
   {58},
   {59},
   {62},
   {62},
   {62},
   {  } ];

deadline = array2d(1..62, 1..3, [7, 0, 1, 8, 1, 3, 9, 5, 0, 15, 0, 3, 15, 0, 4, 18, 1, 5, 19, 1, 0, 22, 3, 0, 23, 4, 3, 35, 5, 2, 42, 3, 2, 43, 3, 1, 55, 0, 1, 57, 1, 5, 57, 4, 5, 58, 0, 3, 59, 5, 2, 70, 3, 4, 71, 1, 3, 72, 5, 1, 79, 5, 0, 84, 3, 2, 85, 2, 5, 90, 4, 4, 92, 1, 5, 93, 3, 1, 94, 3, 0, 101, 4, 0, 102, 2, 1, 104, 0, 2, 114, 5, 3, 114, 2, 4, 116, 2, 4, 119, 3, 3, 120, 2, 3, 124, 0, 4, 125, 5, 5, 135, 5, 3, 136, 2, 0, 144, 2, 2, 147, 5, 0, 151, 4, 5, 153, 3, 2, 153, 3, 2, 160, 2, 5, 161, 1, 5, 164, 4, 0, 167, 5, 1, 168, 3, 2, 169, 3, 2, 169, 0, 1, 176, 3, 5, 184, 5, 3, 187, 3, 4, 193, 4, 5, 193, 2, 1, 193, 0, 5, 199, 0, 1, 199, 0, 4, 204, 5, 0, 204, 2, 2, 206, 3, 4]);
