n_res = 4;
rc = [ 13, 11, 12, 13 ];
n_tasks = 62;
d = [0, 8, 1, 10, 6, 5, 8, 9, 1, 9, 8, 3, 6, 2, 5, 1, 3, 10, 9, 1, 3, 6, 3, 3, 7, 6, 10, 9, 8, 4, 3, 3, 6, 1, 9, 9, 1, 2, 4, 9, 10, 8, 4, 3, 6, 6, 7, 3, 2, 10, 4, 2, 1, 4, 10, 8, 6, 10, 3, 10, 1, 0];
rr = array2d(1..4, 1..62, [0, 10, 0, 0, 0, 0, 10, 0, 0, 0, 0, 0, 8, 0, 0, 6, 2, 0, 7, 5, 0, 0, 0, 0, 0, 9, 0, 3, 0, 0, 6, 0, 0, 0, 0, 9, 0, 5, 0, 0, 0, 0, 0, 0, 0, 0, 4, 0, 0, 0, 0, 2, 0, 0, 0, 0, 0, 0, 0, 0, 0, 0, 0, 0, 1, 9, 4, 0, 0, 0, 0, 6, 0, 7, 0, 0, 0, 0, 0, 0, 0, 0, 0, 4, 0, 5, 0, 0, 7, 0, 0, 0, 0, 0, 7, 0, 0, 0, 7, 0, 0, 0, 0, 0, 0, 0, 0, 0, 0, 8, 2, 0, 5, 0, 1, 0, 0, 0, 4, 0, 0, 3, 0, 0, 0, 0, 0, 0, 0, 0, 0, 6, 0, 0, 0, 0, 0, 0, 0, 0, 0, 2, 0, 0, 8, 0, 4, 0, 1, 0, 0, 0, 3, 7, 0, 0, 0, 0, 1, 0, 0, 0, 1, 0, 0, 0, 6, 0, 0, 0, 0, 0, 0, 7, 0, 0, 0, 6, 0, 3, 0, 9, 0, 0, 0, 0, 0, 0, 0, 0, 0, 1, 0, 0, 8, 0, 3, 0, 0, 1, 9, 0, 0, 0, 0, 0, 0, 0, 0, 0, 0, 0, 0, 0, 0, 0, 0, 4, 0, 4, 0, 0, 0, 0, 0, 5, 1, 9, 0, 1, 9, 7, 0, 0, 0, 0, 0, 0, 0, 0, 7, 0, 0, 0, 7, 0, 1, 0]);

suc = [
   {2, 3, 4},
   {10, 5, 15},
   {29, 14, 7},
   {8, 16, 12},
   {24, 6, 22},
   {17, 38},
   {23},
   {40, 9, 20},
   {35, 13},
   {11, 45},
   {26, 44, 37},
   {27, 21},
   {18},
   {18, 19, 34},
   {25, 59},
   {58, 55},
   {32, 43},
   {33, 28},
   {28},
   {27, 31},
   {39},
   {31},
   {51},
   {48},
   {40},
   {49, 54},
   {51, 30},
   {61, 47},
   {41, 57},
   {56},
   {43},
   {57},
   {39},
   {44},
   {36, 39},
   {42},
   {58},
   {50, 60},
   {53},
   {53},
   {46},
   {48},
   {58, 51},
   {50},
   {53},
   {56},
   {52},
   {55},
   {60},
   {61},
   {60},
   {54},
   {56},
   {55},
   {57},
   {61},
   {59},
   {59},
   {62},
   {62},
   {62},
   {  } ];

deadline = array2d(1..62, 1..3, [12, 0, 5, 13, 5, 4, 15, 3, 0, 16, 2, 1, 16, 1, 4, 18, 5, 5, 21, 1, 1, 28, 4, 2, 30, 0, 4, 32, 5, 3, 33, 5, 1, 41, 4, 2, 43, 3, 2, 44, 5, 1, 46, 2, 4, 47, 0, 0, 49, 3, 5, 51, 4, 5, 51, 2, 2, 52, 2, 3, 52, 4, 5, 55, 4, 3, 56, 3, 2, 63, 5, 2, 63, 5, 3, 68, 0, 4, 72, 3, 2, 72, 1, 3, 74, 0, 1, 80, 3, 4, 83, 1, 4, 83, 1, 1, 87, 0, 4, 92, 1, 3, 93, 4, 1, 95, 2, 5, 99, 1, 0, 103, 0, 0, 104, 3, 0, 104, 4, 1, 113, 3, 4, 114, 1, 3, 116, 0, 0, 118, 0, 5, 121, 2, 0, 125, 4, 2, 131, 3, 0, 134, 3, 4, 140, 5, 4, 142, 1, 5, 146, 4, 0, 155, 2, 3, 163, 1, 0, 164, 1, 4, 171, 0, 0, 172, 0, 4, 173, 3, 0, 176, 2, 4, 178, 5, 1, 180, 4, 3, 186, 4, 1, 187, 2, 5]);
