n_res = 4;
rc = [ 41, 30, 27, 33 ];
n_tasks = 62;
d = [0, 3, 6, 6, 4, 10, 6, 1, 8, 1, 7, 8, 1, 4, 9, 10, 8, 6, 6, 9, 4, 8, 7, 7, 3, 4, 3, 4, 9, 6, 5, 5, 9, 3, 7, 4, 10, 9, 4, 1, 6, 9, 5, 7, 7, 9, 4, 7, 2, 2, 6, 8, 6, 3, 4, 2, 8, 8, 8, 5, 3, 0];
rr = array2d(1..4, 1..62, [0, 6, 8, 0, 10, 2, 0, 0, 1, 8, 10, 2, 10, 3, 0, 0, 0, 6, 9, 0, 3, 0, 1, 8, 10, 0, 8, 0, 9, 3, 0, 6, 1, 2, 0, 9, 3, 5, 0, 2, 5, 0, 9, 0, 0, 0, 0, 7, 5, 10, 0, 1, 2, 0, 0, 1, 0, 8, 0, 8, 10, 0, 0, 0, 4, 0, 0, 0, 0, 0, 7, 9, 8, 0, 8, 0, 0, 4, 0, 7, 0, 0, 2, 6, 0, 10, 0, 3, 0, 5, 0, 0, 10, 0, 0, 0, 1, 9, 0, 0, 1, 5, 0, 3, 10, 0, 0, 0, 2, 5, 9, 0, 0, 0, 3, 0, 5, 7, 0, 3, 5, 10, 0, 0, 0, 0, 0, 8, 4, 0, 10, 0, 0, 0, 0, 2, 0, 0, 0, 0, 0, 1, 10, 0, 0, 1, 0, 0, 0, 0, 0, 0, 1, 0, 0, 0, 3, 0, 0, 1, 9, 4, 0, 6, 9, 6, 9, 3, 8, 1, 0, 0, 0, 8, 1, 3, 0, 3, 0, 0, 7, 1, 10, 0, 0, 0, 0, 8, 10, 0, 0, 9, 0, 1, 2, 9, 8, 0, 8, 5, 4, 10, 4, 0, 6, 2, 0, 0, 5, 9, 0, 0, 0, 0, 5, 0, 0, 0, 0, 5, 0, 9, 0, 0, 0, 9, 9, 0, 0, 1, 0, 0, 0, 0, 10, 1, 3, 2, 0, 8, 6, 0, 0, 8, 0, 0, 10, 0]);

suc = [
   {2, 3, 4},
   {16, 13, 7},
   {26, 37},
   {17, 5, 6},
   {11, 28},
   {9, 36, 29},
   {8, 10, 39},
   {12},
   {24, 19, 61},
   {26},
   {30},
   {20, 14, 23},
   {42, 55},
   {18, 42, 15},
   {48, 21, 31},
   {56, 21, 22},
   {32, 29},
   {25, 46, 41},
   {35, 39},
   {44},
   {33, 35},
   {29},
   {27},
   {34, 37},
   {38, 31},
   {43, 54},
   {48, 50, 47},
   {38},
   {48, 53},
   {40, 33, 44},
   {44, 47},
   {49, 57},
   {55},
   {52, 39},
   {53, 51, 37},
   {59},
   {60},
   {45},
   {50},
   {41, 58, 47},
   {43, 45},
   {52},
   {49},
   {45, 55},
   {56, 57, 50},
   {49},
   {51, 52, 53},
   {58},
   {56},
   {51},
   {54},
   {59, 54},
   {57},
   {60},
   {58},
   {60, 61},
   {59},
   {61},
   {62},
   {62},
   {62},
   {  } ];

deadline = array2d(1..62, 1..3, [1, 4, 5, 4, 4, 3, 8, 4, 5, 8, 0, 5, 11, 0, 1, 14, 1, 4, 18, 0, 0, 18, 2, 0, 21, 2, 1, 25, 0, 0, 25, 0, 0, 28, 1, 2, 29, 1, 3, 32, 4, 5, 32, 5, 5, 35, 0, 2, 43, 5, 0, 49, 0, 5, 50, 4, 2, 51, 0, 3, 56, 5, 5, 61, 2, 2, 61, 2, 4, 65, 3, 4, 72, 5, 2, 75, 2, 3, 76, 5, 5, 85, 1, 3, 86, 2, 4, 87, 1, 5, 90, 3, 5, 95, 0, 3, 98, 4, 0, 102, 1, 1, 103, 1, 0, 104, 1, 4, 107, 5, 2, 109, 0, 3, 109, 4, 3, 119, 1, 3, 121, 5, 2, 121, 5, 0, 132, 4, 1, 137, 5, 2, 140, 4, 4, 141, 5, 4, 141, 0, 1, 142, 4, 5, 148, 1, 0, 148, 0, 1, 149, 2, 1, 149, 2, 2, 152, 0, 4, 152, 1, 1, 154, 3, 1, 156, 0, 2, 156, 5, 1, 160, 3, 2, 160, 0, 4, 163, 2, 4, 164, 5, 0, 165, 5, 3]);
