n_res = 4;
rc = [ 65, 45, 51, 67 ];
n_tasks = 62;
d = [0, 5, 4, 6, 8, 3, 4, 6, 9, 9, 6, 3, 7, 7, 7, 10, 7, 8, 9, 4, 5, 7, 9, 4, 10, 6, 5, 1, 5, 5, 10, 2, 7, 7, 8, 2, 2, 2, 8, 8, 4, 10, 6, 3, 8, 3, 3, 8, 7, 10, 5, 4, 2, 2, 4, 4, 1, 3, 7, 9, 1, 0];
rr = array2d(1..4, 1..62, [0, 2, 1, 9, 0, 9, 9, 5, 0, 8, 10, 10, 2, 9, 2, 9, 7, 0, 10, 9, 4, 9, 0, 0, 0, 5, 2, 8, 10, 0, 1, 7, 2, 6, 10, 8, 9, 9, 7, 6, 4, 3, 2, 1, 6, 0, 0, 4, 8, 6, 2, 8, 8, 0, 3, 0, 7, 7, 1, 8, 9, 0, 0, 0, 2, 4, 3, 5, 6, 10, 0, 0, 0, 2, 8, 6, 6, 0, 10, 2, 0, 6, 0, 3, 1, 6, 7, 4, 0, 0, 9, 3, 2, 7, 10, 2, 3, 3, 8, 2, 2, 6, 0, 10, 0, 9, 4, 9, 0, 4, 2, 9, 4, 0, 3, 0, 0, 0, 7, 0, 1, 7, 0, 0, 0, 6, 0, 4, 10, 9, 7, 7, 1, 5, 0, 7, 8, 8, 0, 10, 10, 0, 8, 9, 9, 0, 2, 2, 10, 0, 3, 5, 2, 0, 1, 0, 8, 6, 2, 0, 0, 0, 0, 0, 4, 1, 0, 0, 3, 8, 4, 8, 8, 5, 0, 10, 10, 1, 0, 4, 8, 2, 7, 5, 4, 0, 0, 3, 0, 6, 4, 3, 3, 9, 7, 5, 6, 1, 0, 2, 4, 3, 0, 10, 0, 6, 3, 7, 3, 2, 0, 7, 0, 1, 4, 0, 0, 0, 0, 4, 2, 4, 7, 7, 10, 7, 6, 5, 7, 6, 10, 6, 10, 5, 6, 5, 3, 5, 0, 1, 1, 9, 0, 1, 0, 8, 1, 0]);

suc = [
   {2, 3, 4},
   {35, 11, 20},
   {8, 13, 30},
   {9, 5},
   {17, 10, 6},
   {23, 7},
   {57, 42},
   {12},
   {10, 30},
   {16, 22, 47},
   {51, 15},
   {24, 43},
   {33, 18, 14},
   {26},
   {29},
   {25, 21, 31},
   {56},
   {41, 19, 28},
   {37},
   {44, 53, 54},
   {27},
   {46, 38},
   {26},
   {33},
   {40},
   {45},
   {58},
   {39},
   {36, 38},
   {32, 60},
   {53},
   {34},
   {51, 55},
   {40},
   {51, 46},
   {48, 49},
   {40},
   {44},
   {53},
   {55},
   {43},
   {52},
   {59, 54},
   {56},
   {57, 46},
   {52},
   {61},
   {54},
   {50},
   {56},
   {59},
   {55},
   {59},
   {61},
   {61},
   {57},
   {58},
   {60},
   {62},
   {62},
   {62},
   {  } ];

deadline = array2d(1..62, 1..3, [1, 4, 3, 1, 3, 0, 2, 5, 3, 12, 4, 4, 13, 4, 2, 15, 1, 5, 22, 4, 4, 24, 4, 5, 24, 5, 4, 25, 3, 5, 26, 4, 5, 29, 3, 5, 33, 4, 0, 33, 3, 3, 37, 5, 2, 40, 2, 2, 40, 5, 5, 40, 1, 1, 43, 5, 4, 46, 5, 4, 49, 4, 2, 49, 4, 2, 57, 3, 1, 58, 3, 0, 62, 5, 5, 65, 2, 1, 69, 4, 3, 69, 1, 0, 70, 0, 0, 72, 1, 2, 76, 5, 3, 80, 3, 4, 81, 1, 5, 83, 4, 1, 93, 2, 3, 93, 3, 2, 97, 4, 3, 98, 4, 1, 100, 3, 5, 104, 0, 0, 106, 4, 5, 107, 2, 3, 115, 3, 3, 115, 1, 5, 118, 4, 5, 119, 0, 0, 120, 1, 5, 121, 1, 5, 122, 4, 5, 123, 3, 3, 125, 1, 0, 128, 0, 1, 129, 0, 0, 131, 3, 3, 133, 0, 5, 135, 0, 3, 138, 2, 5, 138, 0, 4, 140, 3, 3, 144, 2, 3, 145, 1, 1, 146, 0, 1]);
