n_res = 4;
rc = [ 21, 20, 12, 12 ];
n_tasks = 62;
d = [0, 6, 3, 2, 3, 3, 4, 5, 7, 8, 2, 9, 5, 6, 1, 4, 6, 10, 7, 2, 8, 5, 1, 4, 7, 10, 6, 8, 4, 2, 7, 3, 3, 1, 8, 2, 4, 4, 6, 8, 2, 4, 3, 1, 8, 3, 8, 3, 1, 4, 10, 5, 1, 2, 9, 7, 8, 5, 3, 6, 1, 0];
rr = array2d(1..4, 1..62, [0, 0, 6, 0, 0, 10, 0, 8, 1, 2, 9, 0, 3, 0, 5, 0, 0, 0, 0, 4, 2, 0, 0, 0, 4, 0, 0, 0, 0, 0, 0, 0, 0, 9, 0, 5, 9, 0, 0, 0, 0, 0, 0, 0, 0, 0, 0, 0, 0, 0, 2, 10, 0, 6, 0, 6, 0, 0, 0, 0, 0, 0, 0, 5, 0, 0, 0, 0, 0, 0, 0, 0, 0, 0, 0, 0, 0, 0, 7, 4, 0, 0, 0, 8, 10, 8, 0, 2, 0, 0, 0, 0, 4, 5, 0, 0, 0, 0, 0, 0, 0, 0, 0, 0, 0, 0, 0, 0, 0, 3, 2, 7, 0, 0, 0, 0, 4, 0, 0, 10, 8, 0, 0, 0, 0, 0, 0, 7, 3, 0, 3, 0, 0, 0, 0, 1, 0, 10, 0, 0, 0, 0, 0, 0, 0, 0, 0, 0, 0, 0, 0, 0, 6, 0, 0, 0, 0, 0, 2, 0, 0, 0, 0, 5, 0, 2, 5, 0, 0, 4, 0, 0, 0, 0, 0, 0, 4, 0, 0, 0, 0, 0, 0, 10, 0, 0, 0, 0, 0, 0, 0, 0, 0, 0, 0, 0, 0, 0, 0, 0, 0, 4, 0, 0, 2, 0, 0, 0, 0, 0, 0, 0, 3, 4, 0, 5, 0, 0, 9, 0, 0, 0, 0, 5, 2, 0, 1, 0, 0, 9, 1, 0, 5, 0, 0, 0, 0, 0, 0, 0, 0, 0, 4, 0, 0, 0, 5, 0]);

suc = [
   {2, 3, 4},
   {9, 34, 42},
   {34, 5, 6},
   {12, 45, 15},
   {8, 9, 10},
   {17, 18, 7},
   {25, 11, 14},
   {19, 36, 37},
   {50, 27, 21},
   {32, 35, 13},
   {42, 51},
   {31},
   {30, 15},
   {16},
   {23},
   {35, 20, 36},
   {33, 22, 41},
   {43, 20},
   {24},
   {24, 28, 22},
   {25, 35, 45},
   {54},
   {39},
   {27, 45},
   {26, 53, 31},
   {30},
   {38},
   {29},
   {49, 30},
   {59, 46},
   {40, 56, 36},
   {46, 49, 38},
   {44, 55},
   {55, 39},
   {60},
   {47},
   {50},
   {58, 44},
   {48},
   {58, 46},
   {43, 47},
   {43, 53},
   {48, 61, 55},
   {56, 53},
   {56, 47},
   {60},
   {51},
   {57},
   {57},
   {51},
   {52},
   {54},
   {61},
   {57, 61},
   {60},
   {59},
   {58},
   {59},
   {62},
   {62},
   {62},
   {  } ];

deadline = array2d(1..62, 1..3, [1, 2, 3, 6, 3, 4, 7, 3, 3, 13, 2, 3, 16, 4, 0, 17, 0, 1, 19, 5, 1, 22, 2, 3, 26, 5, 1, 32, 1, 0, 36, 0, 0, 39, 2, 5, 43, 5, 1, 48, 0, 0, 51, 3, 3, 54, 1, 0, 56, 3, 4, 58, 2, 4, 60, 3, 1, 61, 2, 2, 61, 1, 5, 64, 5, 2, 65, 4, 3, 69, 0, 3, 80, 3, 1, 82, 1, 1, 83, 1, 3, 85, 5, 5, 95, 2, 2, 103, 5, 0, 104, 0, 2, 116, 5, 1, 118, 5, 0, 121, 4, 1, 125, 5, 0, 125, 4, 4, 125, 3, 1, 130, 0, 2, 138, 5, 2, 140, 4, 5, 141, 3, 3, 142, 5, 3, 143, 4, 0, 145, 0, 2, 147, 3, 0, 147, 5, 3, 148, 0, 1, 155, 4, 0, 158, 4, 4, 159, 3, 3, 161, 4, 2, 162, 5, 2, 162, 5, 1, 166, 2, 3, 171, 1, 3, 172, 0, 5, 176, 1, 3, 185, 5, 0, 186, 0, 0, 187, 0, 1, 187, 0, 4, 192, 2, 1]);
