n_res = 4;
rc = [ 13, 11, 14, 14 ];
n_tasks = 62;
d = [0, 8, 2, 5, 7, 5, 5, 7, 1, 2, 7, 4, 8, 8, 8, 10, 3, 6, 8, 3, 3, 3, 1, 5, 2, 10, 8, 10, 10, 7, 7, 1, 8, 9, 2, 10, 5, 6, 7, 5, 6, 6, 4, 3, 6, 9, 10, 3, 2, 9, 2, 6, 4, 8, 8, 6, 3, 1, 10, 1, 8, 0];
rr = array2d(1..4, 1..62, [0, 0, 0, 0, 8, 0, 6, 3, 0, 3, 6, 10, 0, 0, 0, 0, 5, 0, 0, 1, 0, 0, 0, 0, 0, 0, 0, 9, 0, 0, 0, 0, 9, 0, 0, 0, 5, 9, 1, 6, 0, 0, 0, 0, 0, 0, 0, 0, 8, 0, 0, 0, 0, 3, 0, 0, 0, 0, 0, 0, 10, 0, 0, 0, 7, 3, 0, 0, 0, 0, 0, 0, 0, 0, 0, 1, 0, 0, 0, 8, 0, 0, 0, 0, 0, 0, 0, 0, 0, 0, 0, 0, 1, 0, 0, 3, 0, 0, 0, 0, 0, 0, 0, 0, 0, 0, 0, 4, 1, 0, 0, 0, 7, 0, 6, 0, 5, 0, 0, 7, 5, 10, 0, 0, 0, 1, 0, 0, 0, 0, 0, 0, 9, 0, 0, 0, 0, 0, 1, 8, 0, 0, 0, 0, 8, 0, 0, 6, 0, 0, 1, 0, 5, 0, 0, 0, 0, 0, 0, 0, 0, 0, 0, 0, 10, 2, 9, 0, 8, 0, 0, 0, 0, 0, 0, 7, 0, 0, 0, 0, 0, 0, 0, 0, 0, 0, 0, 0, 0, 0, 0, 7, 0, 0, 0, 0, 0, 0, 7, 0, 0, 0, 0, 0, 9, 0, 0, 9, 6, 0, 3, 7, 0, 0, 0, 8, 0, 8, 0, 0, 5, 7, 0, 0, 0, 0, 0, 0, 0, 4, 0, 0, 0, 3, 0, 8, 0, 0, 0, 0, 0, 1, 1, 0, 0, 0, 0, 0]);

suc = [
   {2, 3, 4},
   {8, 16, 17},
   {14, 6, 7},
   {13, 19, 5},
   {9},
   {57},
   {11},
   {10, 43},
   {27},
   {24, 25},
   {25, 12, 29},
   {56, 54, 47},
   {26, 39},
   {41, 18, 15},
   {33, 34, 23},
   {22},
   {20},
   {21},
   {32, 40},
   {59, 28, 46},
   {56},
   {45},
   {36},
   {48, 53},
   {53},
   {31},
   {43},
   {36},
   {38, 30},
   {52},
   {42},
   {33, 51},
   {35, 52},
   {35, 44, 37},
   {57, 60},
   {53},
   {40},
   {51},
   {55},
   {54},
   {50},
   {49},
   {46},
   {61, 46},
   {51},
   {60},
   {60, 55},
   {49},
   {52},
   {55},
   {58},
   {58, 54},
   {58},
   {61},
   {57},
   {59},
   {59},
   {61},
   {62},
   {62},
   {62},
   {  } ];

deadline = array2d(1..62, 1..3, [1, 0, 0, 4, 3, 0, 5, 3, 0, 16, 0, 4, 18, 1, 2, 20, 5, 5, 22, 0, 3, 23, 1, 2, 31, 4, 0, 32, 5, 2, 41, 3, 2, 41, 2, 5, 46, 3, 1, 47, 2, 0, 53, 4, 3, 57, 3, 5, 59, 5, 5, 59, 3, 4, 60, 3, 3, 61, 3, 0, 62, 2, 1, 63, 5, 1, 67, 0, 4, 69, 5, 1, 78, 2, 1, 81, 0, 5, 86, 5, 5, 86, 2, 3, 87, 0, 2, 87, 0, 1, 98, 1, 3, 100, 0, 5, 100, 2, 1, 101, 2, 2, 103, 3, 0, 103, 2, 4, 112, 3, 4, 118, 0, 1, 120, 4, 3, 121, 3, 4, 123, 1, 4, 124, 1, 0, 124, 5, 3, 124, 2, 1, 127, 0, 2, 129, 3, 0, 129, 2, 3, 131, 2, 0, 133, 0, 0, 133, 0, 2, 135, 3, 4, 135, 1, 1, 136, 5, 4, 137, 4, 2, 138, 1, 0, 138, 0, 1, 139, 4, 5, 140, 1, 1, 141, 4, 2, 145, 2, 3, 146, 1, 0, 149, 4, 5]);
