n_res = 4;
rc = [ 37, 44, 46, 46 ];
n_tasks = 62;
d = [0, 4, 10, 5, 9, 4, 6, 7, 2, 1, 4, 7, 2, 10, 5, 4, 7, 2, 8, 7, 8, 8, 4, 4, 1, 1, 4, 2, 6, 7, 10, 7, 9, 4, 6, 9, 9, 1, 10, 4, 8, 6, 6, 5, 8, 5, 7, 9, 9, 3, 9, 7, 3, 7, 1, 2, 7, 3, 4, 7, 1, 0];
rr = array2d(1..4, 1..62, [0, 1, 4, 9, 3, 10, 9, 3, 7, 4, 2, 6, 6, 1, 2, 7, 5, 4, 5, 10, 3, 3, 5, 4, 1, 9, 9, 7, 3, 10, 4, 4, 7, 5, 3, 6, 6, 8, 7, 7, 8, 8, 8, 4, 9, 9, 9, 1, 6, 6, 7, 10, 7, 8, 6, 4, 4, 2, 6, 8, 7, 0, 0, 8, 3, 3, 6, 9, 4, 4, 6, 2, 9, 2, 3, 4, 7, 9, 6, 6, 5, 3, 5, 3, 7, 7, 4, 8, 8, 6, 6, 2, 5, 8, 10, 4, 5, 7, 5, 10, 1, 1, 5, 2, 7, 8, 6, 6, 2, 8, 6, 4, 1, 3, 4, 10, 10, 1, 1, 3, 2, 6, 9, 0, 0, 8, 2, 6, 8, 4, 7, 10, 2, 3, 2, 4, 8, 10, 8, 1, 10, 1, 8, 8, 4, 8, 4, 10, 1, 7, 7, 6, 5, 9, 5, 3, 6, 6, 7, 4, 6, 4, 4, 6, 10, 8, 7, 3, 10, 4, 2, 9, 8, 6, 1, 9, 8, 1, 5, 8, 6, 7, 9, 2, 5, 0, 0, 10, 7, 3, 3, 2, 1, 9, 10, 9, 6, 2, 1, 6, 3, 2, 3, 4, 1, 2, 6, 1, 1, 2, 8, 1, 10, 5, 10, 4, 4, 9, 10, 10, 4, 9, 10, 5, 9, 10, 6, 2, 2, 6, 4, 4, 8, 1, 9, 8, 8, 7, 1, 5, 8, 9, 8, 1, 1, 6, 2, 0]);

suc = [
   {2, 3, 4},
   {22, 6, 15},
   {13, 6},
   {18, 5},
   {12, 13, 7},
   {33},
   {8, 9, 10},
   {33, 14},
   {48, 11},
   {17, 39},
   {16, 28, 29},
   {26, 20, 21},
   {42},
   {51},
   {17, 34},
   {25, 44, 21},
   {32, 35, 19},
   {40, 41, 39},
   {27, 30},
   {24, 27},
   {54},
   {36, 46, 23},
   {38, 55},
   {30},
   {43, 34, 27},
   {52},
   {33, 42, 36},
   {52, 31},
   {57},
   {48, 45},
   {42, 35, 38},
   {37},
   {46},
   {45, 38},
   {41, 53},
   {50, 51},
   {56, 51, 61},
   {61},
   {58},
   {56, 49, 47},
   {45},
   {49, 58},
   {47},
   {53, 47},
   {60, 46, 55},
   {59},
   {57, 52},
   {50},
   {61},
   {53},
   {57},
   {59, 54},
   {54, 55},
   {58},
   {56},
   {59},
   {60},
   {60},
   {62},
   {62},
   {62},
   {  } ];

deadline = array2d(1..62, 1..3, [1, 4, 4, 3, 2, 1, 11, 5, 2, 26, 1, 5, 31, 0, 5, 44, 4, 2, 47, 0, 4, 51, 3, 3, 54, 2, 4, 56, 4, 0, 58, 0, 4, 59, 0, 5, 63, 2, 1, 64, 3, 3, 65, 2, 2, 66, 3, 0, 75, 0, 4, 82, 5, 3, 84, 1, 3, 85, 5, 0, 91, 5, 5, 92, 4, 4, 93, 4, 3, 95, 4, 0, 96, 0, 1, 96, 5, 1, 99, 2, 0, 99, 1, 2, 110, 4, 1, 110, 1, 5, 112, 2, 4, 116, 5, 1, 117, 0, 0, 117, 3, 1, 117, 2, 4, 120, 2, 2, 123, 2, 0, 128, 5, 1, 130, 1, 4, 135, 3, 5, 137, 0, 5, 138, 2, 1, 138, 1, 5, 139, 3, 3, 141, 2, 0, 149, 1, 0, 153, 2, 4, 160, 4, 3, 162, 2, 3, 164, 1, 1, 164, 5, 2, 166, 3, 0, 166, 2, 2, 166, 1, 5, 167, 0, 0, 168, 1, 4, 174, 4, 4, 175, 2, 4, 175, 1, 1, 176, 3, 0, 179, 1, 1, 182, 4, 5]);
