n_res = 4;
rc = [ 38, 25, 34, 35 ];
n_tasks = 62;
d = [0, 2, 8, 8, 8, 7, 1, 8, 8, 3, 3, 6, 9, 7, 1, 8, 3, 5, 3, 3, 6, 9, 9, 3, 1, 4, 6, 8, 8, 4, 7, 8, 6, 1, 8, 4, 2, 6, 7, 2, 1, 8, 2, 1, 6, 1, 1, 7, 2, 4, 1, 6, 5, 10, 4, 7, 7, 9, 9, 10, 4, 0];
rr = array2d(1..4, 1..62, [0, 0, 0, 0, 10, 7, 7, 0, 4, 6, 0, 3, 4, 0, 6, 0, 10, 0, 0, 3, 0, 5, 0, 1, 9, 2, 0, 6, 0, 9, 0, 9, 0, 10, 10, 5, 0, 5, 6, 9, 0, 0, 1, 0, 7, 2, 10, 0, 7, 0, 4, 1, 0, 0, 0, 0, 0, 0, 8, 1, 0, 0, 0, 5, 0, 0, 0, 6, 6, 10, 1, 0, 0, 0, 1, 0, 0, 4, 1, 0, 1, 0, 2, 10, 0, 0, 0, 10, 10, 0, 7, 0, 1, 0, 0, 6, 0, 9, 0, 0, 0, 9, 0, 0, 9, 0, 10, 3, 0, 3, 0, 3, 0, 0, 2, 10, 0, 9, 4, 9, 5, 0, 0, 0, 0, 0, 0, 7, 2, 0, 10, 2, 5, 0, 0, 2, 0, 0, 0, 4, 0, 1, 0, 2, 0, 9, 9, 0, 0, 9, 0, 0, 0, 0, 7, 0, 0, 0, 0, 7, 4, 0, 0, 10, 7, 0, 0, 9, 7, 8, 0, 8, 2, 0, 0, 1, 0, 0, 2, 0, 0, 4, 0, 5, 9, 0, 0, 0, 6, 7, 7, 0, 2, 0, 9, 10, 6, 0, 0, 6, 1, 0, 0, 7, 1, 8, 0, 1, 7, 0, 0, 6, 0, 0, 0, 8, 0, 10, 8, 7, 0, 2, 10, 9, 2, 2, 4, 5, 0, 3, 0, 0, 0, 0, 0, 0, 0, 1, 0, 9, 0, 10, 0, 0, 7, 8, 10, 0]);

suc = [
   {2, 3, 4},
   {8, 25, 11},
   {9, 5, 6},
   {10, 7},
   {15},
   {21, 13},
   {56},
   {20},
   {12, 28},
   {18},
   {34},
   {35, 54},
   {51, 14, 39},
   {16, 36, 15},
   {17, 19, 38},
   {24, 31, 23},
   {53, 46},
   {41, 50, 27},
   {22, 47},
   {58},
   {32, 44, 29},
   {37},
   {33},
   {57, 26},
   {55},
   {46, 55},
   {30},
   {54},
   {46},
   {31},
   {37},
   {60},
   {40, 42},
   {41, 51},
   {59},
   {49},
   {57, 61},
   {53},
   {49, 52},
   {48, 45},
   {58},
   {43},
   {47},
   {49},
   {59},
   {56, 52},
   {60},
   {53},
   {57},
   {54},
   {52},
   {61},
   {56},
   {55},
   {58},
   {61},
   {59},
   {60},
   {62},
   {62},
   {62},
   {  } ];

deadline = array2d(1..62, 1..3, [10, 0, 4, 10, 4, 4, 14, 2, 1, 16, 0, 5, 26, 0, 1, 30, 4, 2, 34, 1, 0, 43, 3, 3, 45, 3, 0, 55, 5, 5, 55, 5, 4, 60, 3, 5, 60, 2, 4, 61, 0, 4, 64, 2, 0, 69, 4, 1, 74, 4, 5, 80, 2, 2, 86, 0, 1, 95, 2, 3, 99, 4, 5, 105, 1, 2, 105, 0, 5, 105, 2, 5, 106, 1, 4, 111, 1, 5, 115, 4, 4, 120, 1, 2, 120, 0, 4, 121, 2, 3, 121, 0, 4, 129, 4, 4, 134, 3, 5, 134, 4, 4, 142, 0, 3, 148, 0, 0, 151, 1, 0, 153, 3, 5, 154, 4, 1, 156, 1, 4, 157, 3, 2, 163, 1, 1, 164, 1, 0, 164, 4, 1, 165, 5, 0, 166, 3, 0, 168, 4, 4, 169, 0, 4, 172, 1, 2, 174, 1, 5, 182, 5, 5, 183, 1, 3, 183, 2, 0, 184, 4, 5, 185, 3, 5, 188, 3, 4, 188, 3, 0, 190, 4, 1, 191, 0, 0, 191, 1, 3, 193, 2, 5, 197, 3, 0]);
