n_res = 4;
rc = [ 22, 22, 37, 19 ];
n_tasks = 62;
d = [0, 4, 2, 5, 3, 5, 3, 8, 4, 1, 1, 10, 9, 10, 1, 2, 5, 8, 6, 4, 7, 6, 4, 4, 5, 10, 7, 8, 5, 6, 8, 8, 1, 6, 1, 4, 6, 4, 8, 7, 1, 10, 3, 10, 6, 6, 1, 5, 4, 10, 7, 7, 7, 6, 4, 4, 3, 4, 2, 4, 2, 0];
rr = array2d(1..4, 1..62, [0, 8, 0, 6, 10, 0, 0, 0, 0, 4, 0, 0, 9, 3, 8, 2, 0, 0, 5, 10, 0, 0, 0, 6, 0, 5, 0, 0, 3, 8, 0, 0, 0, 0, 7, 10, 0, 0, 9, 2, 2, 0, 0, 0, 9, 1, 8, 0, 0, 4, 0, 4, 9, 0, 2, 1, 0, 1, 2, 10, 8, 0, 0, 0, 4, 5, 5, 0, 0, 10, 0, 6, 0, 1, 0, 0, 5, 4, 0, 0, 0, 7, 10, 0, 0, 0, 0, 0, 4, 2, 6, 6, 0, 0, 2, 2, 0, 7, 2, 0, 0, 3, 0, 10, 0, 8, 4, 4, 0, 0, 1, 0, 0, 10, 0, 0, 5, 6, 4, 0, 2, 0, 0, 0, 0, 0, 0, 6, 9, 6, 9, 0, 5, 3, 4, 0, 8, 4, 0, 6, 0, 0, 10, 0, 0, 3, 1, 0, 7, 0, 5, 0, 10, 0, 10, 0, 0, 0, 10, 4, 10, 0, 0, 4, 10, 0, 0, 2, 4, 10, 0, 3, 0, 0, 0, 0, 0, 2, 2, 0, 0, 2, 0, 7, 0, 0, 0, 1, 6, 0, 9, 0, 0, 5, 0, 0, 2, 0, 3, 9, 0, 0, 9, 2, 0, 0, 2, 4, 8, 0, 0, 0, 9, 0, 7, 0, 0, 5, 5, 2, 0, 1, 0, 10, 5, 0, 0, 0, 6, 10, 0, 0, 8, 0, 0, 4, 1, 0, 0, 7, 2, 0, 0, 2, 4, 5, 7, 0]);

suc = [
   {2, 3, 4},
   {50, 13, 54},
   {11, 29, 6},
   {9, 5, 6},
   {52, 53, 23},
   {8, 20, 7},
   {10, 18, 37},
   {17, 25},
   {16, 38, 15},
   {24, 12, 22},
   {19, 37},
   {49, 21, 14},
   {28, 60},
   {61},
   {47},
   {33, 51, 46},
   {44},
   {25},
   {40, 30},
   {50, 58},
   {56, 26, 34},
   {34},
   {40, 25, 30},
   {50, 45},
   {42, 35, 39},
   {35, 27},
   {40, 41, 36},
   {35, 30},
   {31},
   {32, 42},
   {32, 46},
   {51, 44},
   {54},
   {38},
   {44},
   {38},
   {41, 46},
   {45, 39},
   {48},
   {51},
   {45},
   {43},
   {49},
   {55},
   {57, 52},
   {47},
   {49},
   {58, 54},
   {56, 57, 58},
   {52, 53},
   {57},
   {60, 55},
   {56, 60},
   {55},
   {61},
   {59},
   {59},
   {59, 61},
   {62},
   {62},
   {62},
   {  } ];

deadline = array2d(1..62, 1..3, [1, 3, 3, 2, 0, 3, 6, 5, 3, 8, 0, 5, 8, 2, 3, 15, 5, 2, 21, 1, 3, 21, 3, 4, 25, 0, 1, 29, 2, 4, 31, 5, 1, 31, 5, 1, 34, 0, 2, 35, 4, 3, 37, 3, 2, 38, 3, 4, 42, 5, 3, 47, 2, 2, 55, 1, 5, 56, 5, 3, 57, 5, 3, 66, 0, 3, 70, 4, 5, 72, 1, 4, 80, 5, 2, 84, 5, 3, 90, 3, 4, 90, 5, 1, 97, 0, 4, 98, 0, 2, 102, 3, 2, 106, 1, 1, 107, 5, 1, 107, 4, 3, 110, 1, 4, 111, 0, 2, 113, 4, 2, 115, 4, 4, 115, 2, 1, 120, 0, 0, 125, 1, 5, 125, 0, 5, 127, 3, 5, 128, 3, 3, 136, 4, 2, 137, 5, 2, 142, 5, 5, 149, 4, 0, 154, 2, 2, 163, 1, 0, 172, 1, 4, 173, 2, 4, 174, 2, 3, 175, 4, 3, 179, 0, 1, 187, 1, 2, 189, 2, 0, 194, 1, 2, 194, 1, 3, 196, 1, 5, 199, 3, 4, 201, 1, 1]);
