n_res = 4;
rc = [ 13, 11, 13, 14 ];
n_tasks = 62;
d = [0, 7, 4, 3, 3, 10, 1, 10, 8, 6, 5, 4, 1, 8, 10, 4, 6, 3, 7, 8, 8, 9, 1, 10, 2, 4, 7, 9, 7, 7, 8, 2, 6, 3, 1, 5, 8, 2, 8, 4, 9, 3, 7, 2, 9, 2, 5, 10, 5, 5, 8, 2, 5, 7, 10, 3, 3, 7, 10, 7, 4, 0];
rr = array2d(1..4, 1..62, [0, 0, 0, 10, 0, 0, 0, 0, 0, 9, 0, 8, 5, 6, 8, 0, 0, 0, 0, 1, 0, 0, 0, 2, 0, 9, 2, 0, 0, 0, 0, 0, 0, 0, 0, 0, 0, 4, 0, 0, 0, 0, 0, 0, 0, 0, 0, 0, 0, 0, 0, 0, 0, 7, 0, 0, 8, 0, 7, 3, 0, 0, 0, 0, 0, 0, 5, 3, 0, 4, 0, 0, 5, 0, 0, 0, 0, 2, 0, 0, 0, 0, 0, 9, 0, 0, 3, 0, 0, 0, 0, 0, 6, 0, 4, 0, 0, 0, 0, 0, 0, 0, 0, 6, 7, 4, 0, 0, 9, 0, 0, 0, 0, 3, 0, 0, 4, 4, 0, 0, 0, 0, 0, 0, 0, 7, 0, 0, 0, 0, 0, 0, 6, 0, 0, 0, 0, 0, 0, 0, 9, 0, 0, 0, 0, 0, 9, 0, 0, 0, 0, 1, 1, 0, 0, 0, 0, 3, 3, 0, 8, 0, 0, 0, 0, 0, 0, 0, 0, 2, 0, 0, 0, 0, 0, 0, 0, 0, 0, 0, 0, 2, 0, 0, 3, 0, 0, 0, 9, 0, 0, 0, 2, 0, 0, 0, 0, 0, 0, 0, 0, 0, 0, 10, 5, 0, 7, 0, 0, 0, 0, 0, 0, 0, 0, 10, 0, 5, 0, 0, 0, 4, 0, 0, 8, 5, 7, 0, 0, 0, 2, 0, 0, 9, 8, 7, 7, 0, 2, 0, 0, 0, 0, 0, 0, 0, 0, 0]);

suc = [
   {2, 3, 4},
   {8, 26, 43},
   {6, 55},
   {21, 5},
   {9, 10, 25},
   {17, 15, 7},
   {16, 18, 29},
   {12, 22, 39},
   {32},
   {11, 13, 14},
   {57},
   {19},
   {17},
   {33},
   {24, 45},
   {20, 23},
   {58, 35},
   {37},
   {27, 30},
   {35, 52},
   {36, 37},
   {54},
   {60},
   {61},
   {53},
   {39},
   {34, 28, 46},
   {48, 42},
   {32, 45, 38},
   {31},
   {41, 34},
   {47},
   {34, 51, 39},
   {40},
   {49},
   {47},
   {50, 53},
   {44},
   {57},
   {48, 50},
   {51},
   {44},
   {55},
   {61},
   {50},
   {47},
   {48},
   {58},
   {59},
   {58},
   {52},
   {56},
   {56},
   {55},
   {56},
   {59},
   {61},
   {60},
   {62},
   {62},
   {62},
   {  } ];

deadline = array2d(1..62, 1..3, [1, 4, 0, 1, 5, 2, 2, 2, 4, 5, 4, 4, 5, 1, 0, 13, 5, 3, 30, 2, 4, 31, 3, 2, 35, 3, 4, 38, 1, 0, 41, 1, 3, 42, 2, 5, 49, 5, 2, 49, 2, 1, 56, 3, 4, 56, 2, 2, 64, 5, 5, 66, 3, 5, 74, 4, 5, 75, 0, 5, 78, 0, 3, 80, 1, 4, 89, 2, 3, 91, 3, 3, 93, 4, 5, 96, 3, 2, 97, 5, 5, 98, 0, 3, 98, 2, 3, 98, 3, 1, 99, 5, 3, 100, 2, 0, 103, 1, 0, 105, 4, 3, 105, 2, 2, 105, 3, 3, 107, 0, 1, 121, 5, 0, 126, 1, 5, 127, 5, 4, 129, 2, 4, 130, 5, 3, 134, 2, 2, 138, 1, 3, 140, 2, 3, 144, 4, 5, 147, 1, 4, 154, 1, 4, 156, 0, 1, 159, 3, 4, 160, 1, 4, 161, 2, 2, 162, 0, 3, 165, 1, 0, 166, 3, 2, 166, 0, 0, 166, 2, 4, 174, 1, 1, 177, 3, 3, 177, 1, 4, 181, 4, 2, 183, 3, 2]);
