n_res = 4;
rc = [ 35, 47, 45, 39 ];
n_tasks = 62;
d = [0, 7, 3, 1, 5, 2, 5, 6, 6, 7, 2, 4, 3, 2, 10, 10, 1, 8, 10, 8, 7, 2, 7, 5, 4, 7, 7, 5, 4, 5, 9, 1, 2, 1, 7, 6, 10, 6, 6, 6, 9, 5, 4, 2, 7, 2, 4, 8, 8, 5, 1, 4, 5, 5, 4, 10, 4, 6, 1, 3, 3, 0];
rr = array2d(1..4, 1..62, [0, 0, 6, 3, 4, 3, 6, 5, 6, 0, 0, 10, 5, 3, 3, 1, 5, 5, 1, 0, 0, 2, 1, 8, 8, 9, 2, 6, 6, 0, 0, 0, 0, 7, 2, 0, 2, 3, 10, 6, 2, 3, 2, 2, 10, 0, 0, 0, 0, 0, 6, 0, 3, 0, 2, 9, 4, 1, 4, 6, 0, 0, 0, 5, 9, 8, 10, 1, 10, 0, 0, 4, 7, 1, 3, 10, 2, 4, 10, 0, 9, 7, 10, 3, 0, 7, 2, 7, 1, 5, 1, 10, 6, 10, 1, 0, 0, 3, 10, 10, 7, 5, 7, 7, 0, 5, 9, 6, 5, 10, 1, 2, 1, 7, 3, 0, 3, 9, 1, 1, 4, 8, 1, 0, 0, 9, 4, 8, 0, 0, 7, 0, 7, 0, 4, 7, 7, 8, 10, 1, 5, 0, 9, 7, 5, 6, 8, 6, 8, 10, 0, 0, 7, 8, 0, 0, 5, 0, 5, 3, 4, 6, 0, 0, 6, 8, 1, 2, 9, 9, 0, 8, 8, 7, 0, 0, 7, 6, 5, 5, 6, 0, 2, 6, 10, 0, 0, 5, 4, 1, 3, 8, 5, 9, 0, 0, 8, 3, 0, 0, 3, 10, 0, 6, 0, 3, 0, 0, 10, 1, 2, 8, 8, 0, 1, 2, 7, 8, 4, 7, 7, 7, 0, 3, 2, 0, 3, 1, 0, 4, 7, 3, 9, 0, 1, 1, 8, 0, 8, 9, 0, 7, 0, 7, 5, 0, 7, 0]);

suc = [
   {2, 3, 4},
   {16},
   {8, 34, 5},
   {57, 6, 7},
   {39},
   {10, 27, 23},
   {11, 37},
   {9, 14, 15},
   {11, 37},
   {17, 38},
   {25, 12, 22},
   {41, 21, 13},
   {29, 30},
   {32, 51},
   {24, 42, 31},
   {19, 20, 45},
   {40, 18, 37},
   {42},
   {55, 31},
   {48, 41, 22},
   {32, 26},
   {24, 32, 28},
   {35, 61},
   {27, 36},
   {56},
   {42, 44},
   {44},
   {36, 46, 31},
   {50, 46, 39},
   {48, 33, 39},
   {47},
   {47},
   {50},
   {40, 53},
   {58},
   {56},
   {55},
   {46},
   {40, 52, 53},
   {60},
   {54},
   {43, 45, 47},
   {49},
   {51, 61},
   {48, 52},
   {49, 61, 53},
   {50, 59},
   {59},
   {51},
   {54},
   {56, 52},
   {54},
   {55},
   {58},
   {59},
   {58},
   {60},
   {60},
   {62},
   {62},
   {62},
   {  } ];

deadline = array2d(1..62, 1..3, [5, 0, 2, 6, 4, 2, 8, 3, 4, 16, 3, 0, 22, 1, 5, 23, 4, 4, 27, 2, 2, 29, 0, 5, 32, 0, 0, 37, 5, 1, 40, 3, 1, 43, 1, 0, 44, 1, 4, 45, 0, 2, 45, 3, 5, 54, 2, 5, 56, 2, 3, 57, 4, 1, 58, 5, 3, 61, 0, 3, 71, 4, 5, 73, 4, 0, 74, 1, 0, 75, 2, 3, 76, 2, 2, 76, 1, 2, 79, 1, 3, 82, 3, 3, 82, 2, 0, 87, 5, 0, 87, 3, 3, 91, 2, 0, 96, 3, 3, 97, 2, 5, 105, 4, 5, 106, 4, 3, 107, 0, 1, 112, 3, 4, 114, 5, 3, 115, 5, 2, 116, 1, 0, 116, 0, 0, 119, 2, 3, 120, 2, 4, 121, 1, 3, 124, 0, 1, 126, 3, 1, 128, 1, 0, 131, 2, 2, 131, 4, 3, 136, 4, 1, 138, 3, 4, 138, 3, 5, 140, 2, 0, 147, 5, 5, 154, 3, 0, 156, 5, 4, 159, 4, 3, 164, 4, 4, 168, 3, 5, 171, 0, 3, 177, 4, 1]);
