n_res = 4;
rc = [ 23, 24, 36, 28 ];
n_tasks = 62;
d = [0, 4, 9, 4, 6, 5, 2, 5, 8, 2, 3, 9, 3, 5, 5, 2, 4, 1, 3, 4, 7, 8, 9, 5, 7, 1, 10, 4, 1, 7, 5, 4, 3, 9, 1, 4, 1, 8, 4, 3, 4, 8, 6, 7, 6, 9, 9, 7, 2, 7, 10, 4, 4, 10, 6, 6, 3, 4, 2, 6, 8, 0];
rr = array2d(1..4, 1..62, [0, 8, 0, 10, 0, 7, 9, 0, 0, 4, 10, 6, 0, 4, 0, 0, 0, 6, 0, 0, 0, 0, 3, 4, 5, 0, 0, 3, 6, 7, 6, 0, 0, 8, 9, 5, 0, 0, 0, 0, 0, 5, 0, 0, 0, 8, 5, 0, 0, 1, 0, 8, 0, 0, 0, 7, 0, 3, 9, 5, 6, 0, 0, 0, 2, 0, 10, 7, 0, 0, 8, 0, 5, 0, 7, 0, 7, 0, 0, 2, 7, 9, 4, 3, 7, 0, 1, 0, 1, 2, 0, 0, 8, 0, 0, 10, 0, 2, 1, 0, 0, 0, 7, 0, 5, 6, 0, 5, 0, 0, 7, 0, 0, 8, 5, 8, 0, 0, 0, 5, 0, 0, 0, 0, 0, 8, 0, 0, 9, 0, 0, 10, 0, 6, 0, 0, 0, 8, 0, 0, 0, 0, 7, 2, 6, 0, 0, 0, 1, 5, 10, 0, 0, 8, 0, 0, 4, 0, 0, 5, 5, 0, 0, 8, 0, 9, 1, 2, 1, 0, 7, 0, 0, 0, 10, 0, 8, 0, 4, 9, 0, 3, 2, 4, 0, 0, 0, 0, 0, 3, 0, 0, 3, 7, 6, 3, 0, 1, 8, 0, 10, 3, 2, 1, 3, 0, 0, 0, 2, 0, 0, 7, 6, 4, 4, 6, 1, 4, 4, 0, 0, 0, 0, 5, 4, 1, 0, 7, 3, 1, 0, 6, 1, 2, 0, 0, 3, 8, 0, 7, 0, 0, 4, 0, 0, 2, 0, 0]);

suc = [
   {2, 3, 4},
   {23, 6, 15},
   {8, 21, 5},
   {16},
   {26, 20, 31},
   {27, 14, 7},
   {9, 42, 12},
   {40, 10, 60},
   {19, 11, 13},
   {16, 17, 18},
   {44, 31},
   {25, 38},
   {24, 60, 22},
   {29},
   {33, 30},
   {49},
   {48, 28, 54},
   {42, 45, 55},
   {61},
   {22},
   {24, 30},
   {34, 50, 37},
   {33, 47},
   {25},
   {36},
   {51, 36, 46},
   {45, 37},
   {32, 50},
   {35},
   {43, 45},
   {40, 36, 39},
   {56, 37},
   {34, 51, 42},
   {39},
   {56},
   {41, 50, 47},
   {46},
   {40},
   {48, 43, 54},
   {59},
   {49, 52},
   {49, 57},
   {52},
   {53},
   {48, 52, 46},
   {47},
   {57},
   {61},
   {54},
   {55},
   {57, 60},
   {58},
   {56, 55},
   {58},
   {58},
   {61},
   {59},
   {59},
   {62},
   {62},
   {62},
   {  } ];

deadline = array2d(1..62, 1..3, [1, 1, 1, 9, 3, 4, 15, 2, 4, 16, 1, 4, 18, 3, 0, 25, 3, 4, 27, 1, 4, 27, 4, 1, 30, 2, 4, 40, 5, 2, 42, 4, 3, 45, 3, 4, 45, 2, 3, 46, 3, 0, 52, 3, 0, 54, 1, 3, 56, 2, 0, 58, 5, 5, 61, 3, 2, 61, 5, 3, 62, 5, 3, 67, 2, 1, 71, 0, 2, 71, 3, 0, 74, 2, 0, 77, 5, 4, 77, 5, 4, 80, 4, 0, 81, 3, 1, 87, 2, 0, 88, 1, 3, 89, 2, 4, 95, 0, 5, 97, 3, 0, 97, 2, 5, 97, 4, 0, 102, 0, 3, 105, 2, 1, 106, 4, 0, 109, 0, 0, 109, 1, 1, 112, 2, 0, 112, 1, 4, 118, 5, 4, 119, 0, 0, 120, 0, 2, 122, 2, 2, 123, 2, 5, 124, 2, 0, 126, 3, 1, 128, 4, 1, 128, 1, 2, 128, 5, 0, 129, 5, 5, 135, 1, 1, 137, 5, 2, 137, 5, 5, 137, 2, 1, 137, 1, 4, 141, 5, 5, 143, 4, 4, 144, 5, 0]);
