n_res = 4;
rc = [ 29, 34, 28, 30 ];
n_tasks = 62;
d = [0, 2, 8, 1, 3, 6, 8, 5, 6, 3, 2, 1, 3, 8, 4, 4, 8, 9, 3, 3, 7, 7, 6, 7, 1, 1, 3, 4, 10, 10, 4, 2, 6, 6, 5, 7, 8, 6, 6, 3, 1, 8, 10, 5, 7, 9, 7, 5, 1, 3, 7, 4, 8, 6, 6, 2, 4, 5, 5, 6, 5, 0];
rr = array2d(1..4, 1..62, [0, 5, 10, 9, 4, 8, 3, 2, 8, 10, 6, 6, 9, 9, 3, 10, 2, 10, 10, 9, 2, 8, 3, 8, 7, 5, 6, 1, 6, 8, 7, 8, 10, 7, 1, 4, 3, 6, 4, 1, 1, 1, 10, 10, 7, 1, 3, 6, 10, 9, 10, 8, 6, 7, 5, 8, 7, 5, 7, 4, 4, 0, 0, 7, 9, 3, 6, 2, 6, 8, 4, 7, 2, 6, 9, 7, 4, 5, 10, 1, 2, 2, 10, 10, 8, 4, 10, 5, 3, 1, 4, 3, 6, 1, 4, 6, 2, 10, 5, 5, 6, 6, 9, 4, 10, 4, 7, 1, 2, 6, 8, 8, 9, 1, 2, 3, 10, 8, 6, 5, 5, 6, 9, 0, 0, 2, 1, 10, 9, 1, 4, 1, 5, 3, 6, 2, 5, 5, 5, 4, 1, 3, 1, 8, 5, 10, 10, 10, 6, 9, 4, 5, 7, 5, 8, 4, 2, 4, 10, 8, 10, 8, 9, 8, 10, 10, 6, 8, 7, 5, 9, 2, 3, 1, 8, 10, 3, 8, 4, 6, 7, 2, 2, 8, 6, 0, 0, 3, 6, 6, 6, 1, 5, 8, 2, 1, 7, 2, 2, 7, 9, 5, 1, 2, 6, 10, 7, 2, 5, 3, 2, 4, 7, 2, 3, 9, 10, 4, 3, 2, 9, 3, 9, 7, 8, 10, 5, 8, 6, 3, 10, 7, 4, 7, 5, 2, 9, 9, 3, 7, 4, 2, 1, 3, 7, 9, 5, 0]);

suc = [
   {2, 3, 4},
   {48, 21, 22},
   {9, 6, 14},
   {17, 5, 14},
   {27, 12, 28},
   {8, 11, 7},
   {42, 36, 45},
   {16, 24, 13},
   {25, 10, 15},
   {40, 41, 37},
   {24, 41, 32},
   {32, 44, 13},
   {38, 39},
   {19, 23},
   {47, 37, 23},
   {18, 51, 23},
   {53, 20, 28},
   {26, 19, 42},
   {33, 34, 46},
   {21, 46, 55},
   {26, 61},
   {24, 32, 29},
   {28, 52, 31},
   {34, 30},
   {26, 42, 44},
   {59},
   {43},
   {36, 38, 39},
   {45, 38, 31},
   {57, 50, 35},
   {34},
   {40, 56},
   {60, 37, 47},
   {49, 35, 61},
   {58, 36},
   {60},
   {48, 39},
   {40, 54},
   {56},
   {50},
   {43, 44, 45},
   {48, 43},
   {49, 52},
   {51, 53},
   {51, 46},
   {57, 47},
   {58},
   {56, 50},
   {59, 53},
   {55},
   {52, 54},
   {55},
   {54},
   {57},
   {61},
   {58},
   {60},
   {59},
   {62},
   {62},
   {62},
   {  } ];

deadline = array2d(1..62, 1..3, [13, 2, 5, 23, 0, 3, 24, 5, 1, 26, 1, 5, 30, 2, 1, 31, 2, 3, 32, 1, 0, 33, 1, 2, 37, 0, 4, 43, 0, 0, 44, 1, 4, 44, 2, 0, 48, 3, 1, 51, 0, 4, 56, 1, 4, 58, 1, 1, 59, 1, 1, 65, 5, 3, 66, 1, 0, 67, 3, 5, 75, 3, 2, 77, 5, 2, 77, 4, 2, 77, 5, 2, 81, 0, 0, 83, 4, 1, 85, 1, 5, 85, 5, 5, 87, 4, 0, 89, 2, 0, 97, 1, 1, 99, 5, 4, 99, 3, 0, 107, 0, 3, 108, 2, 0, 110, 2, 4, 122, 0, 2, 124, 1, 0, 131, 4, 2, 131, 3, 0, 133, 2, 5, 134, 1, 2, 135, 2, 3, 144, 2, 2, 146, 3, 4, 148, 4, 2, 151, 1, 3, 152, 0, 1, 153, 1, 5, 158, 3, 4, 158, 4, 1, 164, 1, 0, 164, 5, 3, 164, 3, 4, 167, 5, 2, 169, 1, 2, 171, 3, 5, 172, 5, 4, 178, 0, 1, 183, 3, 5, 185, 2, 0, 187, 5, 3]);
