n_res = 4;
rc = [ 92, 71, 67, 77 ];
n_tasks = 62;
d = [0, 9, 10, 10, 9, 9, 4, 9, 7, 4, 3, 5, 2, 7, 10, 5, 4, 8, 9, 5, 8, 4, 4, 4, 2, 10, 1, 2, 7, 6, 4, 2, 6, 7, 2, 6, 6, 1, 7, 5, 8, 7, 3, 10, 10, 7, 10, 5, 6, 2, 7, 4, 3, 4, 7, 6, 1, 4, 1, 5, 2, 0];
rr = array2d(1..4, 1..62, [0, 5, 2, 5, 2, 1, 5, 1, 7, 8, 8, 4, 4, 7, 3, 6, 5, 3, 6, 1, 5, 3, 9, 3, 8, 1, 6, 8, 4, 8, 9, 7, 2, 10, 2, 8, 4, 6, 1, 10, 10, 6, 4, 10, 10, 3, 2, 7, 10, 4, 3, 9, 6, 2, 3, 5, 6, 8, 1, 2, 3, 0, 0, 6, 7, 5, 8, 3, 5, 1, 4, 7, 10, 7, 6, 3, 8, 5, 5, 8, 1, 9, 5, 4, 5, 2, 7, 2, 7, 2, 2, 7, 4, 7, 1, 1, 10, 4, 6, 5, 7, 5, 8, 4, 3, 8, 8, 10, 9, 5, 4, 7, 2, 3, 5, 5, 5, 3, 4, 6, 5, 1, 2, 0, 0, 1, 10, 1, 5, 3, 6, 4, 4, 7, 2, 4, 10, 4, 10, 3, 9, 1, 5, 3, 5, 4, 6, 9, 5, 3, 7, 1, 3, 3, 4, 2, 9, 4, 2, 6, 7, 4, 8, 10, 7, 5, 4, 5, 5, 2, 5, 7, 5, 8, 2, 7, 5, 6, 1, 1, 2, 6, 5, 9, 3, 0, 0, 10, 2, 7, 4, 4, 9, 8, 8, 7, 9, 1, 1, 1, 6, 7, 3, 6, 2, 4, 6, 10, 2, 3, 2, 3, 3, 5, 6, 4, 7, 10, 9, 5, 3, 1, 7, 3, 9, 10, 8, 6, 8, 8, 10, 6, 1, 10, 8, 5, 4, 3, 8, 1, 1, 9, 1, 3, 7, 5, 8, 0]);

suc = [
   {2, 3, 4},
   {8, 24},
   {11, 5, 6},
   {46, 14},
   {9, 10, 19},
   {29, 7},
   {17, 21},
   {30, 15},
   {18},
   {52},
   {12, 13, 44},
   {16, 14, 31},
   {20},
   {28, 54},
   {27},
   {26, 34},
   {27},
   {32, 25, 22},
   {40},
   {35, 23},
   {43},
   {42},
   {33},
   {41, 51},
   {42, 45},
   {46},
   {33, 53},
   {51},
   {47},
   {45},
   {35, 55},
   {38},
   {36, 39},
   {55},
   {61, 37},
   {45},
   {54},
   {50, 52},
   {48},
   {59, 46},
   {42},
   {49},
   {49, 55},
   {57},
   {50},
   {56},
   {57},
   {50},
   {58, 52},
   {56},
   {57},
   {59},
   {58, 54},
   {56},
   {60},
   {60},
   {59},
   {60, 61},
   {62},
   {62},
   {62},
   {  } ];

deadline = array2d(1..62, 1..3, [1, 3, 5, 2, 0, 3, 5, 5, 1, 7, 4, 1, 8, 5, 2, 9, 2, 4, 11, 4, 1, 17, 4, 1, 20, 2, 2, 21, 1, 2, 22, 1, 3, 23, 5, 1, 25, 0, 2, 28, 4, 3, 30, 2, 5, 31, 5, 5, 32, 4, 1, 33, 3, 4, 34, 4, 2, 34, 4, 2, 37, 1, 2, 37, 0, 0, 39, 5, 3, 45, 0, 1, 47, 4, 4, 48, 3, 3, 50, 2, 2, 52, 3, 0, 54, 0, 5, 66, 0, 0, 67, 3, 5, 70, 1, 4, 76, 4, 5, 79, 2, 2, 80, 0, 2, 82, 3, 3, 87, 5, 4, 87, 1, 0, 88, 2, 2, 98, 1, 4, 105, 5, 4, 105, 2, 4, 115, 3, 0, 116, 5, 4, 117, 5, 0, 121, 4, 5, 122, 5, 0, 122, 0, 3, 122, 0, 1, 123, 2, 5, 133, 0, 0, 134, 2, 3, 134, 5, 4, 137, 1, 3, 138, 3, 4, 140, 3, 2, 143, 0, 0, 144, 0, 0, 145, 1, 5, 151, 1, 5, 154, 3, 4, 159, 5, 4]);
