n_res = 4;
rc = [ 49, 52, 53, 58 ];
n_tasks = 62;
d = [0, 3, 10, 9, 2, 4, 5, 10, 3, 7, 1, 10, 6, 3, 10, 10, 9, 6, 1, 4, 1, 3, 3, 5, 4, 1, 4, 4, 6, 4, 10, 5, 4, 6, 3, 6, 6, 3, 4, 3, 10, 1, 9, 10, 7, 10, 3, 7, 1, 1, 6, 2, 5, 5, 4, 5, 4, 3, 3, 1, 5, 0];
rr = array2d(1..4, 1..62, [0, 8, 5, 7, 5, 4, 6, 4, 7, 2, 4, 1, 7, 3, 5, 10, 10, 4, 5, 1, 1, 2, 3, 5, 1, 1, 4, 8, 2, 2, 7, 7, 3, 6, 4, 10, 2, 9, 3, 9, 6, 2, 7, 6, 10, 2, 6, 2, 8, 2, 4, 5, 3, 3, 3, 10, 1, 3, 3, 5, 6, 0, 0, 3, 5, 8, 9, 6, 9, 6, 1, 1, 8, 10, 9, 5, 7, 10, 1, 5, 7, 2, 9, 4, 4, 2, 6, 5, 4, 1, 4, 3, 9, 2, 1, 9, 7, 2, 1, 6, 5, 4, 5, 4, 5, 5, 6, 10, 7, 7, 6, 7, 3, 7, 9, 3, 10, 10, 6, 9, 1, 8, 5, 0, 0, 7, 4, 2, 3, 5, 3, 6, 2, 10, 5, 1, 7, 1, 7, 6, 4, 7, 8, 6, 9, 10, 8, 10, 2, 3, 5, 8, 2, 6, 1, 10, 1, 7, 5, 1, 2, 7, 9, 6, 3, 10, 2, 2, 8, 6, 7, 9, 2, 10, 4, 7, 4, 9, 3, 4, 10, 4, 9, 2, 8, 0, 0, 8, 5, 10, 3, 6, 3, 2, 1, 1, 2, 6, 2, 4, 8, 6, 6, 6, 10, 1, 5, 8, 4, 9, 8, 10, 10, 2, 9, 6, 6, 6, 3, 9, 7, 4, 4, 7, 9, 1, 1, 10, 9, 6, 9, 10, 4, 6, 1, 5, 5, 3, 8, 6, 6, 8, 2, 8, 9, 1, 2, 0]);

suc = [
   {2, 3, 4},
   {8, 35, 6},
   {28, 7},
   {9, 10, 5},
   {11, 60},
   {17, 13, 14},
   {29, 19, 21},
   {54, 22},
   {25, 20},
   {26, 12},
   {25},
   {27, 21, 15},
   {27, 55, 31},
   {32, 26, 22},
   {16, 41},
   {56, 18},
   {61},
   {55},
   {23},
   {24, 40, 37},
   {52, 38},
   {53},
   {42},
   {33, 34, 61},
   {50, 43, 30},
   {41, 52},
   {49, 39},
   {47},
   {30},
   {47},
   {32, 36, 44},
   {42, 38},
   {53, 39},
   {52},
   {48},
   {42, 43, 39},
   {50, 51, 53},
   {41},
   {57, 46},
   {43, 45},
   {48, 57, 45},
   {45},
   {49, 46},
   {48, 58},
   {58, 46},
   {54, 47},
   {56, 51},
   {49, 54},
   {51},
   {61, 55},
   {59},
   {57},
   {58},
   {56},
   {59},
   {59},
   {60},
   {60},
   {62},
   {62},
   {62},
   {  } ];

deadline = array2d(1..62, 1..3, [3, 5, 0, 4, 1, 2, 5, 1, 4, 11, 4, 0, 15, 5, 1, 21, 0, 4, 26, 4, 1, 29, 5, 5, 31, 5, 1, 34, 5, 5, 34, 0, 0, 38, 1, 3, 42, 1, 1, 48, 0, 2, 63, 0, 1, 66, 0, 0, 68, 1, 4, 69, 3, 0, 70, 5, 2, 78, 1, 4, 82, 5, 0, 87, 1, 2, 88, 5, 1, 89, 0, 4, 92, 3, 5, 93, 0, 3, 98, 3, 4, 99, 4, 0, 100, 3, 3, 101, 2, 1, 106, 3, 2, 108, 2, 5, 115, 3, 5, 115, 0, 5, 120, 3, 1, 121, 0, 5, 121, 5, 3, 123, 1, 4, 124, 2, 1, 129, 2, 1, 135, 1, 1, 135, 1, 3, 137, 4, 4, 144, 4, 2, 145, 4, 1, 148, 5, 2, 152, 5, 3, 153, 2, 4, 158, 0, 2, 161, 1, 5, 163, 4, 5, 163, 0, 4, 164, 4, 1, 176, 1, 1, 176, 2, 5, 178, 3, 5, 184, 5, 5, 184, 5, 2, 184, 4, 0, 184, 3, 5, 186, 4, 3, 188, 4, 2]);
