n_res = 4;
rc = [ 17, 15, 22, 15 ];
n_tasks = 62;
d = [0, 2, 2, 2, 1, 9, 5, 6, 10, 8, 3, 9, 6, 3, 7, 1, 2, 1, 5, 3, 8, 2, 10, 10, 10, 2, 10, 1, 6, 7, 5, 2, 4, 2, 7, 7, 9, 3, 5, 7, 5, 6, 6, 10, 6, 4, 1, 9, 1, 9, 10, 5, 9, 3, 5, 8, 6, 8, 7, 8, 3, 0];
rr = array2d(1..4, 1..62, [0, 0, 0, 0, 0, 0, 0, 1, 0, 0, 0, 9, 4, 0, 0, 0, 3, 0, 2, 0, 4, 9, 0, 0, 4, 6, 0, 0, 0, 0, 0, 0, 4, 0, 0, 0, 2, 4, 0, 0, 0, 0, 0, 0, 8, 0, 0, 9, 3, 0, 0, 0, 0, 0, 0, 0, 1, 3, 0, 0, 0, 0, 0, 2, 4, 0, 0, 0, 0, 0, 4, 0, 7, 0, 0, 0, 0, 0, 0, 0, 0, 0, 0, 0, 0, 3, 0, 0, 3, 0, 0, 2, 2, 0, 0, 0, 0, 10, 0, 0, 0, 0, 0, 3, 0, 1, 0, 5, 0, 0, 0, 0, 3, 0, 0, 1, 0, 0, 0, 0, 10, 0, 0, 0, 0, 0, 0, 0, 7, 0, 7, 0, 0, 5, 0, 0, 0, 8, 0, 1, 0, 10, 0, 0, 0, 0, 0, 0, 0, 0, 0, 0, 0, 0, 0, 10, 0, 0, 0, 0, 0, 0, 0, 0, 0, 0, 0, 0, 0, 0, 0, 0, 0, 0, 0, 5, 2, 0, 0, 0, 0, 0, 0, 0, 7, 0, 0, 0, 0, 4, 0, 6, 0, 0, 0, 0, 0, 0, 0, 0, 3, 0, 0, 0, 0, 5, 0, 0, 2, 0, 0, 0, 0, 7, 8, 0, 0, 0, 0, 7, 1, 0, 0, 0, 9, 4, 2, 0, 5, 0, 0, 0, 3, 0, 0, 4, 0, 0, 0, 0, 4, 5, 0, 0, 0, 6, 0, 0]);

suc = [
   {2, 3, 4},
   {14, 6, 7},
   {20, 6, 15},
   {19, 11, 5},
   {9, 59, 33},
   {17, 10, 12},
   {8, 33, 43},
   {10, 20},
   {26, 20, 34},
   {46, 13, 30},
   {16, 32, 45},
   {56, 43, 37},
   {48, 41, 50},
   {48, 60, 31},
   {18, 26, 23},
   {34, 29, 38},
   {24, 29, 38},
   {24, 51, 28},
   {28, 21, 22},
   {27, 21, 55},
   {42},
   {24, 33, 27},
   {59, 37, 47},
   {25, 35, 36},
   {40, 31},
   {32, 27, 29},
   {40, 53},
   {37},
   {35, 54},
   {44, 38, 31},
   {42, 52},
   {36},
   {35, 45, 54},
   {61, 39},
   {56, 41, 47},
   {40, 49, 46},
   {42, 45, 39},
   {51},
   {46},
   {41, 50},
   {57},
   {61},
   {53, 47},
   {48, 50},
   {49},
   {54, 55},
   {49, 52},
   {51},
   {55},
   {56, 58},
   {59, 52, 53},
   {58},
   {58},
   {57},
   {60},
   {57},
   {60},
   {61},
   {62},
   {62},
   {62},
   {  } ];

deadline = array2d(1..62, 1..3, [1, 1, 4, 4, 4, 1, 12, 1, 3, 12, 1, 1, 13, 4, 4, 13, 0, 5, 19, 3, 3, 24, 3, 3, 27, 1, 3, 31, 4, 5, 32, 4, 1, 36, 5, 0, 39, 2, 1, 42, 3, 2, 45, 0, 3, 51, 4, 1, 64, 1, 4, 64, 4, 0, 66, 0, 4, 68, 3, 2, 69, 4, 3, 70, 5, 3, 76, 3, 1, 76, 1, 4, 78, 0, 5, 80, 5, 0, 94, 5, 3, 94, 1, 5, 95, 0, 3, 103, 5, 5, 106, 1, 5, 107, 4, 4, 110, 0, 4, 111, 1, 4, 113, 5, 5, 117, 4, 0, 118, 0, 5, 121, 4, 3, 122, 1, 4, 123, 5, 5, 123, 4, 2, 131, 5, 3, 137, 2, 2, 138, 1, 4, 139, 2, 2, 141, 5, 5, 145, 0, 0, 152, 0, 2, 155, 3, 1, 158, 2, 3, 162, 0, 1, 162, 5, 5, 164, 3, 0, 165, 3, 0, 170, 2, 2, 175, 3, 2, 176, 5, 2, 179, 1, 0, 184, 0, 1, 189, 4, 1, 191, 2, 4, 191, 2, 0]);
