n_res = 4;
rc = [ 24, 28, 18, 30 ];
n_tasks = 62;
d = [0, 4, 9, 9, 10, 5, 1, 7, 6, 9, 1, 9, 6, 2, 5, 8, 5, 1, 8, 4, 1, 8, 1, 6, 10, 9, 9, 8, 8, 10, 4, 5, 10, 7, 2, 7, 6, 10, 4, 5, 3, 9, 7, 3, 1, 10, 10, 7, 6, 7, 2, 6, 7, 1, 1, 6, 6, 3, 4, 6, 7, 0];
rr = array2d(1..4, 1..62, [0, 0, 0, 5, 2, 0, 0, 1, 0, 2, 4, 10, 0, 0, 0, 0, 0, 0, 7, 6, 6, 5, 10, 9, 1, 3, 0, 0, 0, 10, 0, 0, 6, 6, 9, 0, 2, 10, 0, 8, 2, 0, 6, 0, 8, 4, 0, 0, 1, 0, 0, 0, 9, 7, 0, 0, 0, 8, 8, 0, 2, 0, 0, 0, 5, 0, 1, 6, 7, 0, 0, 4, 0, 5, 0, 4, 0, 3, 9, 9, 10, 0, 0, 1, 7, 8, 0, 0, 6, 0, 0, 0, 0, 3, 5, 9, 0, 0, 0, 4, 9, 2, 3, 3, 0, 6, 0, 3, 0, 10, 0, 8, 0, 10, 7, 0, 0, 0, 3, 0, 0, 9, 10, 0, 0, 7, 0, 7, 0, 0, 6, 0, 0, 9, 0, 0, 0, 0, 5, 0, 1, 9, 0, 0, 0, 0, 0, 0, 0, 0, 0, 2, 0, 9, 0, 0, 0, 2, 7, 6, 0, 10, 4, 0, 0, 0, 8, 0, 4, 0, 9, 8, 8, 3, 0, 0, 0, 0, 10, 0, 0, 0, 0, 0, 0, 0, 0, 6, 6, 0, 7, 0, 0, 5, 4, 5, 0, 3, 7, 2, 3, 0, 1, 0, 1, 8, 1, 0, 8, 0, 0, 7, 0, 0, 1, 0, 4, 10, 7, 0, 0, 5, 5, 10, 0, 1, 4, 0, 7, 0, 6, 9, 0, 1, 0, 5, 3, 0, 0, 8, 1, 9, 8, 1, 8, 0, 0, 0]);

suc = [
   {2, 3, 4},
   {8, 36, 15},
   {9, 37, 13},
   {23, 5, 7},
   {40, 6},
   {24, 10, 22},
   {50, 20},
   {42},
   {19, 41, 11},
   {25},
   {18, 12},
   {55, 14, 39},
   {16, 17, 24},
   {16, 24, 26},
   {40, 42},
   {25, 34, 20},
   {28, 21},
   {26, 44, 45},
   {50, 45},
   {57},
   {44, 47},
   {32, 46},
   {33, 27, 38},
   {27, 31},
   {29},
   {42, 53, 31},
   {34, 35, 30},
   {52},
   {46, 30},
   {44},
   {51, 35},
   {43},
   {48, 39},
   {50, 52, 53},
   {56},
   {49, 54},
   {56},
   {39},
   {40, 43, 45},
   {56},
   {52},
   {49, 47},
   {49, 61, 54},
   {51},
   {60, 47},
   {48},
   {61},
   {51, 60},
   {57},
   {57},
   {61},
   {58, 59},
   {54},
   {58},
   {58},
   {59},
   {59},
   {60},
   {62},
   {62},
   {62},
   {  } ];

deadline = array2d(1..62, 1..3, [7, 1, 3, 11, 0, 1, 13, 4, 4, 14, 0, 2, 18, 4, 1, 20, 0, 4, 30, 3, 5, 32, 4, 2, 41, 4, 1, 41, 1, 5, 44, 2, 2, 50, 1, 2, 55, 3, 5, 55, 0, 0, 55, 4, 3, 58, 3, 0, 58, 5, 3, 64, 3, 1, 67, 2, 0, 69, 5, 3, 73, 5, 5, 74, 5, 5, 80, 0, 3, 82, 1, 4, 87, 0, 1, 92, 4, 0, 97, 5, 4, 99, 5, 4, 100, 4, 4, 104, 4, 2, 105, 2, 1, 109, 4, 4, 118, 2, 2, 118, 2, 0, 119, 5, 0, 126, 5, 2, 126, 5, 3, 132, 0, 4, 135, 1, 0, 136, 3, 5, 139, 4, 2, 140, 2, 3, 144, 2, 3, 147, 5, 5, 149, 0, 3, 150, 2, 4, 151, 1, 1, 155, 1, 3, 156, 1, 4, 156, 0, 5, 157, 4, 1, 157, 1, 0, 161, 2, 5, 170, 3, 2, 172, 0, 3, 175, 1, 0, 175, 2, 2, 177, 4, 4, 181, 4, 3, 184, 5, 5, 188, 0, 3, 196, 5, 3]);
