n_res = 4;
rc = [ 14, 16, 14, 17 ];
n_tasks = 62;
d = [0, 8, 3, 1, 9, 6, 9, 1, 10, 1, 3, 5, 1, 1, 2, 3, 2, 8, 7, 9, 4, 3, 9, 8, 10, 9, 5, 4, 9, 7, 5, 8, 5, 8, 8, 3, 1, 6, 10, 10, 7, 7, 5, 8, 10, 2, 1, 1, 5, 1, 6, 10, 10, 10, 6, 3, 2, 3, 3, 3, 6, 0];
rr = array2d(1..4, 1..62, [0, 0, 0, 0, 0, 0, 0, 2, 0, 0, 0, 0, 0, 0, 0, 0, 0, 9, 2, 0, 9, 0, 0, 2, 1, 0, 0, 0, 0, 0, 0, 0, 0, 0, 0, 0, 0, 5, 4, 0, 1, 0, 0, 0, 0, 0, 0, 0, 7, 3, 0, 0, 0, 0, 4, 0, 0, 6, 0, 8, 0, 0, 0, 0, 0, 8, 10, 0, 0, 0, 5, 0, 0, 0, 0, 0, 7, 0, 0, 0, 0, 0, 0, 0, 0, 0, 0, 0, 5, 0, 7, 0, 1, 0, 0, 0, 0, 1, 0, 0, 0, 0, 0, 0, 0, 0, 0, 0, 1, 0, 0, 0, 0, 10, 0, 0, 0, 0, 3, 0, 0, 0, 0, 0, 0, 0, 6, 0, 0, 2, 6, 0, 0, 5, 0, 0, 0, 7, 0, 0, 0, 0, 0, 0, 0, 0, 2, 0, 0, 4, 0, 5, 0, 0, 0, 0, 0, 0, 7, 0, 3, 0, 0, 0, 0, 4, 0, 0, 0, 10, 0, 0, 0, 0, 6, 0, 5, 0, 0, 5, 0, 0, 2, 0, 0, 0, 0, 7, 0, 0, 0, 0, 0, 0, 0, 0, 9, 8, 3, 0, 0, 1, 10, 0, 0, 2, 0, 6, 0, 0, 0, 0, 0, 0, 0, 1, 0, 7, 5, 8, 0, 0, 0, 0, 0, 8, 0, 0, 10, 8, 3, 0, 0, 1, 0, 0, 0, 0, 0, 1, 0, 0, 0, 0, 0, 0, 2, 0]);

suc = [
   {2, 3, 4},
   {17, 18},
   {9, 14, 15},
   {10, 11, 5},
   {16, 6, 7},
   {24, 51, 19},
   {8, 32, 12},
   {41, 31},
   {18, 44},
   {46, 13, 22},
   {20, 31},
   {49},
   {30},
   {42},
   {25, 28, 29},
   {43, 26, 27},
   {54, 21, 22},
   {33, 20, 28},
   {41, 39},
   {36, 37},
   {27, 37},
   {23},
   {53},
   {48, 60, 39},
   {50},
   {35},
   {33, 52, 49},
   {43, 45, 55},
   {38, 39},
   {34},
   {47},
   {34, 38},
   {41, 34, 50},
   {36},
   {37, 38},
   {47},
   {49},
   {40, 51, 45},
   {59, 61},
   {44, 60},
   {42},
   {57, 47},
   {48},
   {59},
   {48},
   {50, 55},
   {53},
   {54},
   {57},
   {56, 51},
   {58, 60},
   {57, 53},
   {56, 55},
   {56},
   {58, 59},
   {58},
   {61},
   {61},
   {62},
   {62},
   {62},
   {  } ];

deadline = array2d(1..62, 1..3, [4, 4, 1, 6, 4, 2, 8, 5, 1, 12, 1, 1, 14, 0, 5, 15, 2, 0, 17, 2, 5, 22, 0, 0, 29, 0, 5, 29, 2, 4, 30, 3, 0, 31, 5, 3, 31, 2, 2, 34, 2, 5, 36, 1, 1, 46, 5, 3, 47, 5, 4, 47, 5, 1, 50, 4, 5, 50, 5, 1, 53, 0, 2, 57, 4, 4, 59, 1, 1, 59, 1, 3, 64, 2, 3, 65, 1, 4, 68, 0, 4, 68, 3, 1, 70, 5, 5, 75, 3, 4, 80, 1, 2, 82, 0, 0, 84, 5, 4, 85, 2, 5, 85, 1, 1, 85, 4, 5, 92, 0, 0, 92, 0, 2, 98, 3, 1, 98, 0, 4, 100, 5, 0, 102, 1, 0, 110, 3, 3, 113, 1, 2, 116, 5, 2, 116, 1, 3, 119, 2, 5, 120, 1, 5, 121, 3, 1, 126, 0, 5, 132, 5, 0, 137, 3, 4, 139, 4, 2, 145, 2, 3, 147, 1, 2, 149, 3, 3, 150, 1, 1, 160, 4, 5, 165, 3, 3, 166, 5, 5, 166, 3, 5, 167, 0, 4]);
