n_res = 4;
rc = [ 16, 25, 29, 26 ];
n_tasks = 62;
d = [0, 5, 3, 4, 7, 8, 10, 3, 1, 5, 10, 8, 6, 7, 2, 6, 10, 7, 6, 4, 1, 1, 8, 1, 4, 7, 8, 9, 1, 10, 4, 5, 10, 8, 1, 9, 8, 3, 4, 9, 10, 2, 9, 4, 8, 2, 10, 7, 7, 1, 3, 7, 9, 2, 10, 8, 7, 2, 9, 1, 7, 0];
rr = array2d(1..4, 1..62, [0, 0, 0, 0, 0, 0, 0, 0, 0, 0, 0, 0, 0, 0, 3, 0, 0, 0, 0, 0, 0, 0, 0, 0, 0, 5, 0, 0, 0, 0, 1, 0, 9, 0, 0, 5, 0, 0, 0, 0, 0, 0, 0, 0, 6, 0, 0, 0, 0, 0, 0, 0, 3, 0, 0, 1, 0, 0, 0, 0, 2, 0, 0, 0, 0, 0, 0, 0, 1, 0, 4, 0, 9, 0, 1, 1, 0, 0, 0, 0, 4, 0, 0, 0, 6, 2, 0, 0, 0, 8, 3, 4, 0, 0, 0, 0, 0, 0, 0, 0, 0, 5, 0, 0, 0, 6, 0, 0, 4, 0, 0, 0, 0, 7, 0, 0, 0, 0, 0, 0, 3, 10, 0, 0, 0, 9, 10, 0, 7, 3, 0, 2, 0, 5, 0, 9, 0, 0, 0, 0, 8, 0, 0, 5, 6, 0, 0, 0, 0, 0, 1, 0, 0, 0, 0, 0, 0, 9, 0, 0, 0, 4, 7, 0, 3, 0, 4, 0, 0, 0, 0, 0, 8, 8, 0, 0, 0, 4, 0, 0, 2, 0, 0, 0, 0, 0, 0, 0, 0, 4, 0, 0, 0, 0, 0, 0, 0, 0, 0, 0, 0, 10, 0, 2, 0, 0, 0, 10, 0, 0, 9, 0, 0, 0, 0, 0, 0, 6, 0, 0, 5, 0, 6, 0, 0, 0, 0, 9, 0, 0, 0, 2, 0, 7, 0, 0, 8, 0, 0, 0, 8, 0, 0, 1, 0, 0, 0, 0]);

suc = [
   {2, 3, 4},
   {8, 10, 14},
   {18, 5, 7},
   {13, 15},
   {32, 12, 6},
   {17, 15},
   {50, 13, 38},
   {9, 21, 15},
   {46},
   {11},
   {59, 35, 23},
   {42, 20, 52},
   {24, 48},
   {31},
   {16, 27, 22},
   {23},
   {26, 19},
   {34, 21, 55},
   {57, 43, 53},
   {41, 28},
   {33, 28, 36},
   {25, 36},
   {58, 45},
   {56, 33, 30},
   {44, 47},
   {40},
   {29},
   {37},
   {35},
   {36, 52, 31},
   {44},
   {43, 35, 39},
   {37},
   {41, 51, 38},
   {52, 37, 54},
   {41, 39},
   {57},
   {48, 45},
   {51, 47},
   {49, 51},
   {44, 61},
   {57},
   {46},
   {59},
   {60, 47},
   {49, 54},
   {53},
   {56, 53},
   {56, 58},
   {54},
   {60},
   {55},
   {61},
   {55},
   {60},
   {59},
   {58},
   {61},
   {62},
   {62},
   {62},
   {  } ];

deadline = array2d(1..62, 1..3, [3, 3, 5, 6, 0, 3, 6, 2, 4, 8, 3, 1, 8, 0, 5, 12, 5, 1, 12, 3, 1, 13, 1, 2, 22, 0, 5, 39, 3, 5, 48, 0, 0, 53, 4, 3, 53, 2, 4, 62, 2, 4, 63, 3, 4, 65, 5, 4, 67, 2, 3, 70, 3, 1, 71, 0, 0, 72, 5, 3, 73, 5, 3, 76, 1, 2, 80, 1, 4, 82, 3, 2, 84, 0, 1, 85, 1, 4, 87, 2, 5, 87, 3, 3, 89, 2, 0, 89, 2, 3, 89, 3, 3, 92, 5, 1, 95, 5, 1, 96, 1, 3, 99, 4, 3, 100, 4, 1, 102, 1, 5, 103, 2, 0, 104, 0, 0, 107, 3, 0, 107, 5, 5, 113, 0, 2, 115, 5, 1, 116, 5, 4, 119, 3, 2, 120, 5, 4, 123, 0, 5, 124, 3, 1, 124, 0, 4, 130, 1, 5, 132, 4, 4, 133, 0, 4, 134, 0, 0, 134, 5, 0, 136, 0, 4, 152, 5, 5, 157, 0, 1, 159, 5, 4, 161, 3, 4, 165, 3, 5, 167, 4, 0, 172, 2, 5]);
