n_res = 4;
rc = [ 26, 22, 26, 21 ];
n_tasks = 62;
d = [0, 7, 4, 2, 10, 6, 1, 8, 8, 1, 10, 3, 9, 1, 3, 3, 9, 9, 9, 2, 7, 7, 2, 10, 6, 3, 6, 5, 5, 10, 6, 10, 2, 10, 8, 4, 5, 1, 7, 2, 2, 6, 7, 9, 8, 5, 1, 6, 1, 8, 5, 4, 9, 8, 9, 3, 5, 1, 5, 10, 8, 0];
rr = array2d(1..4, 1..62, [0, 0, 0, 0, 0, 0, 0, 3, 6, 6, 9, 1, 0, 4, 0, 1, 2, 0, 9, 7, 1, 0, 0, 0, 0, 0, 7, 0, 0, 10, 6, 0, 3, 0, 0, 0, 9, 0, 3, 6, 0, 5, 1, 10, 0, 10, 3, 4, 6, 0, 3, 0, 7, 0, 0, 0, 1, 0, 0, 9, 9, 0, 0, 5, 0, 0, 0, 0, 0, 1, 10, 7, 5, 0, 10, 8, 0, 6, 1, 0, 8, 0, 0, 0, 0, 8, 0, 0, 0, 4, 2, 9, 0, 2, 0, 0, 6, 10, 0, 6, 5, 6, 0, 4, 0, 6, 5, 4, 1, 9, 0, 0, 0, 4, 0, 2, 5, 0, 3, 0, 9, 8, 0, 0, 0, 10, 9, 5, 0, 0, 2, 1, 9, 0, 7, 8, 0, 6, 8, 0, 0, 4, 0, 9, 9, 0, 0, 0, 4, 1, 0, 9, 0, 0, 0, 0, 5, 1, 0, 7, 0, 0, 6, 0, 7, 4, 0, 8, 0, 6, 0, 0, 7, 2, 2, 3, 0, 0, 0, 4, 8, 10, 0, 0, 2, 0, 0, 0, 2, 0, 2, 3, 2, 4, 0, 0, 0, 0, 6, 4, 2, 2, 4, 9, 2, 7, 0, 3, 10, 8, 0, 0, 0, 0, 0, 3, 0, 2, 3, 0, 0, 0, 1, 0, 0, 0, 7, 0, 9, 0, 3, 0, 10, 0, 0, 0, 0, 10, 0, 6, 0, 0, 0, 0, 0, 0, 6, 0]);

suc = [
   {2, 3, 4},
   {20, 13, 6},
   {19, 5, 7},
   {32, 51, 19},
   {36, 14, 22},
   {8, 18, 53},
   {9, 22, 23},
   {16, 17, 38},
   {17, 10, 15},
   {11, 12, 31},
   {20, 30},
   {16, 25, 32},
   {17, 21, 30},
   {24, 42, 27},
   {33, 37, 21},
   {45, 37},
   {28, 55},
   {26},
   {28, 21, 39},
   {49, 43},
   {56, 25, 31},
   {43, 29, 54},
   {34, 43, 39},
   {61, 28, 53},
   {40, 34, 38},
   {32, 34, 31},
   {56, 49, 47},
   {59},
   {33, 50, 39},
   {33, 54},
   {46},
   {46, 41, 38},
   {35},
   {58},
   {40, 51},
   {48, 45, 37},
   {40, 41},
   {42, 44},
   {41},
   {42, 60, 46},
   {44, 47},
   {57},
   {50, 44, 45},
   {59},
   {60, 55},
   {49, 47},
   {57, 52},
   {50, 51, 53},
   {52},
   {56},
   {52},
   {58, 55},
   {60, 54},
   {59},
   {61},
   {57},
   {58},
   {61},
   {62},
   {62},
   {62},
   {  } ];

deadline = array2d(1..62, 1..3, [1, 2, 5, 5, 5, 0, 7, 0, 4, 10, 2, 5, 18, 5, 3, 26, 1, 3, 28, 3, 0, 29, 4, 3, 30, 2, 4, 34, 0, 5, 34, 0, 5, 42, 4, 5, 50, 1, 3, 51, 0, 1, 53, 0, 0, 55, 2, 2, 56, 2, 3, 56, 5, 0, 56, 4, 2, 56, 4, 5, 57, 2, 2, 59, 1, 4, 63, 3, 3, 68, 5, 2, 74, 0, 4, 77, 3, 5, 79, 3, 0, 81, 4, 3, 85, 4, 3, 93, 4, 5, 95, 4, 4, 101, 0, 0, 102, 0, 3, 103, 2, 3, 105, 1, 1, 105, 4, 2, 111, 5, 4, 115, 0, 5, 117, 1, 4, 129, 0, 1, 131, 2, 4, 133, 5, 1, 133, 5, 5, 134, 3, 5, 138, 4, 1, 139, 2, 4, 142, 1, 4, 142, 1, 4, 143, 2, 3, 149, 3, 3, 151, 0, 1, 156, 3, 4, 159, 0, 4, 163, 1, 1, 168, 3, 0, 173, 4, 4, 173, 0, 5, 174, 2, 2, 176, 2, 2, 177, 3, 2, 179, 3, 2, 182, 1, 1]);
