n_res = 4;
rc = [ 14, 16, 18, 14 ];
n_tasks = 62;
d = [0, 8, 9, 2, 2, 5, 1, 7, 4, 3, 7, 7, 3, 2, 3, 6, 2, 9, 8, 1, 1, 10, 5, 6, 8, 2, 3, 3, 1, 7, 8, 9, 5, 6, 9, 7, 2, 3, 4, 9, 1, 7, 7, 1, 6, 7, 3, 5, 10, 7, 6, 3, 1, 2, 3, 2, 4, 5, 2, 8, 5, 0];
rr = array2d(1..4, 1..62, [0, 0, 2, 0, 0, 0, 1, 7, 7, 0, 0, 0, 0, 4, 5, 0, 5, 0, 7, 0, 6, 0, 5, 2, 8, 2, 3, 0, 0, 0, 6, 0, 7, 0, 0, 0, 10, 0, 9, 0, 9, 0, 7, 4, 3, 0, 1, 8, 0, 9, 0, 0, 0, 0, 9, 0, 7, 10, 0, 5, 3, 0, 0, 5, 7, 0, 4, 3, 0, 0, 0, 1, 2, 1, 5, 8, 0, 1, 0, 4, 0, 0, 0, 3, 7, 0, 5, 0, 0, 10, 10, 0, 0, 9, 5, 0, 0, 6, 0, 4, 2, 7, 6, 0, 0, 0, 0, 0, 0, 1, 1, 2, 3, 7, 4, 8, 1, 10, 0, 0, 0, 2, 7, 0, 0, 0, 0, 7, 4, 0, 6, 0, 0, 1, 2, 10, 9, 0, 0, 0, 3, 8, 9, 0, 0, 9, 9, 0, 0, 0, 6, 9, 0, 8, 0, 7, 10, 0, 0, 0, 5, 0, 0, 0, 0, 2, 0, 0, 0, 0, 10, 6, 2, 0, 8, 0, 0, 0, 0, 0, 0, 0, 5, 0, 0, 0, 0, 6, 0, 7, 10, 3, 10, 0, 0, 7, 0, 0, 0, 0, 0, 0, 3, 0, 0, 9, 0, 4, 0, 0, 0, 6, 0, 3, 1, 4, 0, 1, 0, 6, 7, 0, 0, 9, 0, 5, 1, 3, 3, 2, 3, 6, 0, 10, 0, 1, 0, 0, 10, 4, 0, 2, 0, 9, 4, 8, 2, 0]);

suc = [
   {2, 3, 4},
   {32, 59},
   {13, 5, 14},
   {17, 21},
   {12, 6, 7},
   {24, 9, 23},
   {8, 16},
   {11, 30},
   {10},
   {35, 19},
   {40, 54},
   {50, 28},
   {36},
   {33, 26, 15},
   {24, 43},
   {41, 18},
   {25, 20, 22},
   {34, 27, 55},
   {56},
   {39},
   {38},
   {38},
   {50},
   {60},
   {48},
   {58, 29},
   {31},
   {41, 49, 47},
   {42},
   {52, 37},
   {60},
   {42},
   {46},
   {45},
   {60},
   {44, 38},
   {51},
   {56},
   {48},
   {46},
   {48},
   {61},
   {53, 45},
   {52},
   {50},
   {53},
   {51, 54},
   {58, 61},
   {57, 54},
   {58},
   {57},
   {55},
   {55},
   {56},
   {57},
   {61},
   {59},
   {59},
   {62},
   {62},
   {62},
   {  } ];

deadline = array2d(1..62, 1..3, [12, 1, 5, 12, 2, 2, 14, 0, 3, 14, 3, 2, 15, 1, 1, 17, 5, 3, 17, 0, 3, 20, 5, 2, 20, 1, 5, 21, 3, 2, 21, 3, 5, 24, 5, 1, 25, 1, 5, 30, 3, 3, 30, 5, 5, 31, 1, 0, 32, 2, 0, 36, 1, 5, 37, 4, 4, 51, 4, 2, 51, 3, 1, 54, 4, 0, 58, 5, 0, 59, 5, 1, 60, 1, 5, 61, 5, 0, 63, 2, 1, 63, 2, 5, 71, 0, 5, 73, 2, 2, 76, 0, 5, 76, 4, 5, 77, 4, 4, 77, 2, 1, 83, 2, 1, 83, 0, 4, 84, 1, 0, 85, 4, 1, 86, 0, 1, 87, 2, 5, 87, 2, 3, 92, 2, 4, 93, 3, 0, 94, 0, 2, 98, 0, 4, 102, 2, 3, 103, 0, 1, 103, 0, 0, 106, 4, 5, 108, 0, 3, 109, 4, 1, 109, 3, 2, 111, 3, 1, 111, 1, 2, 112, 3, 3, 112, 0, 2, 114, 4, 1, 119, 3, 0, 120, 5, 1, 124, 3, 2, 127, 3, 5, 129, 0, 2]);
