n_res = 4;
rc = [ 19, 17, 18, 16 ];
n_tasks = 62;
d = [0, 1, 7, 8, 7, 7, 10, 1, 7, 3, 10, 3, 9, 9, 9, 5, 2, 4, 6, 10, 7, 6, 1, 6, 10, 9, 2, 3, 2, 7, 7, 10, 2, 10, 9, 10, 8, 10, 5, 8, 10, 1, 10, 9, 8, 1, 9, 2, 4, 5, 1, 3, 2, 5, 8, 4, 5, 7, 8, 8, 3, 0];
rr = array2d(1..4, 1..62, [0, 2, 4, 10, 10, 10, 2, 9, 7, 4, 7, 2, 6, 10, 9, 2, 7, 8, 5, 1, 10, 4, 7, 1, 4, 9, 5, 8, 2, 1, 2, 3, 10, 3, 3, 4, 7, 3, 5, 8, 4, 2, 2, 8, 9, 10, 9, 7, 3, 5, 1, 1, 5, 4, 4, 8, 3, 3, 8, 9, 5, 0, 0, 6, 8, 5, 3, 2, 2, 2, 9, 8, 7, 9, 4, 5, 4, 1, 2, 4, 7, 5, 5, 5, 5, 3, 1, 8, 6, 4, 2, 4, 6, 8, 3, 7, 3, 10, 8, 4, 10, 9, 4, 6, 2, 7, 3, 2, 7, 6, 7, 9, 7, 9, 2, 7, 5, 4, 2, 9, 2, 6, 3, 0, 0, 10, 4, 1, 2, 10, 6, 10, 8, 9, 10, 6, 6, 1, 6, 2, 6, 9, 10, 8, 3, 7, 10, 10, 5, 1, 1, 4, 7, 8, 8, 1, 4, 7, 7, 4, 9, 4, 9, 6, 7, 6, 6, 5, 3, 6, 9, 5, 1, 1, 2, 9, 2, 3, 4, 6, 1, 1, 10, 7, 8, 0, 0, 2, 3, 3, 7, 3, 5, 4, 3, 2, 1, 9, 8, 1, 2, 10, 3, 7, 8, 6, 10, 3, 9, 5, 1, 5, 6, 2, 4, 3, 6, 10, 7, 3, 5, 5, 10, 4, 5, 9, 4, 2, 10, 8, 2, 5, 3, 2, 10, 8, 6, 7, 4, 6, 4, 1, 7, 8, 1, 8, 9, 0]);

suc = [
   {2, 3, 4},
   {16, 9, 12},
   {18, 34, 6},
   {17, 5, 15},
   {8, 10, 7},
   {29, 11, 21},
   {41, 26},
   {26, 45, 47},
   {24, 49, 58},
   {49, 35},
   {40, 20, 14},
   {38, 13, 22},
   {49, 28},
   {41, 28, 31},
   {16, 34, 46},
   {25, 19, 33},
   {27, 21},
   {46, 25, 30},
   {24, 36, 61},
   {57, 45, 23},
   {32, 26, 40},
   {44, 39, 23},
   {59, 61},
   {37, 54, 39},
   {32, 50, 47},
   {42, 28, 38},
   {52, 31},
   {48, 58, 39},
   {36, 30, 31},
   {40, 35},
   {50, 43, 38},
   {48, 43, 35},
   {36},
   {51, 37},
   {45, 37},
   {48, 42, 44},
   {42},
   {51, 46},
   {60, 53},
   {41, 43, 44},
   {50, 60},
   {52},
   {56, 53},
   {56, 47},
   {60},
   {54},
   {52},
   {51, 55},
   {61},
   {58, 55},
   {54},
   {53},
   {55},
   {56},
   {57},
   {57},
   {59},
   {59},
   {62},
   {62},
   {62},
   {  } ];

deadline = array2d(1..62, 1..3, [2, 0, 1, 5, 0, 3, 9, 0, 0, 19, 5, 1, 20, 2, 1, 25, 5, 4, 28, 5, 0, 34, 3, 0, 35, 4, 1, 35, 2, 3, 42, 0, 0, 45, 1, 0, 47, 4, 4, 47, 1, 4, 59, 5, 4, 63, 1, 5, 69, 1, 3, 70, 4, 3, 71, 2, 5, 75, 2, 1, 75, 3, 5, 76, 4, 3, 77, 4, 1, 78, 1, 5, 78, 4, 1, 82, 0, 0, 90, 0, 1, 90, 4, 2, 91, 5, 1, 94, 4, 0, 100, 4, 5, 101, 3, 2, 105, 3, 0, 109, 5, 2, 109, 4, 1, 113, 3, 3, 114, 0, 1, 117, 4, 1, 126, 3, 3, 138, 3, 0, 138, 3, 3, 152, 3, 2, 165, 5, 2, 166, 4, 0, 170, 5, 5, 175, 1, 2, 177, 0, 2, 180, 0, 5, 183, 3, 3, 183, 1, 3, 184, 3, 3, 185, 4, 2, 187, 4, 1, 187, 5, 5, 196, 3, 2, 199, 1, 1, 200, 4, 4, 205, 5, 3, 207, 4, 4, 209, 0, 0, 212, 3, 4, 213, 4, 0]);
