n_res = 4;
rc = [ 14, 11, 12, 11 ];
n_tasks = 62;
d = [0, 10, 10, 6, 6, 1, 9, 2, 6, 4, 2, 4, 9, 4, 4, 1, 6, 2, 6, 10, 2, 7, 4, 8, 10, 2, 9, 7, 9, 6, 1, 9, 6, 1, 1, 2, 9, 6, 9, 8, 5, 9, 8, 5, 10, 1, 4, 9, 6, 10, 6, 6, 2, 9, 10, 8, 8, 6, 4, 5, 5, 0];
rr = array2d(1..4, 1..62, [0, 0, 3, 0, 0, 0, 0, 0, 4, 0, 0, 0, 0, 0, 10, 2, 8, 0, 0, 2, 0, 0, 10, 0, 0, 0, 5, 6, 0, 0, 0, 0, 1, 0, 10, 0, 0, 0, 0, 0, 2, 3, 6, 0, 0, 2, 8, 0, 0, 0, 0, 0, 0, 0, 0, 0, 0, 0, 0, 0, 0, 0, 0, 0, 0, 2, 4, 0, 0, 4, 0, 0, 0, 0, 6, 0, 0, 0, 0, 0, 0, 0, 0, 0, 0, 4, 0, 4, 0, 0, 0, 0, 7, 3, 0, 0, 0, 6, 1, 0, 0, 0, 0, 0, 0, 0, 0, 0, 0, 1, 10, 0, 0, 0, 10, 1, 5, 0, 0, 4, 3, 0, 0, 0, 0, 10, 0, 0, 0, 0, 0, 0, 0, 0, 3, 1, 0, 0, 0, 0, 0, 5, 0, 0, 0, 3, 0, 0, 0, 0, 0, 0, 3, 0, 0, 0, 0, 2, 0, 0, 0, 3, 0, 6, 0, 0, 0, 9, 8, 0, 0, 0, 0, 0, 0, 0, 0, 0, 0, 0, 8, 0, 0, 7, 0, 0, 0, 0, 0, 0, 0, 10, 10, 0, 0, 4, 0, 0, 0, 4, 0, 0, 0, 0, 2, 0, 6, 0, 0, 0, 4, 0, 0, 0, 0, 1, 0, 0, 0, 0, 0, 0, 0, 0, 10, 0, 0, 0, 0, 0, 0, 0, 0, 0, 0, 2, 10, 1, 0, 0, 0, 10, 0, 0, 0, 0, 8, 0]);

suc = [
   {2, 3, 4},
   {9, 5, 25},
   {11, 29, 23},
   {8, 6, 14},
   {17, 39},
   {16, 15, 7},
   {41, 10, 13},
   {27},
   {40},
   {12, 38, 60},
   {14},
   {18, 26},
   {25, 50, 22},
   {19, 28},
   {20, 44},
   {56, 33, 31},
   {60},
   {20, 22},
   {37},
   {24, 21, 30},
   {42},
   {32},
   {43},
   {34},
   {36},
   {45},
   {58, 54, 47},
   {53},
   {55},
   {37},
   {52, 46},
   {35},
   {44},
   {48, 49},
   {49},
   {59},
   {48},
   {45},
   {43},
   {55},
   {57},
   {43},
   {45},
   {51, 47},
   {58},
   {54},
   {60},
   {59},
   {57, 51},
   {51},
   {53},
   {57},
   {54},
   {61},
   {56, 59},
   {61},
   {58},
   {61},
   {62},
   {62},
   {62},
   {  } ];

deadline = array2d(1..62, 1..3, [8, 3, 1, 10, 4, 4, 11, 3, 3, 12, 2, 4, 12, 4, 3, 13, 3, 4, 18, 5, 0, 20, 0, 1, 24, 5, 2, 27, 2, 1, 38, 5, 1, 38, 4, 5, 52, 2, 5, 54, 4, 1, 58, 4, 4, 61, 3, 5, 63, 4, 0, 63, 0, 3, 65, 3, 0, 67, 2, 3, 68, 2, 2, 72, 4, 5, 73, 4, 0, 76, 1, 3, 78, 5, 2, 83, 2, 4, 84, 5, 0, 84, 1, 3, 93, 0, 2, 98, 4, 4, 100, 0, 0, 100, 5, 3, 101, 5, 5, 109, 5, 5, 111, 1, 3, 114, 2, 0, 117, 3, 5, 119, 2, 1, 119, 1, 1, 120, 2, 0, 122, 3, 0, 122, 3, 0, 126, 2, 4, 127, 5, 4, 128, 5, 4, 129, 3, 0, 137, 3, 2, 142, 4, 4, 144, 2, 4, 146, 3, 5, 147, 0, 3, 149, 3, 0, 150, 2, 2, 159, 4, 3, 162, 3, 2, 165, 4, 0, 166, 1, 5, 167, 0, 2, 172, 5, 4, 176, 5, 0, 180, 5, 3, 188, 2, 3]);
