n_res = 4;
rc = [ 14, 15, 14, 12 ];
n_tasks = 62;
d = [0, 4, 5, 8, 9, 10, 1, 7, 6, 9, 3, 4, 4, 2, 8, 9, 6, 6, 1, 8, 7, 2, 2, 5, 6, 8, 5, 9, 3, 5, 6, 5, 1, 2, 5, 8, 8, 9, 9, 4, 5, 4, 1, 1, 4, 2, 3, 7, 10, 1, 1, 2, 3, 2, 8, 4, 3, 5, 7, 3, 5, 0];
rr = array2d(1..4, 1..62, [0, 0, 2, 0, 0, 10, 0, 0, 0, 3, 3, 5, 0, 3, 0, 2, 10, 5, 7, 0, 6, 3, 0, 9, 7, 4, 0, 4, 0, 0, 5, 0, 0, 2, 0, 0, 0, 10, 2, 1, 9, 0, 0, 4, 0, 0, 8, 4, 0, 0, 9, 0, 0, 2, 9, 0, 5, 4, 7, 10, 0, 0, 0, 3, 0, 9, 0, 0, 0, 9, 0, 0, 10, 8, 3, 7, 4, 7, 0, 2, 8, 5, 8, 0, 2, 4, 0, 0, 10, 2, 0, 0, 4, 0, 5, 0, 7, 1, 4, 7, 0, 0, 0, 0, 0, 3, 0, 7, 8, 9, 6, 0, 1, 0, 5, 1, 9, 10, 6, 0, 0, 9, 7, 0, 0, 0, 0, 2, 10, 6, 0, 0, 7, 2, 3, 5, 0, 5, 0, 0, 9, 0, 7, 0, 0, 0, 0, 0, 0, 6, 5, 0, 6, 0, 1, 0, 3, 0, 0, 5, 0, 0, 3, 7, 0, 0, 9, 0, 5, 0, 0, 1, 1, 4, 4, 0, 0, 0, 0, 0, 0, 0, 0, 9, 9, 0, 0, 10, 0, 0, 0, 0, 3, 0, 0, 5, 0, 0, 0, 9, 9, 4, 0, 0, 1, 0, 0, 0, 0, 10, 6, 0, 0, 0, 1, 1, 3, 1, 9, 4, 0, 0, 0, 0, 1, 0, 0, 10, 3, 0, 0, 0, 5, 0, 0, 5, 0, 2, 5, 6, 0, 8, 5, 10, 0, 3, 0, 0]);

suc = [
   {2, 3, 4},
   {32},
   {9, 5, 6},
   {8, 12, 7},
   {24, 18, 19},
   {16, 17, 10},
   {51, 11, 15},
   {26, 28},
   {32, 17, 15},
   {25, 26, 20},
   {21, 37, 13},
   {17, 14, 22},
   {57, 59, 47},
   {19, 29},
   {27, 19},
   {24, 27, 23},
   {34, 38, 55},
   {40, 26, 22},
   {40, 43, 46},
   {49, 29, 23},
   {34, 39},
   {27, 36, 30},
   {50},
   {52, 38},
   {36, 37, 30},
   {33, 39, 31},
   {35, 60, 45},
   {41, 36, 54},
   {45, 35, 37},
   {48, 33, 41},
   {32, 44, 53},
   {49, 42, 46},
   {50},
   {43, 35, 44},
   {61, 53},
   {51, 38},
   {44, 46},
   {53},
   {42, 43, 45},
   {41, 42, 61},
   {56, 57},
   {50},
   {49},
   {60},
   {48, 47},
   {48, 52, 54},
   {54, 55},
   {55},
   {56},
   {59},
   {58, 52},
   {57},
   {56},
   {58},
   {58},
   {59},
   {60},
   {61},
   {62},
   {62},
   {62},
   {  } ];

deadline = array2d(1..62, 1..3, [1, 1, 4, 2, 0, 0, 6, 1, 1, 10, 4, 5, 11, 3, 5, 13, 2, 5, 19, 4, 2, 20, 5, 4, 21, 2, 2, 22, 2, 2, 30, 3, 0, 31, 1, 2, 40, 4, 0, 43, 5, 0, 50, 3, 3, 54, 1, 4, 60, 0, 2, 61, 2, 1, 62, 0, 3, 62, 4, 2, 64, 1, 0, 65, 5, 1, 65, 1, 2, 66, 0, 1, 66, 2, 5, 78, 4, 2, 79, 0, 5, 82, 2, 3, 82, 5, 5, 87, 0, 2, 89, 3, 1, 90, 5, 1, 99, 1, 5, 99, 3, 3, 100, 5, 1, 102, 5, 5, 104, 0, 1, 104, 0, 2, 106, 0, 4, 113, 3, 4, 115, 3, 2, 121, 2, 5, 121, 3, 0, 122, 0, 1, 125, 2, 4, 126, 1, 3, 128, 0, 0, 131, 5, 3, 137, 2, 4, 143, 1, 0, 144, 0, 5, 146, 0, 0, 147, 3, 0, 148, 0, 5, 148, 4, 3, 148, 5, 3, 149, 1, 0, 156, 4, 0, 158, 5, 0, 159, 4, 1, 172, 4, 4, 173, 3, 4]);
