n_res = 4;
rc = [ 18, 16, 22, 10 ];
n_tasks = 62;
d = [0, 5, 8, 10, 10, 5, 3, 8, 8, 1, 6, 6, 1, 6, 2, 3, 8, 5, 3, 4, 3, 8, 1, 3, 1, 9, 10, 7, 4, 5, 3, 8, 10, 4, 5, 2, 6, 5, 10, 10, 1, 9, 1, 7, 3, 4, 7, 6, 4, 2, 1, 6, 9, 6, 4, 9, 4, 8, 9, 4, 1, 0];
rr = array2d(1..4, 1..62, [0, 0, 0, 0, 2, 0, 7, 0, 7, 0, 2, 8, 0, 0, 10, 0, 2, 0, 0, 0, 0, 0, 0, 0, 7, 10, 0, 8, 0, 0, 2, 0, 0, 0, 0, 0, 4, 0, 0, 0, 0, 0, 0, 6, 0, 0, 0, 0, 0, 0, 0, 0, 0, 0, 0, 3, 6, 0, 0, 0, 0, 0, 0, 0, 0, 0, 0, 0, 0, 0, 0, 6, 0, 0, 0, 1, 0, 0, 0, 8, 0, 1, 0, 0, 4, 0, 0, 0, 0, 0, 0, 0, 0, 0, 0, 0, 0, 8, 0, 0, 0, 0, 1, 0, 9, 0, 0, 10, 0, 0, 2, 0, 6, 2, 7, 0, 2, 0, 0, 7, 5, 0, 0, 0, 0, 10, 4, 9, 0, 3, 0, 0, 0, 0, 0, 0, 0, 0, 0, 2, 0, 0, 6, 0, 10, 2, 0, 4, 0, 0, 2, 0, 8, 10, 0, 0, 9, 0, 0, 0, 0, 2, 0, 4, 0, 0, 0, 0, 9, 0, 8, 0, 0, 2, 0, 0, 0, 0, 0, 0, 0, 0, 0, 0, 0, 0, 0, 0, 0, 0, 0, 0, 0, 1, 0, 0, 0, 0, 4, 0, 0, 0, 0, 0, 0, 0, 0, 0, 0, 0, 0, 0, 0, 0, 0, 0, 0, 7, 0, 5, 3, 0, 0, 0, 2, 0, 0, 8, 0, 0, 0, 0, 0, 3, 0, 0, 0, 0, 0, 6, 0, 0, 0, 0, 0, 8, 1, 0]);

suc = [
   {2, 3, 4},
   {10, 6, 7},
   {9, 12, 5},
   {35},
   {17, 13, 14},
   {8, 19},
   {8, 18},
   {11},
   {38},
   {56, 58},
   {50, 43},
   {16, 32},
   {48, 34},
   {20, 22, 15},
   {24, 40},
   {49},
   {34, 21, 31},
   {37, 23},
   {28, 29, 23},
   {49, 26},
   {32, 27, 30},
   {25, 43, 33},
   {41, 43},
   {42, 51},
   {41, 29},
   {53, 47},
   {37, 46},
   {59, 52, 38},
   {42},
   {48},
   {36, 54},
   {59, 35},
   {45, 39},
   {42},
   {46},
   {50, 45},
   {59},
   {40, 51},
   {48, 44, 46},
   {44},
   {56, 45},
   {53},
   {55, 53, 47},
   {55, 54, 47},
   {57},
   {56, 51, 61},
   {58},
   {49, 50},
   {52},
   {52},
   {60},
   {61, 55},
   {60, 54},
   {58},
   {57},
   {57},
   {60},
   {61},
   {62},
   {62},
   {62},
   {  } ];

deadline = array2d(1..62, 1..3, [7, 2, 2, 7, 1, 2, 10, 5, 3, 14, 3, 1, 20, 0, 0, 23, 4, 0, 24, 0, 0, 25, 4, 1, 25, 0, 5, 30, 4, 3, 31, 5, 0, 32, 2, 3, 33, 4, 0, 33, 4, 0, 34, 2, 3, 40, 3, 1, 42, 0, 0, 57, 0, 4, 58, 5, 3, 59, 1, 2, 63, 2, 1, 67, 4, 0, 68, 3, 1, 72, 2, 5, 78, 5, 1, 79, 2, 3, 81, 3, 1, 84, 3, 3, 91, 4, 1, 97, 3, 5, 97, 5, 1, 106, 4, 5, 109, 5, 4, 110, 0, 3, 113, 4, 3, 119, 3, 1, 119, 5, 0, 122, 3, 4, 135, 0, 4, 145, 2, 5, 148, 2, 1, 154, 0, 5, 156, 3, 5, 156, 1, 0, 157, 5, 5, 158, 3, 0, 160, 0, 2, 162, 0, 2, 163, 1, 0, 164, 4, 1, 164, 4, 3, 172, 0, 0, 173, 0, 5, 177, 1, 5, 179, 4, 5, 184, 5, 5, 184, 2, 5, 185, 1, 1, 187, 1, 5, 191, 2, 0, 197, 3, 4, 199, 1, 5]);
