n_res = 4;
rc = [ 31, 35, 36, 40 ];
n_tasks = 92;
d = [0, 3, 4, 10, 8, 5, 10, 3, 6, 5, 2, 5, 9, 8, 2, 8, 2, 9, 10, 6, 6, 1, 9, 8, 10, 2, 6, 4, 1, 6, 8, 7, 7, 5, 3, 8, 7, 8, 5, 3, 4, 5, 8, 4, 8, 4, 2, 8, 9, 3, 9, 10, 4, 8, 5, 7, 9, 5, 6, 6, 3, 6, 10, 1, 5, 4, 7, 3, 2, 1, 10, 5, 4, 9, 9, 5, 9, 5, 3, 7, 2, 3, 6, 5, 8, 5, 6, 1, 6, 10, 7, 0];
rr = array2d(1..4, 1..92, [0, 3, 2, 9, 1, 0, 0, 0, 4, 3, 9, 2, 0, 6, 4, 0, 3, 0, 0, 1, 6, 10, 10, 8, 10, 0, 0, 9, 1, 0, 3, 1, 9, 2, 1, 2, 5, 3, 7, 0, 5, 3, 1, 0, 4, 2, 4, 9, 7, 7, 0, 6, 0, 0, 8, 5, 9, 9, 3, 0, 1, 1, 3, 0, 2, 7, 0, 0, 8, 2, 1, 3, 2, 0, 1, 0, 10, 3, 0, 7, 5, 1, 9, 0, 8, 6, 1, 9, 3, 5, 10, 0, 0, 0, 0, 7, 1, 6, 9, 0, 0, 4, 4, 6, 6, 8, 5, 4, 1, 7, 4, 5, 1, 3, 1, 0, 5, 7, 0, 1, 6, 0, 0, 0, 0, 6, 0, 4, 6, 5, 8, 9, 0, 8, 10, 8, 3, 0, 0, 7, 1, 6, 7, 0, 0, 10, 3, 6, 10, 0, 10, 3, 4, 8, 0, 7, 6, 9, 6, 1, 7, 4, 0, 9, 4, 8, 7, 3, 4, 7, 8, 5, 1, 2, 1, 1, 7, 0, 5, 0, 4, 3, 2, 0, 0, 0, 1, 4, 2, 6, 10, 5, 0, 7, 2, 5, 0, 2, 0, 0, 8, 0, 0, 6, 0, 6, 0, 1, 0, 6, 5, 0, 5, 9, 5, 1, 2, 0, 1, 6, 0, 8, 6, 8, 1, 0, 0, 8, 0, 4, 10, 4, 3, 4, 8, 10, 4, 9, 9, 0, 1, 9, 5, 1, 9, 0, 2, 6, 7, 9, 2, 10, 4, 0, 7, 9, 7, 8, 6, 2, 6, 5, 6, 9, 6, 6, 0, 0, 4, 5, 3, 1, 0, 8, 5, 0, 0, 0, 3, 0, 4, 10, 10, 5, 6, 4, 1, 0, 10, 0, 0, 9, 6, 8, 2, 4, 1, 0, 9, 0, 2, 10, 6, 0, 10, 8, 2, 9, 10, 10, 4, 7, 2, 10, 1, 0, 0, 0, 2, 7, 2, 1, 0, 4, 0, 4, 0, 7, 9, 5, 0, 0, 8, 0, 8, 7, 2, 6, 2, 6, 8, 8, 0, 4, 9, 3, 3, 3, 2, 5, 7, 0, 10, 3, 9, 6, 9, 4, 0, 2, 0, 0, 8, 10, 0, 8, 6, 0]);

suc = [
   {2, 3, 4},
   {51, 35, 15},
   {28, 22, 39},
   {18, 5, 6},
   {83, 13, 7},
   {9, 10, 30},
   {8, 26, 75},
   {11, 14, 23},
   {17, 74, 12},
   {41},
   {89, 20},
   {19},
   {73, 90, 59},
   {49, 20},
   {16, 52, 71},
   {34, 27, 21},
   {32, 69},
   {29},
   {50},
   {24, 73, 82},
   {60},
   {25, 47},
   {51, 45},
   {42},
   {54},
   {40},
   {81, 58},
   {62},
   {36},
   {33, 57, 31},
   {81, 44, 53},
   {88, 63},
   {37},
   {43},
   {86},
   {45},
   {48, 72, 38},
   {75, 46},
   {68, 47},
   {66},
   {45},
   {56},
   {79},
   {82, 55},
   {58, 76},
   {82},
   {76},
   {74},
   {72},
   {91, 86},
   {79},
   {72},
   {62},
   {70},
   {61},
   {62},
   {60},
   {65},
   {64},
   {68},
   {66},
   {67},
   {68},
   {76},
   {67},
   {86},
   {77},
   {77},
   {88, 81},
   {78, 87},
   {84},
   {80, 79},
   {91},
   {85},
   {80},
   {84},
   {80},
   {89},
   {84},
   {85},
   {89},
   {85},
   {87},
   {87},
   {90},
   {90},
   {88},
   {91},
   {92},
   {92},
   {92},
   {  } ];

deadline = array2d(1..92, 1..3, [3, 3, 2, 9, 5, 1, 15, 0, 2, 15, 2, 4, 18, 2, 3, 20, 4, 1, 21, 0, 1, 22, 2, 3, 27, 4, 2, 30, 3, 5, 30, 5, 4, 34, 4, 0, 37, 0, 0, 40, 3, 2, 45, 5, 2, 46, 5, 1, 49, 0, 2, 55, 4, 3, 56, 0, 2, 61, 1, 4, 64, 3, 2, 65, 0, 0, 66, 1, 2, 67, 3, 3, 69, 2, 3, 76, 3, 3, 77, 4, 1, 79, 1, 4, 80, 5, 5, 80, 4, 3, 81, 3, 5, 84, 1, 1, 87, 2, 0, 92, 0, 0, 92, 0, 5, 100, 0, 1, 100, 3, 5, 101, 4, 5, 101, 5, 5, 103, 2, 3, 104, 4, 5, 104, 5, 4, 109, 4, 0, 110, 2, 4, 117, 0, 0, 118, 4, 0, 120, 0, 1, 122, 2, 5, 128, 4, 3, 128, 3, 0, 135, 0, 3, 137, 3, 3, 138, 2, 3, 141, 3, 4, 148, 5, 5, 155, 3, 1, 158, 2, 3, 166, 3, 4, 173, 3, 0, 173, 4, 0, 175, 3, 3, 178, 1, 2, 181, 3, 4, 184, 1, 1, 186, 0, 2, 190, 1, 2, 190, 1, 0, 197, 2, 3, 199, 3, 2, 202, 4, 0, 203, 3, 2, 210, 2, 0, 214, 2, 0, 218, 3, 0, 222, 0, 5, 224, 5, 5, 227, 2, 2, 230, 0, 1, 238, 5, 4, 240, 3, 4, 240, 5, 2, 240, 0, 1, 244, 0, 2, 255, 3, 2, 259, 0, 1, 261, 3, 2, 262, 0, 1, 269, 4, 1, 270, 1, 3, 271, 5, 2, 277, 1, 2, 277, 3, 0]);
