n_res = 4;
rc = [ 19, 17, 18, 20 ];
n_tasks = 92;
d = [0, 2, 5, 8, 8, 2, 7, 1, 7, 2, 7, 6, 10, 10, 4, 2, 9, 8, 8, 3, 10, 7, 7, 9, 2, 7, 9, 1, 1, 7, 4, 10, 8, 5, 6, 9, 8, 2, 7, 2, 7, 2, 6, 1, 8, 9, 2, 9, 4, 10, 10, 9, 9, 10, 8, 9, 3, 2, 2, 8, 3, 6, 1, 9, 7, 10, 3, 8, 7, 8, 2, 2, 3, 9, 4, 10, 5, 10, 1, 6, 6, 1, 7, 5, 7, 2, 2, 9, 6, 4, 8, 0];
rr = array2d(1..4, 1..92, [0, 6, 8, 0, 0, 3, 1, 0, 0, 4, 8, 0, 0, 0, 0, 0, 0, 0, 9, 3, 0, 4, 0, 3, 0, 10, 2, 3, 1, 2, 6, 0, 0, 3, 3, 6, 0, 9, 4, 6, 3, 0, 0, 10, 9, 2, 0, 8, 1, 6, 9, 0, 0, 7, 0, 0, 0, 3, 0, 8, 7, 7, 0, 9, 6, 0, 10, 7, 4, 1, 2, 0, 0, 0, 0, 0, 0, 1, 2, 9, 8, 6, 0, 10, 7, 2, 2, 0, 9, 0, 0, 0, 0, 0, 9, 0, 0, 0, 0, 0, 6, 0, 0, 6, 6, 5, 0, 0, 3, 4, 6, 3, 7, 0, 0, 7, 0, 0, 4, 0, 6, 0, 3, 0, 0, 0, 9, 0, 1, 9, 0, 1, 4, 4, 4, 0, 9, 0, 0, 0, 0, 0, 0, 2, 9, 6, 0, 0, 1, 0, 7, 8, 4, 7, 0, 0, 6, 0, 0, 0, 0, 0, 5, 0, 8, 0, 8, 0, 0, 0, 1, 10, 4, 9, 0, 0, 4, 4, 0, 0, 0, 10, 5, 0, 0, 0, 0, 1, 0, 0, 0, 9, 0, 0, 0, 0, 8, 7, 0, 5, 5, 0, 10, 0, 10, 0, 6, 10, 1, 0, 7, 10, 0, 9, 0, 0, 4, 0, 0, 0, 7, 0, 6, 0, 0, 0, 0, 8, 0, 4, 8, 0, 0, 0, 0, 0, 5, 0, 0, 0, 0, 0, 9, 0, 1, 1, 0, 0, 1, 4, 1, 4, 2, 0, 0, 5, 0, 0, 9, 7, 0, 3, 3, 7, 5, 8, 5, 0, 0, 4, 0, 3, 3, 0, 0, 0, 0, 3, 0, 0, 3, 0, 3, 4, 0, 5, 0, 0, 6, 0, 6, 0, 1, 0, 1, 0, 8, 0, 0, 0, 0, 0, 0, 0, 0, 6, 4, 6, 4, 6, 2, 0, 0, 0, 6, 4, 0, 8, 1, 5, 0, 0, 8, 0, 6, 4, 8, 0, 10, 0, 9, 5, 2, 0, 0, 0, 3, 0, 3, 1, 2, 5, 0, 0, 0, 0, 2, 10, 0, 7, 1, 8, 7, 0, 0, 3, 0, 0, 8, 0, 9, 0, 10, 0, 2, 2, 0, 0]);

suc = [
   {2, 3, 4},
   {5, 6, 22},
   {25, 26, 14},
   {12},
   {8, 17, 10},
   {9, 11, 7},
   {80, 83, 19},
   {70},
   {15},
   {46, 41, 30},
   {72, 35, 39},
   {16, 13, 23},
   {36, 37, 38},
   {20, 44},
   {48, 51, 47},
   {27, 61},
   {24, 18, 21},
   {91},
   {85, 23},
   {57, 58, 22},
   {64, 67, 43},
   {32, 28, 76},
   {33, 38},
   {55, 39},
   {61, 31},
   {77},
   {73},
   {65, 34, 29},
   {31},
   {43, 68, 31},
   {78, 54},
   {49, 35, 45},
   {81, 79},
   {47},
   {66},
   {54},
   {42, 71, 55},
   {40, 44},
   {50, 84},
   {58, 51},
   {85},
   {63},
   {84, 61},
   {69, 45},
   {59},
   {70},
   {56, 52},
   {60, 53},
   {74, 62},
   {78},
   {89},
   {74, 63},
   {64, 59},
   {81},
   {65, 60},
   {82, 79, 71},
   {77},
   {75, 60},
   {67},
   {67},
   {76, 77},
   {69, 63},
   {91},
   {66, 68, 74},
   {88, 86},
   {75, 71},
   {72, 79},
   {73, 75, 69},
   {72, 70},
   {90},
   {81, 73},
   {82},
   {80, 78},
   {83},
   {82, 90},
   {83},
   {80},
   {85},
   {87},
   {91},
   {84, 86},
   {87},
   {87},
   {88},
   {88, 86},
   {89},
   {89},
   {90},
   {92},
   {92},
   {92},
   {  } ];

deadline = array2d(1..92, 1..3, [1, 4, 3, 1, 2, 4, 5, 4, 3, 6, 3, 2, 15, 5, 3, 19, 0, 5, 23, 4, 4, 23, 2, 2, 25, 1, 4, 26, 1, 5, 26, 0, 3, 29, 4, 2, 29, 2, 0, 37, 5, 1, 41, 4, 0, 49, 0, 5, 51, 4, 3, 52, 0, 0, 52, 0, 5, 57, 0, 3, 58, 0, 4, 60, 1, 2, 60, 3, 0, 60, 2, 5, 67, 3, 1, 69, 0, 0, 71, 1, 3, 72, 3, 4, 74, 5, 0, 74, 3, 1, 78, 3, 1, 80, 0, 2, 80, 1, 5, 85, 3, 5, 86, 5, 4, 89, 2, 2, 91, 4, 1, 94, 4, 2, 94, 0, 4, 95, 1, 3, 96, 2, 0, 98, 1, 4, 102, 2, 1, 103, 1, 2, 105, 0, 2, 105, 5, 1, 107, 0, 1, 108, 4, 0, 112, 0, 3, 113, 5, 3, 113, 3, 2, 114, 3, 4, 119, 4, 1, 120, 3, 5, 121, 0, 5, 121, 3, 5, 125, 4, 4, 125, 1, 3, 125, 3, 3, 126, 1, 2, 126, 1, 5, 130, 2, 0, 131, 5, 1, 132, 3, 2, 133, 5, 0, 137, 4, 2, 138, 1, 5, 140, 2, 4, 141, 5, 4, 143, 5, 5, 151, 1, 2, 153, 2, 4, 155, 0, 1, 157, 5, 4, 158, 3, 4, 158, 5, 3, 159, 2, 1, 161, 2, 5, 164, 5, 4, 164, 1, 1, 167, 1, 2, 169, 5, 5, 172, 2, 2, 173, 1, 1, 181, 1, 3, 183, 5, 1, 204, 0, 5, 207, 5, 4, 211, 5, 3, 214, 5, 3, 216, 3, 4, 217, 3, 1]);
