n_res = 4;
rc = [ 31, 29, 25, 26 ];
n_tasks = 92;
d = [0, 4, 2, 2, 2, 2, 7, 1, 6, 1, 5, 4, 8, 2, 10, 9, 4, 7, 3, 3, 6, 4, 8, 8, 7, 5, 5, 1, 1, 2, 3, 2, 8, 10, 7, 5, 5, 4, 9, 6, 4, 7, 5, 7, 1, 8, 3, 6, 2, 8, 9, 7, 6, 8, 8, 1, 6, 1, 8, 6, 7, 2, 5, 8, 9, 8, 1, 7, 3, 7, 4, 6, 8, 10, 4, 4, 1, 10, 1, 3, 6, 8, 3, 8, 4, 5, 4, 8, 1, 6, 6, 0];
rr = array2d(1..4, 1..92, [0, 5, 10, 6, 0, 0, 0, 6, 0, 5, 5, 8, 0, 2, 9, 3, 6, 8, 0, 0, 2, 0, 7, 8, 9, 0, 4, 5, 4, 1, 7, 4, 0, 0, 0, 9, 3, 1, 7, 2, 3, 8, 0, 0, 2, 0, 6, 1, 0, 10, 0, 3, 0, 1, 0, 0, 6, 0, 5, 0, 0, 6, 6, 0, 4, 0, 0, 0, 6, 0, 5, 0, 0, 7, 5, 8, 0, 0, 10, 0, 2, 0, 0, 7, 10, 0, 0, 0, 5, 7, 0, 0, 0, 0, 5, 0, 4, 10, 0, 0, 0, 0, 5, 1, 0, 0, 0, 0, 3, 8, 5, 7, 0, 10, 0, 9, 0, 0, 0, 2, 0, 4, 10, 3, 10, 7, 0, 1, 0, 1, 9, 4, 6, 8, 0, 2, 2, 9, 0, 4, 0, 0, 9, 0, 0, 0, 0, 7, 6, 2, 6, 5, 0, 2, 0, 2, 0, 10, 0, 4, 4, 1, 0, 0, 0, 8, 0, 7, 6, 4, 8, 0, 0, 5, 1, 0, 0, 0, 9, 6, 0, 0, 8, 0, 0, 0, 5, 0, 0, 0, 3, 1, 0, 0, 0, 8, 0, 0, 6, 10, 0, 0, 0, 1, 0, 0, 5, 0, 10, 0, 1, 5, 8, 0, 0, 3, 0, 1, 0, 10, 10, 0, 0, 0, 0, 1, 5, 0, 10, 0, 9, 0, 8, 0, 0, 9, 5, 3, 0, 0, 0, 0, 6, 5, 5, 5, 9, 0, 0, 0, 2, 0, 0, 0, 0, 0, 0, 0, 5, 8, 2, 0, 0, 1, 3, 0, 8, 0, 0, 2, 6, 0, 8, 0, 0, 0, 0, 0, 0, 0, 0, 3, 0, 7, 10, 0, 0, 6, 3, 0, 8, 0, 7, 0, 0, 0, 4, 3, 0, 6, 0, 3, 0, 0, 0, 7, 0, 0, 0, 0, 7, 0, 0, 0, 0, 4, 8, 0, 6, 6, 5, 0, 7, 2, 0, 0, 0, 0, 6, 8, 7, 0, 0, 0, 3, 7, 0, 6, 1, 3, 9, 8, 8, 0, 0, 2, 0, 3, 4, 4, 0, 0, 0, 10, 0, 5, 0, 7, 7, 0, 0, 0, 10, 5, 8, 0, 0, 0]);

suc = [
   {2, 3, 4},
   {9, 10, 6},
   {8, 74, 28},
   {24, 18, 5},
   {12, 14, 15},
   {24, 23, 7},
   {73, 11, 61},
   {25, 21},
   {48, 66, 44},
   {13, 14, 55},
   {16, 43, 38},
   {17, 54, 57},
   {29, 36, 21},
   {37, 46, 63},
   {80, 45, 22},
   {19, 20, 36},
   {27, 31},
   {27, 44, 60},
   {40, 47},
   {68},
   {26, 43, 70},
   {72, 30},
   {33, 34, 27},
   {49, 58, 35},
   {33, 31},
   {50, 82, 53},
   {48, 65, 52},
   {52},
   {32, 33, 65},
   {47},
   {41, 34},
   {82, 52},
   {51, 38},
   {46, 39},
   {43, 37},
   {50, 39},
   {56, 41},
   {64, 75, 39},
   {76},
   {65, 42, 71},
   {69, 71},
   {64, 45, 70},
   {51, 53},
   {68, 45, 70},
   {56, 54, 63},
   {73, 51, 79},
   {74, 76, 62},
   {73, 50, 76},
   {83, 59, 60},
   {69},
   {64, 59, 78},
   {53, 86},
   {56, 80},
   {59, 62},
   {57, 67, 62},
   {84, 77, 79},
   {69, 61, 63},
   {60, 71},
   {67},
   {61},
   {68},
   {77, 79},
   {83, 84},
   {66, 82},
   {72, 66, 87},
   {88, 67, 86},
   {90},
   {72},
   {81},
   {75, 85, 78},
   {81},
   {81, 74},
   {85, 78},
   {75, 85},
   {86},
   {77},
   {91},
   {80},
   {87},
   {91, 83},
   {88},
   {88, 89, 84},
   {89},
   {87},
   {89},
   {90},
   {90},
   {91},
   {92},
   {92},
   {92},
   {  } ];

deadline = array2d(1..92, 1..3, [1, 5, 2, 2, 2, 1, 2, 5, 3, 14, 1, 5, 15, 3, 2, 15, 3, 1, 15, 1, 3, 16, 1, 1, 19, 5, 5, 21, 0, 2, 22, 5, 2, 23, 2, 1, 27, 3, 0, 29, 4, 4, 29, 4, 1, 30, 3, 1, 33, 2, 5, 35, 5, 3, 35, 1, 1, 36, 5, 4, 39, 4, 4, 41, 3, 3, 42, 3, 3, 43, 2, 5, 47, 4, 4, 48, 3, 5, 52, 4, 5, 54, 0, 4, 56, 4, 2, 56, 3, 4, 58, 1, 2, 58, 1, 2, 61, 3, 1, 62, 0, 0, 63, 1, 2, 73, 4, 0, 77, 3, 1, 78, 5, 1, 79, 0, 2, 82, 0, 2, 82, 5, 4, 83, 0, 0, 86, 0, 5, 86, 4, 3, 87, 2, 5, 87, 3, 0, 90, 0, 5, 92, 3, 4, 94, 0, 1, 95, 2, 3, 98, 4, 0, 100, 5, 4, 102, 2, 1, 104, 2, 0, 105, 5, 4, 112, 2, 2, 113, 5, 0, 113, 0, 1, 115, 5, 5, 117, 4, 5, 120, 0, 4, 123, 3, 3, 135, 2, 5, 136, 4, 0, 141, 5, 1, 141, 0, 1, 142, 3, 5, 144, 0, 0, 144, 0, 0, 145, 5, 0, 146, 0, 4, 146, 4, 1, 147, 2, 4, 149, 0, 2, 150, 4, 4, 153, 2, 1, 153, 4, 3, 157, 2, 2, 165, 0, 4, 166, 3, 5, 167, 4, 3, 168, 3, 4, 170, 3, 4, 172, 5, 4, 177, 0, 2, 180, 5, 0, 183, 3, 2, 183, 2, 3, 183, 2, 3, 184, 2, 5, 184, 0, 0, 187, 2, 0]);
