n_res = 4;
rc = [ 12, 13, 14, 17 ];
n_tasks = 92;
d = [0, 9, 6, 2, 8, 6, 6, 10, 8, 9, 2, 8, 7, 6, 9, 8, 6, 8, 9, 3, 2, 5, 7, 4, 1, 3, 9, 2, 8, 9, 2, 1, 2, 6, 10, 7, 8, 6, 10, 1, 8, 4, 3, 7, 9, 1, 5, 4, 9, 3, 9, 6, 7, 1, 10, 3, 3, 3, 4, 7, 4, 9, 4, 10, 2, 5, 5, 10, 7, 7, 4, 5, 4, 10, 9, 5, 1, 9, 3, 1, 5, 5, 2, 4, 2, 1, 1, 9, 4, 3, 9, 0];
rr = array2d(1..4, 1..92, [0, 0, 0, 9, 0, 0, 7, 0, 0, 0, 0, 0, 0, 4, 0, 0, 7, 6, 0, 0, 0, 5, 0, 0, 0, 0, 0, 3, 0, 0, 0, 0, 0, 0, 0, 4, 0, 0, 0, 0, 6, 0, 0, 0, 10, 0, 1, 0, 0, 0, 0, 0, 9, 0, 0, 0, 0, 0, 0, 0, 0, 0, 0, 0, 0, 0, 0, 0, 0, 0, 10, 0, 0, 0, 0, 0, 0, 0, 0, 7, 0, 0, 0, 0, 0, 0, 0, 0, 0, 0, 0, 0, 0, 0, 1, 0, 3, 5, 0, 0, 3, 0, 0, 0, 8, 0, 0, 0, 0, 0, 4, 0, 0, 0, 0, 0, 0, 0, 3, 0, 0, 0, 10, 0, 5, 9, 0, 0, 0, 10, 2, 7, 0, 0, 8, 0, 0, 5, 0, 0, 9, 0, 0, 0, 0, 7, 0, 4, 0, 0, 0, 0, 0, 6, 0, 10, 0, 0, 0, 0, 3, 0, 0, 0, 3, 0, 0, 0, 0, 0, 0, 0, 3, 9, 7, 0, 3, 0, 1, 5, 5, 4, 0, 0, 0, 1, 0, 0, 0, 0, 0, 3, 0, 7, 6, 1, 0, 0, 0, 0, 0, 0, 0, 3, 10, 0, 0, 5, 3, 2, 0, 0, 8, 0, 0, 6, 0, 0, 0, 0, 0, 0, 0, 0, 0, 0, 0, 4, 0, 0, 0, 6, 0, 6, 10, 7, 0, 0, 0, 0, 0, 9, 6, 9, 0, 0, 2, 0, 0, 0, 6, 2, 0, 3, 0, 1, 0, 0, 0, 6, 5, 1, 6, 0, 0, 0, 0, 9, 0, 8, 0, 0, 0, 0, 0, 0, 0, 0, 0, 0, 0, 0, 0, 0, 0, 0, 0, 0, 0, 0, 6, 3, 0, 0, 0, 0, 0, 0, 1, 0, 0, 0, 0, 0, 0, 6, 0, 0, 0, 0, 10, 0, 9, 0, 0, 0, 0, 7, 0, 0, 0, 0, 0, 0, 0, 0, 0, 0, 0, 0, 10, 0, 8, 0, 0, 0, 1, 0, 0, 0, 8, 6, 0, 0, 0, 0, 0, 0, 0, 6, 5, 0, 0, 0, 0, 0, 0, 0, 0, 0, 0, 0, 0, 0, 0, 0, 5, 0]);

suc = [
   {2, 3, 4},
   {8, 11, 5},
   {57, 45, 55},
   {15, 6, 7},
   {9, 20, 41},
   {50},
   {25, 13, 14},
   {10, 34, 21},
   {35, 28, 36},
   {17, 12, 30},
   {16, 81, 51},
   {18, 42, 78},
   {77, 53},
   {33, 49},
   {40},
   {72, 26, 19},
   {22},
   {32},
   {32, 52},
   {77, 39},
   {24, 29},
   {23},
   {47},
   {57, 82},
   {88, 33, 31},
   {48, 27, 55},
   {75, 47},
   {86},
   {64, 66},
   {74},
   {66, 76, 63},
   {69, 45},
   {71},
   {56},
   {37},
   {73, 60},
   {71, 38, 47},
   {69, 60, 61},
   {64, 54, 87},
   {46},
   {75, 43, 44},
   {82, 61},
   {62},
   {49, 62, 55},
   {63},
   {83},
   {52, 76, 68},
   {64, 67, 53},
   {65, 54},
   {51},
   {59, 85},
   {58, 60},
   {80, 66},
   {73, 68, 71},
   {70},
   {57},
   {61},
   {65},
   {75, 87, 63},
   {79},
   {68, 77},
   {72, 67},
   {89, 73},
   {80},
   {69, 70},
   {74, 84},
   {70},
   {74, 84},
   {90},
   {87},
   {72, 81, 89},
   {76},
   {83},
   {91},
   {80, 79},
   {83, 78},
   {81},
   {90, 85},
   {82},
   {84, 86},
   {85},
   {86},
   {90},
   {89},
   {91},
   {88},
   {88},
   {91},
   {92},
   {92},
   {92},
   {  } ];

deadline = array2d(1..92, 1..3, [2, 1, 3, 4, 2, 4, 5, 5, 4, 7, 3, 1, 10, 0, 3, 16, 0, 5, 19, 0, 5, 25, 3, 4, 26, 5, 4, 29, 2, 2, 31, 4, 0, 32, 0, 1, 33, 5, 1, 35, 1, 5, 37, 0, 3, 39, 2, 3, 40, 0, 0, 42, 1, 5, 46, 0, 0, 46, 5, 2, 47, 2, 3, 49, 0, 1, 51, 1, 2, 52, 0, 2, 52, 0, 4, 54, 1, 1, 56, 2, 3, 59, 3, 4, 59, 5, 1, 62, 4, 4, 67, 4, 3, 68, 2, 4, 70, 4, 3, 71, 1, 1, 74, 5, 5, 74, 0, 4, 83, 0, 2, 83, 1, 4, 85, 2, 1, 86, 1, 0, 87, 4, 0, 87, 1, 3, 87, 0, 2, 95, 5, 5, 95, 4, 3, 99, 4, 2, 104, 5, 2, 104, 3, 3, 106, 5, 3, 107, 3, 2, 111, 0, 1, 111, 5, 0, 114, 3, 1, 116, 3, 2, 117, 3, 0, 119, 5, 1, 119, 1, 5, 119, 3, 3, 124, 5, 3, 129, 2, 0, 131, 2, 3, 131, 0, 0, 131, 0, 4, 132, 4, 5, 138, 5, 3, 143, 3, 3, 143, 5, 2, 144, 3, 4, 156, 5, 3, 159, 2, 3, 161, 0, 1, 162, 4, 5, 172, 2, 0, 175, 3, 0, 175, 2, 3, 178, 3, 4, 179, 4, 5, 181, 1, 4, 189, 3, 3, 194, 0, 0, 194, 5, 4, 197, 5, 2, 199, 2, 4, 206, 3, 3, 206, 3, 4, 215, 5, 5, 216, 1, 2, 218, 2, 0, 219, 1, 3, 219, 0, 2, 222, 3, 1, 224, 3, 2]);
