n_res = 4;
rc = [ 23, 16, 21, 36 ];
n_tasks = 92;
d = [0, 2, 4, 6, 6, 10, 5, 9, 7, 5, 6, 8, 4, 2, 1, 8, 6, 10, 2, 9, 7, 2, 3, 2, 7, 3, 9, 1, 4, 9, 7, 4, 9, 4, 8, 3, 7, 1, 10, 5, 5, 4, 1, 10, 10, 4, 4, 5, 4, 7, 1, 8, 9, 1, 3, 3, 5, 9, 7, 6, 6, 3, 1, 7, 5, 6, 5, 5, 10, 4, 3, 9, 7, 3, 2, 9, 4, 6, 8, 8, 8, 10, 7, 4, 5, 3, 1, 3, 3, 6, 10, 0];
rr = array2d(1..4, 1..92, [0, 0, 0, 0, 0, 0, 0, 0, 0, 0, 0, 0, 0, 0, 0, 1, 0, 0, 0, 0, 0, 0, 0, 2, 0, 0, 0, 4, 0, 0, 0, 0, 0, 0, 0, 0, 0, 0, 0, 0, 7, 0, 8, 3, 3, 0, 0, 0, 0, 0, 0, 4, 0, 5, 0, 0, 0, 0, 0, 0, 0, 0, 0, 0, 0, 3, 10, 0, 0, 0, 5, 3, 0, 9, 2, 0, 0, 3, 0, 3, 0, 1, 0, 10, 0, 6, 10, 0, 0, 0, 0, 0, 0, 7, 0, 0, 0, 0, 0, 5, 0, 0, 0, 0, 7, 0, 0, 0, 0, 0, 0, 0, 0, 5, 0, 0, 0, 0, 0, 0, 0, 1, 0, 0, 0, 0, 10, 2, 0, 4, 2, 0, 0, 0, 0, 0, 0, 0, 0, 0, 0, 0, 1, 0, 3, 0, 0, 2, 0, 0, 0, 0, 10, 0, 9, 0, 5, 0, 0, 0, 0, 0, 0, 0, 0, 0, 0, 1, 9, 0, 0, 0, 0, 0, 0, 0, 0, 0, 0, 3, 8, 0, 0, 0, 0, 0, 0, 5, 2, 0, 1, 0, 0, 0, 0, 3, 0, 0, 0, 0, 8, 0, 4, 0, 1, 0, 0, 0, 0, 0, 5, 0, 9, 0, 0, 8, 0, 8, 0, 0, 0, 0, 0, 1, 0, 4, 0, 0, 0, 0, 0, 2, 0, 5, 0, 0, 0, 0, 0, 0, 10, 7, 0, 2, 0, 3, 0, 7, 0, 0, 0, 0, 0, 0, 0, 0, 0, 0, 0, 0, 0, 0, 0, 0, 0, 0, 0, 0, 4, 0, 0, 0, 0, 0, 0, 0, 0, 0, 2, 0, 0, 7, 0, 0, 6, 7, 3, 0, 0, 10, 1, 0, 0, 7, 0, 6, 0, 0, 2, 0, 5, 7, 0, 0, 0, 0, 5, 0, 10, 0, 0, 0, 10, 0, 0, 0, 0, 0, 0, 0, 0, 4, 10, 0, 5, 0, 0, 0, 0, 0, 8, 0, 0, 0, 3, 0, 0, 0, 0, 0, 0, 0, 0, 4, 2, 2, 0, 0, 5, 0, 0, 0, 0, 0, 10, 0, 9, 0, 7, 0, 0, 0, 0, 0, 0, 9, 1, 0]);

suc = [
   {2, 3, 4},
   {5, 6, 7},
   {78},
   {25, 14},
   {9, 19, 39},
   {66, 45, 30},
   {8, 49, 48},
   {27, 53, 22},
   {16, 10, 15},
   {75, 11, 12},
   {24, 57, 13},
   {50, 28},
   {80, 82, 20},
   {26, 21},
   {65, 34, 51},
   {17, 18, 35},
   {41, 23},
   {32},
   {36},
   {52, 46},
   {59},
   {90},
   {84},
   {71, 47},
   {33, 29},
   {42},
   {37},
   {43, 70},
   {64, 73},
   {40, 31},
   {53},
   {81, 38},
   {81},
   {72, 44, 60},
   {43, 79},
   {61},
   {62, 89, 54},
   {56, 86},
   {91, 68, 77},
   {88},
   {65},
   {61},
   {55},
   {67},
   {71},
   {58},
   {76, 77},
   {55},
   {83, 69},
   {53},
   {76},
   {59},
   {88},
   {74, 67},
   {81},
   {58},
   {74},
   {85},
   {63},
   {75},
   {62},
   {87},
   {83},
   {70},
   {85, 71},
   {78},
   {86},
   {75},
   {74},
   {72},
   {72},
   {83},
   {79},
   {82},
   {76},
   {84},
   {78},
   {84},
   {87},
   {87},
   {90},
   {91},
   {89},
   {85},
   {88},
   {90},
   {91},
   {89},
   {92},
   {92},
   {92},
   {  } ];

deadline = array2d(1..92, 1..3, [1, 4, 1, 2, 2, 1, 7, 2, 5, 8, 4, 3, 9, 3, 0, 10, 2, 1, 10, 0, 5, 13, 0, 3, 19, 5, 2, 19, 2, 0, 21, 2, 2, 23, 0, 5, 28, 2, 2, 29, 2, 2, 29, 4, 1, 30, 4, 1, 31, 4, 2, 32, 1, 5, 36, 1, 1, 40, 4, 5, 42, 0, 1, 43, 2, 3, 44, 5, 4, 44, 5, 4, 45, 3, 3, 45, 2, 4, 45, 1, 0, 46, 5, 2, 49, 0, 0, 51, 4, 0, 54, 0, 0, 56, 2, 4, 56, 4, 0, 65, 2, 0, 65, 1, 0, 67, 0, 4, 70, 4, 2, 72, 2, 2, 72, 4, 0, 72, 4, 4, 73, 2, 2, 74, 0, 3, 74, 1, 2, 75, 5, 3, 78, 5, 1, 79, 2, 1, 82, 5, 3, 82, 2, 5, 85, 2, 4, 86, 4, 3, 86, 5, 4, 88, 0, 5, 88, 3, 1, 90, 1, 3, 90, 0, 3, 91, 3, 1, 91, 0, 5, 91, 1, 4, 92, 0, 5, 96, 2, 5, 97, 0, 4, 101, 3, 5, 103, 4, 1, 104, 2, 1, 105, 3, 2, 106, 2, 5, 107, 2, 1, 108, 3, 3, 111, 3, 4, 111, 2, 5, 111, 4, 1, 117, 4, 5, 118, 1, 3, 123, 4, 3, 124, 5, 2, 127, 1, 3, 128, 1, 0, 129, 5, 5, 132, 4, 3, 132, 4, 4, 134, 2, 0, 134, 5, 1, 136, 5, 3, 140, 0, 0, 146, 4, 2, 150, 5, 0, 154, 2, 3, 155, 5, 1, 156, 3, 0, 160, 1, 4, 162, 3, 1, 162, 1, 5]);
