n_res = 4;
rc = [ 18, 23, 26, 21 ];
n_tasks = 92;
d = [0, 6, 9, 5, 7, 6, 5, 7, 7, 8, 5, 9, 2, 5, 8, 1, 5, 3, 9, 1, 6, 9, 5, 2, 1, 7, 6, 4, 7, 2, 2, 2, 2, 6, 5, 5, 2, 9, 8, 4, 1, 6, 4, 5, 4, 5, 9, 9, 7, 5, 5, 10, 7, 8, 1, 1, 8, 3, 4, 4, 8, 6, 9, 8, 5, 10, 8, 5, 10, 6, 3, 7, 3, 10, 7, 9, 4, 8, 9, 10, 3, 8, 7, 4, 7, 6, 4, 4, 9, 2, 9, 0];
rr = array2d(1..4, 1..92, [0, 0, 9, 7, 1, 0, 6, 0, 0, 0, 0, 4, 0, 0, 0, 0, 0, 1, 0, 0, 0, 0, 0, 0, 0, 0, 0, 5, 1, 0, 0, 6, 3, 0, 0, 0, 7, 6, 0, 1, 0, 0, 0, 3, 5, 0, 0, 0, 0, 0, 2, 0, 0, 0, 0, 0, 0, 0, 0, 0, 0, 0, 0, 0, 0, 0, 0, 10, 0, 4, 0, 0, 0, 1, 0, 1, 0, 0, 0, 0, 0, 0, 0, 0, 0, 0, 0, 9, 0, 0, 0, 0, 0, 9, 0, 0, 0, 0, 0, 3, 0, 8, 9, 0, 4, 1, 0, 0, 10, 0, 3, 0, 0, 0, 7, 0, 6, 0, 4, 0, 0, 0, 3, 0, 0, 8, 0, 0, 0, 0, 0, 0, 10, 5, 0, 0, 0, 3, 0, 0, 0, 1, 0, 8, 6, 0, 0, 0, 0, 0, 0, 0, 0, 0, 2, 3, 7, 0, 0, 0, 0, 0, 0, 0, 0, 0, 0, 0, 8, 0, 0, 0, 7, 7, 0, 1, 0, 8, 4, 0, 0, 0, 9, 0, 0, 0, 0, 0, 0, 9, 0, 0, 0, 0, 0, 0, 0, 0, 0, 0, 0, 0, 0, 0, 0, 0, 0, 4, 0, 0, 0, 0, 0, 0, 0, 0, 0, 0, 1, 0, 0, 0, 2, 0, 0, 0, 0, 0, 0, 0, 0, 10, 0, 0, 0, 0, 0, 9, 4, 4, 0, 7, 4, 0, 9, 0, 0, 0, 0, 3, 0, 0, 6, 0, 0, 0, 4, 0, 0, 0, 0, 0, 5, 8, 0, 0, 9, 0, 0, 0, 0, 0, 1, 0, 0, 0, 0, 0, 0, 0, 0, 0, 0, 0, 5, 0, 0, 0, 0, 0, 4, 8, 0, 0, 0, 9, 5, 2, 0, 0, 0, 4, 0, 0, 0, 4, 0, 0, 0, 0, 0, 7, 0, 0, 0, 0, 0, 0, 1, 0, 0, 0, 3, 0, 8, 0, 0, 0, 0, 0, 0, 0, 1, 0, 0, 1, 0, 8, 0, 0, 0, 0, 1, 0, 0, 0, 6, 10, 0, 0, 10, 0, 0, 9, 0, 0, 0, 0, 0, 0, 3, 0, 0, 0, 0, 3, 0, 0]);

suc = [
   {2, 3, 4},
   {24, 11, 7},
   {54, 5, 6},
   {8, 32, 22},
   {10, 30},
   {9, 18, 38},
   {16},
   {80, 73, 19},
   {13, 14},
   {35, 27, 12},
   {20},
   {17, 42, 85},
   {48, 37, 21},
   {41, 39, 15},
   {29},
   {40, 71},
   {38, 71},
   {79},
   {55},
   {33, 23},
   {40, 25, 26},
   {56, 79},
   {34, 28, 61},
   {44},
   {31},
   {65},
   {72},
   {50},
   {82, 83, 86},
   {88},
   {49, 43},
   {81},
   {64, 89, 36},
   {45},
   {66, 91},
   {48, 77},
   {79},
   {47},
   {66},
   {84},
   {58, 62},
   {51},
   {72, 69},
   {80},
   {90, 52, 46},
   {53},
   {50},
   {57},
   {67},
   {57, 60, 68},
   {67},
   {78},
   {59},
   {62},
   {69},
   {70},
   {74},
   {86},
   {70},
   {62},
   {76},
   {63},
   {74},
   {80},
   {74},
   {76},
   {89},
   {70},
   {76},
   {88, 84, 78},
   {77},
   {81, 86},
   {75},
   {82},
   {87},
   {85},
   {81},
   {91},
   {83, 85},
   {82},
   {84},
   {87},
   {88},
   {91},
   {90},
   {87},
   {90},
   {89},
   {92},
   {92},
   {92},
   {  } ];

deadline = array2d(1..92, 1..3, [1, 2, 1, 8, 3, 0, 11, 5, 2, 15, 2, 2, 17, 0, 2, 19, 5, 0, 29, 4, 1, 31, 2, 3, 32, 5, 5, 32, 1, 5, 32, 4, 2, 33, 2, 5, 39, 3, 2, 42, 2, 4, 44, 1, 2, 44, 0, 0, 50, 2, 1, 53, 5, 5, 57, 5, 5, 57, 5, 1, 60, 4, 0, 61, 4, 0, 61, 4, 2, 63, 4, 4, 63, 1, 2, 65, 3, 2, 66, 1, 2, 70, 1, 0, 70, 5, 5, 72, 1, 5, 73, 5, 1, 79, 2, 0, 82, 4, 5, 86, 3, 2, 87, 3, 1, 89, 2, 2, 89, 3, 5, 91, 4, 5, 94, 0, 5, 99, 1, 2, 101, 5, 4, 104, 4, 0, 106, 5, 0, 109, 3, 0, 112, 1, 0, 114, 0, 1, 119, 0, 0, 119, 1, 1, 126, 1, 1, 126, 0, 1, 128, 3, 4, 130, 4, 2, 133, 5, 2, 136, 4, 3, 137, 5, 5, 140, 1, 4, 141, 4, 5, 141, 5, 1, 144, 5, 1, 144, 0, 3, 145, 5, 3, 147, 0, 1, 149, 4, 5, 152, 2, 4, 163, 2, 4, 166, 1, 0, 167, 1, 4, 173, 5, 3, 184, 3, 2, 185, 3, 2, 186, 5, 2, 186, 5, 5, 188, 2, 2, 193, 2, 2, 194, 4, 1, 197, 3, 5, 200, 2, 2, 205, 2, 0, 213, 3, 4, 223, 5, 3, 224, 3, 2, 226, 3, 2, 227, 5, 4, 228, 1, 5, 232, 0, 2, 232, 1, 2, 233, 1, 4, 251, 5, 3, 253, 5, 5, 253, 1, 3, 258, 0, 5, 259, 3, 5]);
