n_res = 4;
rc = [ 24, 19, 17, 20 ];
n_tasks = 92;
d = [0, 5, 1, 4, 9, 3, 6, 6, 4, 5, 3, 8, 3, 3, 3, 7, 4, 5, 5, 9, 6, 2, 7, 7, 2, 7, 10, 7, 5, 1, 4, 8, 6, 10, 7, 5, 4, 3, 5, 6, 2, 9, 6, 8, 5, 10, 6, 8, 1, 8, 4, 9, 10, 10, 4, 7, 5, 5, 3, 7, 10, 3, 4, 9, 8, 3, 3, 10, 7, 3, 3, 8, 4, 5, 8, 7, 8, 1, 1, 9, 6, 5, 6, 9, 4, 2, 2, 9, 3, 6, 5, 0];
rr = array2d(1..4, 1..92, [0, 0, 0, 0, 1, 0, 0, 0, 0, 8, 0, 0, 0, 0, 0, 8, 0, 10, 0, 0, 0, 7, 0, 0, 0, 4, 0, 0, 5, 6, 0, 0, 0, 0, 0, 9, 0, 0, 10, 0, 0, 0, 0, 0, 0, 0, 0, 0, 0, 0, 0, 0, 0, 0, 0, 0, 0, 0, 0, 0, 0, 3, 0, 0, 0, 0, 0, 0, 0, 0, 0, 0, 5, 6, 0, 0, 9, 0, 0, 0, 2, 0, 10, 0, 0, 7, 0, 0, 0, 0, 4, 0, 0, 0, 0, 0, 0, 7, 0, 0, 0, 0, 0, 0, 7, 0, 0, 0, 6, 0, 6, 0, 1, 0, 4, 0, 1, 0, 0, 0, 0, 0, 9, 0, 0, 7, 0, 0, 6, 0, 0, 0, 0, 1, 0, 0, 0, 6, 4, 0, 0, 0, 0, 0, 8, 0, 10, 0, 0, 3, 0, 0, 4, 0, 0, 2, 9, 0, 3, 4, 6, 0, 7, 2, 0, 0, 0, 2, 0, 0, 0, 0, 0, 0, 0, 0, 2, 0, 3, 5, 0, 0, 0, 0, 0, 6, 0, 7, 0, 0, 0, 2, 9, 0, 2, 2, 0, 0, 3, 0, 0, 0, 0, 0, 0, 0, 0, 5, 0, 0, 4, 0, 0, 0, 0, 9, 0, 0, 5, 0, 0, 0, 0, 0, 0, 0, 0, 1, 0, 0, 0, 0, 10, 0, 9, 10, 0, 2, 0, 3, 7, 0, 7, 10, 0, 0, 5, 0, 0, 8, 0, 0, 0, 4, 0, 0, 0, 0, 0, 0, 0, 0, 0, 10, 0, 0, 0, 5, 0, 0, 0, 0, 0, 4, 0, 0, 0, 0, 5, 0, 0, 0, 4, 0, 0, 0, 0, 0, 0, 1, 0, 0, 0, 0, 0, 6, 0, 0, 0, 0, 0, 0, 0, 4, 0, 0, 0, 0, 9, 0, 0, 0, 0, 8, 0, 4, 7, 0, 10, 0, 10, 0, 0, 3, 0, 7, 0, 0, 0, 0, 0, 0, 0, 0, 0, 0, 0, 0, 0, 0, 0, 0, 0, 0, 0, 0, 0, 0, 0, 0, 10, 0, 0, 2, 1, 0, 0, 1, 0, 0, 0, 0, 0, 0, 4, 0, 0, 0]);

suc = [
   {2, 3, 4},
   {9, 19, 23},
   {12, 46, 15},
   {8, 5, 6},
   {43, 54, 23},
   {19, 13, 7},
   {88, 17, 67},
   {12},
   {10, 11, 28},
   {27, 45, 31},
   {25, 21, 14},
   {57, 18, 47},
   {48, 33, 52},
   {16, 36, 39},
   {40, 66, 59},
   {54, 18, 46},
   {26, 60, 38},
   {24, 42},
   {34, 20, 22},
   {42, 43, 60},
   {24, 30, 55},
   {44, 69, 46},
   {56, 57},
   {49, 29},
   {83, 37, 63},
   {32, 49},
   {49, 77, 62},
   {36, 84},
   {59, 37},
   {34, 61, 47},
   {32, 36, 84},
   {83, 68, 61},
   {65, 51},
   {65, 58, 35},
   {64, 72, 53},
   {53, 54, 47},
   {41, 70},
   {72},
   {74, 55},
   {76, 61},
   {48, 43, 44},
   {48, 59},
   {66, 71},
   {52, 84},
   {64, 53, 55},
   {50, 52, 78},
   {56, 65, 58},
   {64, 58, 71},
   {72},
   {56, 70},
   {80, 57, 82},
   {77},
   {82, 60, 85},
   {73, 90},
   {85, 71},
   {76, 63},
   {67, 62},
   {74, 69, 62},
   {88, 70},
   {81, 78},
   {74, 79},
   {79},
   {73},
   {75, 67},
   {66, 68, 76},
   {69},
   {91, 68},
   {78},
   {87},
   {73, 75, 79},
   {88},
   {90},
   {80},
   {75, 87},
   {80, 77},
   {82},
   {81},
   {86},
   {89},
   {81, 85},
   {89},
   {83, 86},
   {89},
   {86},
   {91},
   {87},
   {90},
   {91},
   {92},
   {92},
   {92},
   {  } ];

deadline = array2d(1..92, 1..3, [1, 5, 4, 2, 2, 0, 2, 1, 4, 8, 0, 5, 9, 1, 4, 18, 0, 2, 18, 1, 5, 18, 5, 2, 19, 1, 3, 21, 4, 2, 23, 5, 1, 23, 5, 4, 24, 4, 0, 27, 4, 5, 28, 0, 2, 29, 1, 2, 32, 4, 5, 35, 0, 2, 36, 4, 4, 36, 1, 2, 36, 0, 5, 37, 1, 1, 37, 2, 0, 44, 0, 5, 45, 0, 3, 47, 1, 5, 49, 3, 0, 52, 5, 0, 53, 3, 4, 56, 0, 1, 62, 5, 3, 67, 5, 4, 68, 5, 5, 70, 5, 3, 70, 3, 4, 71, 2, 2, 72, 4, 0, 76, 1, 3, 78, 0, 3, 79, 1, 2, 80, 1, 5, 84, 0, 5, 89, 3, 1, 90, 4, 3, 96, 4, 3, 97, 0, 0, 101, 2, 0, 105, 0, 2, 107, 2, 0, 108, 0, 5, 110, 2, 3, 121, 4, 2, 128, 3, 4, 129, 3, 3, 132, 5, 0, 133, 4, 1, 135, 4, 2, 136, 1, 3, 145, 4, 0, 147, 0, 4, 148, 5, 3, 148, 5, 2, 150, 2, 0, 151, 2, 5, 154, 1, 2, 159, 1, 0, 159, 5, 1, 162, 5, 3, 163, 0, 2, 164, 4, 2, 169, 1, 5, 173, 1, 3, 176, 5, 4, 178, 5, 1, 179, 4, 4, 181, 4, 2, 181, 0, 3, 183, 4, 2, 185, 1, 0, 188, 5, 3, 188, 3, 2, 189, 3, 3, 189, 3, 2, 192, 1, 2, 193, 4, 5, 195, 4, 1, 197, 2, 4, 197, 1, 5, 199, 3, 0, 204, 5, 1, 209, 3, 3, 214, 4, 4]);
