n_res = 4;
rc = [ 16, 21, 17, 18 ];
n_tasks = 92;
d = [0, 10, 5, 10, 3, 1, 9, 7, 4, 5, 6, 8, 2, 4, 10, 3, 4, 3, 5, 10, 4, 10, 1, 9, 1, 2, 5, 8, 3, 9, 9, 1, 1, 1, 9, 5, 2, 8, 9, 3, 3, 9, 1, 6, 8, 4, 3, 10, 10, 3, 4, 10, 7, 3, 8, 1, 2, 1, 6, 1, 10, 2, 4, 3, 8, 1, 4, 8, 7, 5, 5, 7, 7, 10, 8, 7, 7, 10, 6, 6, 3, 3, 6, 8, 2, 1, 1, 3, 1, 7, 9, 0];
rr = array2d(1..4, 1..92, [0, 0, 0, 0, 9, 0, 0, 10, 5, 0, 0, 8, 0, 0, 0, 0, 8, 10, 9, 0, 7, 0, 0, 3, 0, 10, 10, 0, 5, 6, 0, 0, 0, 0, 2, 2, 0, 6, 0, 0, 0, 3, 0, 9, 1, 0, 0, 8, 0, 0, 0, 0, 5, 3, 0, 7, 0, 0, 8, 5, 0, 4, 0, 2, 2, 3, 8, 4, 2, 8, 0, 0, 0, 10, 0, 5, 0, 5, 6, 4, 0, 2, 0, 0, 0, 0, 0, 0, 9, 10, 10, 0, 0, 0, 8, 0, 5, 7, 10, 10, 3, 0, 9, 0, 5, 10, 9, 0, 0, 0, 0, 1, 8, 8, 7, 0, 0, 0, 0, 0, 0, 0, 0, 9, 6, 5, 0, 3, 0, 5, 4, 10, 1, 8, 8, 0, 0, 10, 2, 6, 0, 0, 0, 0, 0, 6, 6, 0, 0, 6, 7, 0, 0, 4, 0, 0, 1, 5, 0, 7, 0, 8, 0, 8, 6, 0, 8, 0, 5, 0, 0, 9, 10, 7, 5, 0, 2, 0, 7, 1, 4, 10, 7, 0, 0, 6, 2, 0, 0, 1, 2, 2, 0, 3, 0, 0, 0, 0, 9, 0, 9, 2, 0, 0, 0, 0, 6, 0, 10, 0, 6, 0, 0, 0, 8, 1, 0, 0, 2, 0, 7, 3, 0, 2, 9, 0, 10, 0, 10, 0, 6, 3, 0, 5, 7, 0, 0, 6, 0, 0, 2, 3, 10, 0, 0, 3, 7, 0, 0, 8, 2, 5, 0, 0, 8, 7, 0, 0, 9, 6, 10, 0, 0, 0, 7, 0, 0, 2, 0, 7, 7, 9, 0, 0, 6, 0, 0, 3, 0, 8, 0, 7, 2, 0, 0, 0, 4, 7, 0, 6, 0, 5, 6, 0, 2, 0, 0, 6, 0, 7, 0, 0, 3, 5, 6, 4, 3, 0, 8, 0, 1, 0, 2, 4, 0, 0, 0, 0, 9, 2, 0, 9, 0, 0, 2, 8, 8, 10, 7, 0, 5, 8, 0, 8, 1, 0, 9, 0, 0, 1, 5, 5, 0, 0, 3, 9, 0, 0, 0, 0, 0, 3, 3, 8, 0, 8, 0, 0, 3, 0, 0, 0, 0, 0, 0, 0, 0, 0]);

suc = [
   {2, 3, 4},
   {8, 25, 5},
   {78, 15},
   {9, 26, 6},
   {10, 11, 7},
   {32, 17, 14},
   {18, 35, 12},
   {61, 71},
   {24, 22, 23},
   {58, 28},
   {66, 20, 13},
   {38, 30, 15},
   {18, 34, 29},
   {16},
   {50, 76, 45},
   {39},
   {65, 57, 51},
   {27, 80, 19},
   {49, 45, 21},
   {42, 70},
   {53},
   {85},
   {40},
   {31},
   {63},
   {73, 41},
   {64},
   {83, 52, 71},
   {33, 42},
   {36, 37},
   {44, 47},
   {72, 45, 46},
   {75},
   {53, 55},
   {48, 47},
   {40},
   {56, 71},
   {84, 54},
   {81, 61},
   {68},
   {66, 43},
   {48, 80},
   {52},
   {56, 83, 67},
   {84, 62},
   {57, 54},
   {75},
   {59, 69},
   {82},
   {91, 52, 77},
   {81},
   {62, 63},
   {65, 59, 61},
   {82, 70},
   {56, 60},
   {79},
   {75, 59, 90},
   {60, 87},
   {86},
   {64, 63},
   {64, 84, 62},
   {74, 79},
   {89, 74},
   {73, 74, 67},
   {90},
   {68},
   {72, 78},
   {77, 69, 70},
   {72},
   {83},
   {81, 73, 78},
   {88},
   {79},
   {85},
   {87},
   {77},
   {80},
   {88},
   {86},
   {87},
   {82, 85},
   {91},
   {86},
   {88},
   {90},
   {89},
   {89},
   {91},
   {92},
   {92},
   {92},
   {  } ];

deadline = array2d(1..92, 1..3, [1, 0, 5, 10, 0, 4, 11, 4, 3, 13, 2, 3, 14, 5, 3, 20, 5, 0, 21, 2, 1, 29, 3, 1, 30, 4, 0, 32, 1, 2, 33, 2, 1, 34, 4, 5, 35, 5, 4, 36, 1, 4, 37, 0, 5, 39, 0, 4, 41, 2, 0, 42, 4, 3, 43, 0, 1, 44, 1, 1, 46, 1, 1, 53, 5, 1, 53, 4, 1, 55, 3, 2, 55, 4, 0, 56, 4, 3, 57, 5, 2, 60, 2, 2, 61, 0, 3, 62, 3, 1, 63, 5, 1, 63, 1, 4, 65, 3, 2, 66, 1, 5, 69, 5, 0, 72, 0, 4, 73, 1, 5, 79, 0, 4, 85, 0, 3, 85, 1, 2, 91, 4, 0, 92, 2, 1, 94, 0, 4, 97, 2, 1, 98, 2, 0, 99, 2, 1, 103, 5, 5, 106, 1, 3, 113, 5, 3, 115, 0, 4, 115, 1, 5, 117, 1, 1, 119, 5, 2, 120, 0, 1, 121, 0, 5, 127, 1, 1, 128, 5, 4, 131, 2, 5, 131, 1, 5, 133, 4, 1, 135, 2, 2, 138, 1, 4, 139, 0, 1, 139, 1, 5, 144, 1, 5, 145, 0, 2, 146, 2, 1, 148, 5, 0, 150, 1, 3, 154, 0, 4, 156, 5, 3, 161, 2, 1, 161, 4, 5, 162, 2, 2, 163, 0, 3, 163, 0, 4, 165, 0, 1, 169, 1, 5, 177, 3, 3, 177, 1, 1, 179, 3, 2, 182, 4, 4, 183, 2, 2, 186, 2, 2, 188, 4, 4, 189, 1, 0, 191, 4, 3, 194, 4, 4, 195, 2, 4, 199, 5, 4, 200, 2, 4, 201, 0, 3]);
