n_res = 4;
rc = [ 51, 65, 58, 47 ];
n_tasks = 92;
d = [0, 5, 2, 2, 6, 9, 2, 1, 8, 8, 1, 2, 8, 3, 3, 1, 1, 10, 9, 4, 4, 4, 5, 3, 3, 2, 5, 1, 5, 10, 9, 10, 3, 9, 5, 10, 7, 8, 10, 10, 7, 9, 3, 10, 8, 9, 1, 7, 9, 5, 10, 1, 3, 4, 2, 6, 3, 4, 9, 3, 2, 4, 1, 2, 9, 9, 9, 4, 7, 3, 8, 4, 3, 1, 3, 3, 2, 8, 4, 9, 6, 8, 1, 9, 6, 6, 9, 4, 9, 7, 9, 0];
rr = array2d(1..4, 1..92, [0, 8, 8, 9, 0, 0, 8, 10, 7, 10, 5, 9, 10, 8, 4, 0, 1, 3, 0, 2, 0, 0, 3, 3, 0, 0, 6, 6, 6, 0, 3, 0, 7, 1, 5, 9, 1, 10, 1, 6, 10, 8, 0, 4, 2, 0, 0, 2, 7, 5, 6, 5, 0, 10, 0, 9, 4, 10, 8, 0, 9, 2, 0, 4, 0, 9, 1, 0, 0, 1, 2, 5, 10, 5, 6, 7, 0, 0, 0, 7, 7, 8, 8, 2, 0, 0, 8, 7, 10, 7, 1, 0, 0, 5, 6, 8, 4, 5, 9, 0, 10, 0, 3, 7, 3, 6, 0, 8, 4, 2, 9, 3, 0, 9, 2, 0, 4, 2, 7, 9, 7, 4, 7, 8, 10, 8, 9, 10, 4, 9, 3, 5, 8, 7, 1, 1, 3, 10, 1, 6, 4, 1, 5, 1, 1, 7, 4, 1, 2, 9, 4, 10, 10, 3, 8, 3, 10, 1, 5, 2, 1, 4, 9, 10, 5, 9, 8, 1, 4, 3, 0, 1, 0, 6, 5, 0, 5, 0, 10, 0, 6, 6, 6, 0, 0, 1, 5, 9, 1, 0, 7, 5, 9, 7, 0, 0, 8, 2, 0, 0, 9, 0, 0, 3, 3, 3, 3, 7, 0, 0, 0, 3, 4, 6, 6, 3, 0, 0, 7, 1, 2, 0, 10, 6, 10, 0, 1, 0, 8, 5, 9, 3, 0, 0, 9, 5, 0, 1, 0, 0, 2, 5, 7, 3, 8, 5, 5, 2, 0, 8, 10, 0, 10, 0, 2, 6, 5, 0, 4, 7, 4, 6, 0, 2, 4, 5, 0, 5, 4, 3, 0, 0, 4, 0, 4, 0, 0, 9, 9, 8, 1, 0, 4, 9, 0, 7, 0, 2, 1, 0, 0, 7, 5, 0, 5, 4, 8, 0, 3, 3, 8, 9, 8, 10, 0, 2, 1, 0, 0, 0, 10, 6, 10, 1, 2, 0, 7, 3, 1, 3, 7, 6, 5, 0, 8, 0, 6, 0, 0, 0, 8, 0, 6, 0, 8, 8, 5, 5, 6, 9, 0, 8, 7, 1, 6, 8, 2, 7, 7, 1, 0, 10, 0, 9, 8, 0, 7, 1, 6, 7, 7, 5, 1, 8, 3, 0, 0, 0]);

suc = [
   {2, 3, 4},
   {25},
   {5, 6, 7},
   {50, 12, 13},
   {9, 22},
   {16},
   {8, 59, 53},
   {10, 11, 21},
   {75, 55, 23},
   {18, 36, 15},
   {54, 73, 14},
   {31},
   {27, 20, 28},
   {56},
   {29},
   {72, 17},
   {43, 47},
   {19},
   {33, 26, 44},
   {24, 51, 70},
   {38},
   {32, 40, 46},
   {25, 37},
   {25, 54},
   {48, 67, 39},
   {77},
   {49},
   {76, 45, 30},
   {66, 87},
   {84},
   {67},
   {71},
   {65, 41, 34},
   {35},
   {52, 63},
   {82},
   {68, 63},
   {87},
   {42},
   {91},
   {56},
   {49},
   {64},
   {78},
   {60},
   {61},
   {58, 51},
   {89},
   {60},
   {57, 74},
   {66, 63},
   {58},
   {69},
   {71},
   {91},
   {80},
   {65, 75},
   {69},
   {67},
   {84},
   {74, 62},
   {79},
   {82},
   {91},
   {88, 84},
   {78},
   {76},
   {78},
   {76},
   {83},
   {75},
   {83},
   {81, 83},
   {85, 79},
   {80, 77},
   {82},
   {85},
   {85},
   {89},
   {86},
   {90},
   {89},
   {87},
   {86},
   {86},
   {90},
   {88},
   {90},
   {92},
   {92},
   {92},
   {  } ];

deadline = array2d(1..92, 1..3, [3, 1, 4, 4, 3, 2, 5, 5, 4, 5, 2, 1, 9, 0, 4, 10, 5, 3, 14, 0, 2, 16, 1, 3, 20, 0, 0, 21, 4, 1, 22, 3, 4, 23, 0, 3, 24, 0, 3, 25, 1, 2, 26, 4, 3, 28, 3, 5, 28, 4, 0, 35, 5, 1, 37, 4, 2, 37, 1, 3, 40, 1, 4, 42, 5, 5, 42, 5, 4, 45, 5, 0, 49, 3, 3, 49, 3, 2, 52, 1, 5, 54, 2, 2, 56, 4, 4, 61, 3, 0, 62, 1, 1, 68, 0, 5, 74, 3, 1, 75, 1, 4, 75, 5, 0, 75, 4, 0, 76, 0, 0, 77, 2, 2, 82, 2, 0, 84, 0, 3, 87, 0, 0, 88, 0, 0, 88, 5, 0, 89, 2, 3, 95, 4, 0, 96, 4, 4, 97, 4, 2, 100, 2, 1, 100, 1, 3, 101, 5, 4, 102, 0, 1, 108, 1, 4, 109, 1, 4, 111, 1, 0, 114, 3, 5, 116, 0, 4, 116, 0, 2, 119, 4, 3, 122, 3, 4, 123, 3, 2, 125, 4, 1, 127, 2, 2, 139, 3, 0, 148, 4, 0, 149, 3, 2, 151, 2, 0, 151, 3, 2, 152, 2, 3, 156, 0, 3, 159, 5, 0, 161, 4, 3, 164, 1, 5, 166, 3, 3, 169, 2, 1, 170, 4, 1, 175, 4, 4, 176, 5, 2, 179, 0, 1, 181, 4, 0, 184, 2, 1, 184, 3, 2, 186, 4, 0, 186, 5, 5, 187, 1, 5, 191, 0, 3, 191, 0, 3, 194, 5, 5, 197, 0, 0, 199, 2, 3, 200, 0, 2, 200, 1, 3, 202, 3, 5]);
