n_res = 4;
rc = [ 57, 49, 52, 35 ];
n_tasks = 92;
d = [0, 2, 6, 7, 2, 7, 4, 7, 2, 10, 10, 2, 4, 9, 9, 5, 8, 1, 10, 7, 10, 9, 5, 2, 8, 5, 9, 1, 1, 2, 10, 1, 10, 4, 4, 7, 10, 6, 8, 10, 4, 6, 3, 5, 9, 2, 5, 3, 5, 3, 7, 8, 9, 10, 6, 1, 4, 5, 8, 7, 3, 7, 10, 9, 10, 2, 7, 4, 9, 7, 4, 3, 10, 5, 4, 9, 2, 3, 4, 7, 2, 6, 9, 5, 9, 10, 9, 6, 10, 1, 8, 0];
rr = array2d(1..4, 1..92, [0, 8, 4, 0, 0, 10, 6, 7, 2, 2, 0, 4, 0, 4, 4, 0, 10, 4, 0, 4, 0, 0, 0, 8, 0, 0, 0, 0, 9, 0, 6, 0, 0, 3, 10, 0, 5, 0, 3, 4, 4, 2, 5, 5, 0, 10, 5, 0, 9, 1, 0, 3, 7, 7, 10, 5, 5, 7, 9, 8, 2, 10, 1, 0, 0, 0, 0, 1, 3, 9, 6, 0, 8, 1, 10, 0, 0, 9, 0, 0, 0, 0, 0, 9, 9, 0, 0, 0, 3, 0, 0, 0, 0, 10, 0, 7, 9, 0, 7, 0, 3, 0, 0, 0, 0, 0, 0, 4, 1, 7, 0, 0, 0, 2, 0, 0, 0, 2, 0, 7, 0, 0, 0, 8, 6, 0, 2, 0, 0, 10, 4, 0, 0, 3, 0, 8, 0, 6, 0, 5, 0, 0, 7, 0, 7, 0, 3, 5, 0, 0, 10, 9, 10, 2, 0, 0, 0, 0, 8, 0, 0, 0, 0, 5, 0, 9, 0, 7, 0, 6, 0, 0, 8, 3, 0, 3, 3, 5, 0, 4, 1, 5, 0, 0, 0, 0, 0, 8, 0, 7, 5, 5, 0, 0, 2, 0, 7, 5, 5, 7, 0, 0, 6, 4, 0, 6, 0, 4, 3, 1, 10, 0, 0, 3, 4, 0, 0, 6, 0, 8, 4, 1, 6, 0, 0, 0, 0, 6, 0, 8, 9, 4, 8, 0, 0, 5, 5, 3, 3, 4, 0, 1, 0, 0, 6, 0, 0, 2, 1, 0, 0, 0, 0, 4, 0, 2, 0, 0, 0, 0, 6, 0, 1, 8, 0, 0, 10, 0, 4, 0, 0, 0, 5, 8, 6, 0, 0, 3, 0, 0, 8, 0, 0, 4, 4, 0, 0, 0, 0, 1, 2, 0, 0, 0, 0, 0, 7, 1, 8, 10, 0, 5, 8, 0, 5, 2, 3, 0, 1, 0, 4, 0, 0, 0, 10, 0, 0, 0, 0, 2, 7, 0, 0, 7, 0, 10, 0, 3, 0, 6, 6, 0, 6, 0, 0, 0, 0, 7, 0, 0, 1, 1, 0, 0, 0, 0, 0, 3, 0, 0, 3, 5, 4, 0, 8, 0, 9, 0, 9, 8, 2, 2, 4, 0, 7, 0, 0, 0]);

suc = [
   {2, 3, 4},
   {41, 10, 45},
   {16, 5, 14},
   {8},
   {9, 6, 7},
   {53},
   {24, 13, 15},
   {11, 12},
   {17, 36, 23},
   {73, 27},
   {64, 57, 35},
   {39},
   {18, 19, 20},
   {72, 49, 91},
   {33, 22},
   {65, 28},
   {75, 54, 31},
   {26, 44},
   {81, 25, 78},
   {21},
   {36},
   {30, 47},
   {58, 70},
   {34},
   {37, 84, 29},
   {51, 38},
   {32},
   {43},
   {40, 62},
   {88, 42, 61},
   {55},
   {63},
   {50},
   {56},
   {82, 52, 60},
   {66},
   {79},
   {56, 39},
   {59},
   {48},
   {46},
   {50},
   {74},
   {70},
   {48, 83},
   {76},
   {90},
   {64, 63},
   {68, 86},
   {53},
   {57},
   {85},
   {69},
   {76},
   {70},
   {59},
   {63},
   {67},
   {69},
   {66},
   {80, 77},
   {80, 74},
   {74},
   {73, 71},
   {82},
   {71},
   {85},
   {84, 71},
   {87},
   {76},
   {87},
   {73},
   {87},
   {75},
   {89},
   {83},
   {82},
   {79},
   {83},
   {91},
   {85},
   {89, 91},
   {88, 86},
   {88},
   {86},
   {90},
   {90},
   {89},
   {92},
   {92},
   {92},
   {  } ];

deadline = array2d(1..92, 1..3, [3, 3, 3, 6, 1, 0, 17, 1, 5, 18, 5, 1, 19, 0, 3, 23, 5, 3, 25, 1, 5, 32, 3, 4, 34, 2, 3, 35, 3, 0, 36, 3, 2, 39, 4, 1, 44, 4, 5, 44, 4, 2, 50, 2, 4, 56, 3, 3, 56, 4, 2, 57, 1, 3, 59, 5, 2, 60, 2, 4, 63, 2, 2, 66, 3, 0, 72, 4, 5, 73, 3, 2, 73, 4, 2, 76, 5, 2, 77, 5, 2, 78, 4, 4, 78, 3, 5, 83, 0, 0, 85, 3, 5, 85, 3, 4, 92, 4, 4, 93, 4, 1, 95, 2, 4, 95, 1, 3, 98, 1, 3, 99, 3, 0, 103, 0, 4, 104, 4, 1, 112, 4, 0, 117, 4, 2, 119, 0, 1, 120, 0, 2, 120, 1, 2, 120, 1, 5, 120, 4, 0, 121, 3, 2, 121, 5, 1, 121, 5, 5, 122, 5, 0, 128, 3, 5, 129, 1, 1, 131, 3, 3, 133, 2, 5, 134, 3, 3, 138, 3, 5, 138, 3, 1, 141, 2, 0, 142, 4, 0, 143, 0, 1, 143, 5, 3, 147, 5, 1, 149, 2, 1, 150, 2, 3, 154, 1, 2, 155, 3, 5, 156, 2, 0, 163, 2, 2, 165, 1, 3, 166, 2, 4, 167, 0, 5, 167, 5, 5, 173, 4, 1, 175, 3, 0, 176, 3, 2, 177, 1, 5, 179, 5, 2, 180, 2, 5, 181, 2, 4, 181, 4, 0, 182, 5, 4, 182, 2, 5, 183, 0, 0, 184, 1, 4, 184, 2, 3, 185, 1, 1, 186, 3, 4, 187, 2, 0, 187, 5, 4, 192, 2, 1, 192, 2, 1]);
