n_res = 4;
rc = [ 32, 32, 32, 31 ];
n_tasks = 92;
d = [0, 8, 8, 4, 5, 6, 5, 6, 6, 6, 9, 3, 10, 5, 9, 3, 2, 6, 8, 10, 7, 2, 9, 7, 10, 9, 5, 5, 4, 1, 10, 5, 5, 3, 4, 1, 2, 8, 8, 1, 7, 1, 2, 6, 5, 3, 7, 3, 9, 3, 5, 5, 1, 1, 3, 1, 4, 7, 10, 9, 2, 9, 6, 9, 10, 8, 5, 9, 6, 3, 8, 9, 9, 3, 4, 4, 2, 3, 2, 5, 9, 6, 1, 10, 9, 6, 5, 10, 5, 1, 8, 0];
rr = array2d(1..4, 1..92, [0, 2, 0, 4, 0, 0, 2, 0, 4, 1, 1, 0, 5, 0, 0, 0, 8, 0, 2, 8, 7, 8, 0, 3, 9, 0, 0, 2, 0, 10, 0, 10, 5, 0, 6, 0, 1, 10, 0, 0, 0, 5, 10, 6, 0, 5, 0, 0, 0, 0, 0, 7, 3, 0, 4, 2, 10, 0, 6, 8, 4, 0, 10, 9, 0, 7, 0, 10, 0, 0, 0, 2, 8, 7, 5, 0, 3, 6, 10, 0, 0, 0, 8, 9, 0, 4, 0, 0, 0, 0, 8, 0, 0, 0, 0, 2, 5, 0, 0, 9, 7, 10, 2, 5, 9, 0, 2, 0, 3, 9, 0, 4, 0, 0, 10, 0, 0, 0, 1, 0, 0, 0, 2, 0, 1, 0, 6, 0, 1, 0, 8, 10, 0, 0, 9, 7, 0, 0, 1, 0, 0, 6, 5, 0, 0, 5, 0, 4, 0, 3, 7, 1, 0, 7, 0, 0, 10, 10, 0, 0, 6, 6, 0, 9, 0, 0, 7, 0, 0, 0, 0, 1, 4, 1, 9, 7, 2, 4, 0, 0, 0, 1, 1, 0, 0, 0, 0, 0, 0, 3, 4, 0, 9, 0, 0, 3, 1, 0, 0, 0, 0, 0, 10, 0, 6, 6, 6, 0, 0, 9, 2, 9, 0, 1, 0, 4, 4, 10, 5, 0, 0, 0, 3, 3, 8, 0, 4, 0, 2, 5, 0, 0, 0, 0, 0, 0, 0, 0, 10, 6, 6, 0, 0, 0, 0, 0, 0, 0, 8, 0, 0, 0, 0, 8, 8, 9, 0, 0, 4, 7, 4, 8, 0, 1, 5, 0, 0, 4, 0, 0, 0, 0, 5, 2, 6, 0, 0, 0, 6, 0, 0, 0, 0, 2, 0, 3, 0, 0, 0, 1, 0, 6, 0, 10, 1, 10, 5, 9, 6, 9, 0, 0, 0, 8, 9, 0, 9, 0, 0, 0, 0, 6, 4, 1, 8, 9, 0, 0, 6, 0, 5, 3, 6, 4, 3, 6, 2, 0, 0, 0, 0, 5, 0, 0, 6, 0, 10, 5, 6, 0, 3, 5, 3, 0, 0, 4, 0, 0, 10, 8, 3, 0, 0, 0, 7, 0, 0, 0, 10, 0, 0, 1, 10, 4, 1, 2, 0, 0]);

suc = [
   {2, 3, 4},
   {18, 37, 14},
   {11, 44, 29},
   {72, 5},
   {12, 6, 7},
   {73, 43, 19},
   {8, 9, 22},
   {16, 17, 10},
   {33, 15},
   {13, 63},
   {65, 27, 36},
   {58, 38, 23},
   {34, 45, 15},
   {35, 21, 47},
   {86},
   {34, 43, 52},
   {20, 30},
   {24, 39, 31},
   {26, 82, 53},
   {25},
   {28},
   {56, 49, 90},
   {40},
   {75},
   {64, 84},
   {42},
   {88},
   {82},
   {73, 46},
   {54, 31},
   {32, 71},
   {67, 87},
   {66, 76, 39},
   {76, 69, 47},
   {53},
   {70},
   {89, 67, 51},
   {40, 57, 77},
   {41, 46, 47},
   {66},
   {43},
   {65, 59},
   {56, 69},
   {80},
   {48, 74, 60},
   {56},
   {50, 61, 78},
   {88, 59},
   {52, 71},
   {58},
   {91, 53},
   {77, 79},
   {80, 60},
   {62, 55},
   {57, 60, 63},
   {75, 71},
   {66, 68, 78},
   {62},
   {76},
   {64, 68},
   {65, 62},
   {73, 68},
   {91},
   {83},
   {85},
   {69},
   {80, 75},
   {81},
   {81},
   {74, 78},
   {85},
   {74, 77},
   {79},
   {82},
   {91},
   {81, 83},
   {84},
   {84, 79},
   {85},
   {90},
   {86},
   {83, 87},
   {86},
   {87},
   {89},
   {90},
   {88},
   {89},
   {92},
   {92},
   {92},
   {  } ];

deadline = array2d(1..92, 1..3, [2, 0, 0, 3, 2, 1, 3, 3, 0, 5, 4, 3, 7, 0, 5, 7, 1, 5, 10, 1, 1, 16, 2, 3, 16, 0, 5, 18, 3, 5, 22, 0, 3, 24, 5, 0, 26, 0, 5, 27, 0, 1, 27, 3, 0, 27, 0, 1, 29, 2, 2, 33, 4, 2, 35, 0, 0, 37, 3, 5, 38, 5, 3, 53, 2, 3, 55, 4, 0, 56, 3, 0, 58, 4, 0, 60, 3, 0, 69, 4, 2, 70, 1, 5, 71, 2, 0, 80, 1, 5, 83, 0, 5, 84, 2, 1, 85, 3, 3, 92, 1, 0, 95, 4, 4, 98, 2, 3, 101, 1, 2, 105, 0, 3, 105, 2, 1, 117, 2, 2, 121, 0, 0, 127, 5, 4, 129, 5, 2, 133, 1, 3, 135, 3, 1, 140, 2, 3, 140, 0, 0, 145, 2, 3, 146, 1, 0, 147, 5, 5, 149, 0, 1, 151, 4, 1, 153, 4, 5, 154, 5, 1, 154, 1, 5, 155, 4, 2, 155, 2, 1, 156, 5, 1, 157, 2, 1, 158, 5, 3, 160, 4, 0, 160, 2, 1, 161, 2, 5, 163, 0, 1, 165, 3, 4, 166, 3, 0, 168, 5, 3, 169, 1, 5, 170, 4, 5, 173, 0, 5, 174, 1, 4, 174, 3, 0, 177, 5, 0, 178, 1, 4, 180, 1, 0, 181, 3, 5, 182, 0, 5, 183, 4, 3, 186, 4, 0, 188, 2, 1, 196, 5, 5, 212, 5, 0, 216, 2, 4, 216, 3, 3, 216, 1, 2, 219, 2, 1, 222, 3, 2, 222, 4, 0, 223, 1, 3, 223, 0, 2, 225, 5, 4, 225, 5, 2]);
