n_res = 4;
rc = [ 36, 37, 40, 35 ];
n_tasks = 92;
d = [0, 10, 2, 5, 5, 3, 6, 5, 1, 5, 9, 7, 5, 10, 10, 3, 5, 1, 2, 6, 10, 4, 6, 3, 2, 10, 7, 7, 4, 9, 1, 2, 8, 6, 7, 2, 5, 2, 5, 2, 10, 1, 8, 7, 1, 7, 2, 1, 6, 8, 1, 2, 2, 10, 4, 6, 9, 1, 6, 4, 4, 7, 2, 6, 7, 1, 7, 5, 7, 5, 6, 1, 9, 7, 5, 1, 7, 10, 3, 6, 6, 9, 3, 8, 1, 1, 7, 5, 1, 8, 2, 0];
rr = array2d(1..4, 1..92, [0, 3, 5, 5, 7, 3, 5, 10, 10, 10, 6, 7, 7, 1, 10, 1, 6, 5, 5, 5, 1, 2, 2, 9, 5, 8, 6, 5, 6, 1, 7, 5, 3, 3, 3, 6, 9, 9, 5, 3, 7, 9, 3, 8, 8, 10, 5, 6, 5, 1, 9, 8, 1, 10, 3, 1, 4, 3, 5, 7, 4, 10, 5, 3, 5, 1, 9, 3, 1, 7, 8, 1, 4, 7, 10, 6, 5, 9, 3, 4, 8, 4, 9, 1, 1, 4, 6, 1, 7, 8, 5, 0, 0, 2, 6, 7, 1, 9, 9, 9, 4, 9, 1, 2, 8, 4, 6, 8, 4, 1, 6, 10, 10, 1, 10, 9, 1, 2, 10, 4, 1, 4, 3, 10, 5, 4, 6, 4, 9, 9, 10, 5, 4, 1, 6, 5, 7, 10, 10, 6, 6, 1, 8, 2, 4, 7, 10, 4, 6, 1, 1, 7, 10, 5, 5, 1, 6, 6, 10, 5, 10, 9, 6, 4, 8, 1, 10, 3, 9, 9, 4, 2, 1, 5, 5, 9, 8, 8, 6, 1, 3, 9, 7, 0, 0, 3, 3, 3, 5, 2, 2, 3, 6, 5, 4, 6, 8, 9, 1, 5, 4, 2, 3, 8, 9, 2, 10, 2, 2, 6, 6, 3, 6, 6, 6, 8, 10, 1, 3, 7, 5, 8, 1, 7, 8, 4, 8, 6, 3, 10, 4, 3, 7, 6, 2, 5, 9, 4, 6, 1, 7, 6, 7, 10, 1, 5, 9, 9, 9, 2, 2, 4, 6, 2, 5, 7, 7, 9, 7, 7, 9, 10, 4, 7, 3, 3, 5, 3, 8, 1, 8, 10, 6, 5, 10, 0, 0, 10, 8, 5, 10, 3, 2, 9, 10, 6, 10, 8, 1, 1, 4, 6, 5, 1, 1, 2, 10, 6, 4, 10, 2, 3, 10, 8, 2, 7, 4, 6, 4, 8, 5, 9, 6, 5, 2, 10, 2, 1, 2, 2, 10, 7, 5, 4, 10, 9, 10, 6, 9, 2, 7, 4, 8, 3, 6, 5, 4, 5, 9, 7, 1, 2, 1, 1, 4, 2, 8, 10, 6, 2, 8, 1, 1, 9, 4, 10, 3, 10, 3, 3, 5, 8, 7, 10, 2, 1, 10, 0]);

suc = [
   {2, 3, 4},
   {72, 20, 78},
   {24, 27, 23},
   {11, 5, 15},
   {8, 6, 7},
   {10, 12, 28},
   {9, 14, 17},
   {21},
   {25},
   {48},
   {19, 79},
   {18, 58, 13},
   {16, 65, 32},
   {50, 22},
   {42, 29, 70},
   {19, 60},
   {40, 41, 30},
   {34},
   {31},
   {49, 67, 43},
   {26},
   {75, 47},
   {41, 37},
   {57, 34, 39},
   {45, 37, 54},
   {33, 35, 63},
   {61},
   {49, 38, 55},
   {56, 68, 76},
   {75},
   {49, 85, 86},
   {70, 62, 47},
   {36},
   {46},
   {62, 51, 54},
   {56, 90},
   {53},
   {81, 68},
   {65, 82, 90},
   {73, 66, 44},
   {55},
   {48, 52},
   {74, 45},
   {48, 64},
   {82},
   {73},
   {52, 71},
   {69, 55},
   {51, 61},
   {65},
   {56},
   {80},
   {84},
   {73, 58, 69},
   {59},
   {80, 77},
   {64, 82, 71},
   {74},
   {81, 78},
   {76, 77, 71},
   {64, 89, 80},
   {67, 86},
   {72},
   {91, 87},
   {66, 70},
   {67, 68, 85},
   {76},
   {72},
   {84},
   {75},
   {83},
   {77},
   {74, 83},
   {87},
   {78},
   {83, 79},
   {88},
   {79},
   {88},
   {91},
   {86},
   {84},
   {91},
   {85},
   {88},
   {89, 87},
   {90},
   {89},
   {92},
   {92},
   {92},
   {  } ];

deadline = array2d(1..92, 1..3, [2, 1, 1, 4, 2, 4, 4, 1, 2, 5, 3, 5, 14, 3, 4, 17, 0, 0, 18, 0, 5, 18, 4, 0, 23, 3, 0, 26, 4, 3, 26, 5, 3, 33, 2, 3, 35, 5, 4, 35, 2, 1, 35, 1, 0, 36, 5, 4, 38, 4, 5, 39, 5, 1, 43, 4, 3, 43, 1, 3, 53, 0, 4, 53, 0, 4, 61, 4, 4, 65, 0, 1, 65, 5, 3, 71, 5, 2, 73, 5, 4, 74, 0, 4, 75, 0, 0, 75, 0, 1, 75, 3, 5, 76, 4, 5, 76, 2, 5, 77, 0, 3, 79, 2, 1, 79, 0, 3, 81, 4, 3, 81, 1, 0, 85, 5, 1, 89, 2, 2, 91, 4, 2, 92, 0, 2, 93, 5, 1, 101, 4, 1, 105, 3, 0, 105, 0, 4, 108, 5, 3, 113, 4, 5, 119, 3, 1, 119, 3, 2, 120, 4, 5, 126, 5, 4, 128, 3, 1, 129, 4, 2, 131, 5, 1, 132, 0, 2, 135, 1, 3, 135, 0, 1, 136, 0, 5, 136, 4, 5, 137, 1, 0, 137, 3, 1, 138, 2, 0, 147, 2, 4, 148, 5, 4, 149, 0, 1, 153, 3, 2, 157, 1, 2, 159, 4, 0, 166, 2, 5, 168, 1, 5, 170, 4, 4, 170, 4, 0, 177, 2, 2, 177, 3, 0, 182, 1, 5, 183, 3, 3, 185, 0, 3, 187, 5, 4, 188, 3, 0, 188, 1, 3, 190, 0, 0, 192, 5, 0, 194, 5, 5, 194, 4, 0, 201, 1, 3, 201, 5, 0, 202, 2, 2, 203, 5, 4, 204, 5, 4, 205, 4, 4, 205, 5, 0]);
