n_res = 4;
rc = [ 64, 66, 56, 65 ];
n_tasks = 92;
d = [0, 6, 1, 3, 7, 6, 9, 9, 8, 2, 7, 5, 7, 9, 9, 6, 5, 10, 5, 10, 3, 2, 8, 2, 10, 7, 1, 6, 1, 9, 4, 7, 6, 4, 4, 10, 7, 4, 2, 6, 4, 3, 1, 2, 2, 1, 4, 7, 9, 8, 6, 4, 2, 1, 3, 9, 1, 8, 5, 6, 3, 5, 3, 5, 4, 8, 3, 2, 4, 3, 6, 10, 6, 3, 10, 4, 8, 4, 2, 2, 5, 5, 4, 7, 2, 1, 5, 6, 7, 1, 8, 0];
rr = array2d(1..4, 1..92, [0, 7, 7, 1, 3, 2, 3, 8, 7, 2, 8, 7, 4, 3, 2, 3, 9, 8, 1, 7, 10, 10, 4, 8, 4, 5, 6, 6, 4, 7, 5, 9, 10, 7, 3, 2, 8, 5, 8, 3, 7, 2, 4, 5, 7, 5, 3, 8, 3, 6, 3, 9, 3, 4, 7, 8, 7, 10, 5, 8, 3, 2, 10, 4, 3, 7, 8, 1, 4, 8, 5, 3, 9, 2, 7, 10, 6, 1, 7, 5, 10, 8, 1, 6, 4, 2, 5, 6, 1, 10, 5, 0, 0, 6, 7, 5, 8, 8, 2, 8, 9, 6, 5, 8, 5, 5, 1, 6, 5, 3, 3, 2, 10, 5, 3, 5, 4, 10, 5, 7, 7, 2, 8, 8, 7, 8, 4, 3, 9, 3, 7, 1, 6, 3, 7, 4, 4, 6, 3, 4, 2, 7, 8, 1, 2, 4, 6, 3, 3, 9, 3, 1, 9, 4, 4, 4, 1, 7, 9, 1, 9, 3, 10, 2, 3, 1, 9, 4, 10, 1, 2, 4, 10, 4, 10, 1, 5, 8, 4, 1, 6, 7, 7, 0, 0, 4, 5, 2, 8, 8, 10, 2, 10, 9, 6, 3, 6, 2, 7, 6, 2, 1, 6, 9, 1, 8, 4, 7, 5, 9, 1, 1, 8, 1, 7, 4, 4, 1, 3, 1, 4, 2, 9, 6, 4, 10, 7, 7, 2, 1, 4, 8, 2, 6, 1, 2, 2, 10, 6, 2, 7, 10, 7, 3, 5, 8, 1, 8, 4, 8, 2, 6, 6, 9, 8, 6, 4, 6, 2, 8, 1, 9, 5, 4, 7, 9, 3, 6, 9, 8, 3, 1, 7, 1, 7, 0, 0, 1, 4, 3, 4, 6, 9, 2, 3, 2, 10, 5, 6, 6, 7, 6, 7, 6, 5, 3, 2, 6, 6, 6, 3, 9, 2, 5, 7, 5, 1, 9, 4, 2, 8, 10, 3, 6, 8, 2, 6, 3, 3, 7, 2, 6, 7, 1, 5, 1, 1, 3, 2, 6, 1, 1, 10, 7, 4, 8, 7, 5, 5, 5, 7, 3, 1, 7, 2, 3, 6, 1, 6, 9, 2, 5, 1, 4, 9, 10, 2, 1, 7, 5, 7, 10, 1, 4, 4, 3, 2, 0]);

suc = [
   {2, 3, 4},
   {25, 28, 14},
   {10, 12, 15},
   {16, 5, 7},
   {8, 9, 6},
   {56, 26, 35},
   {30},
   {49, 27, 22},
   {20, 13},
   {27, 11, 69},
   {73, 43, 46},
   {24, 43, 19},
   {18, 58, 90},
   {17, 36},
   {35, 20, 29},
   {77, 21},
   {42, 50, 45},
   {32, 81, 82},
   {36, 37},
   {86, 91, 22},
   {25, 62, 23},
   {40, 65, 47},
   {57, 52, 69},
   {32, 65},
   {41, 52, 47},
   {44, 62, 39},
   {83, 42, 59},
   {50, 51, 53},
   {33, 60, 31},
   {61},
   {49, 34, 58},
   {33, 70},
   {46, 55},
   {40, 51, 39},
   {48, 38},
   {80, 74, 87},
   {73, 90, 53},
   {62, 54, 39},
   {42, 59, 61},
   {74, 79, 55},
   {43, 60, 76},
   {46},
   {48, 91},
   {64, 75, 60},
   {61, 68, 53},
   {64},
   {48, 55},
   {50, 78, 79},
   {67, 68, 71},
   {57, 54},
   {56, 59, 52},
   {67, 84},
   {70, 74, 54},
   {58, 66},
   {64, 57, 66},
   {72},
   {89},
   {71},
   {66, 68},
   {85, 78},
   {65, 70, 86},
   {75, 63},
   {67, 69},
   {84},
   {88, 81, 77},
   {71},
   {72, 78},
   {75},
   {72, 80, 76},
   {77},
   {85},
   {73, 86},
   {79},
   {82},
   {80, 88, 76},
   {91},
   {83},
   {87},
   {81},
   {82},
   {83},
   {84},
   {89},
   {85},
   {89},
   {87},
   {88},
   {90},
   {92},
   {92},
   {92},
   {  } ];

deadline = array2d(1..92, 1..3, [10, 1, 1, 14, 5, 5, 15, 3, 1, 20, 4, 0, 21, 0, 0, 22, 5, 2, 23, 5, 5, 27, 0, 1, 28, 2, 4, 32, 0, 1, 32, 4, 3, 34, 1, 2, 38, 0, 0, 41, 5, 2, 41, 4, 4, 48, 2, 0, 49, 3, 2, 50, 3, 2, 55, 3, 1, 57, 2, 2, 58, 3, 0, 61, 5, 0, 61, 1, 0, 64, 3, 2, 65, 2, 1, 66, 0, 1, 66, 0, 3, 71, 1, 5, 71, 4, 1, 77, 4, 4, 78, 3, 2, 79, 4, 1, 81, 1, 5, 82, 1, 1, 84, 1, 0, 88, 3, 5, 90, 1, 4, 92, 0, 2, 92, 2, 2, 95, 2, 3, 96, 5, 2, 96, 4, 0, 97, 1, 0, 98, 2, 0, 100, 2, 3, 104, 2, 5, 105, 2, 0, 106, 4, 4, 107, 5, 1, 109, 1, 3, 109, 5, 2, 109, 3, 4, 110, 2, 2, 111, 3, 5, 111, 4, 5, 112, 1, 2, 113, 2, 3, 113, 3, 4, 114, 1, 0, 120, 3, 3, 120, 5, 2, 122, 5, 2, 128, 4, 1, 129, 0, 0, 129, 2, 0, 129, 2, 5, 129, 1, 2, 129, 3, 2, 133, 3, 4, 133, 3, 0, 134, 3, 4, 135, 1, 0, 136, 4, 2, 136, 0, 5, 139, 3, 0, 140, 0, 3, 141, 3, 5, 147, 0, 4, 150, 4, 2, 151, 4, 2, 156, 4, 3, 159, 5, 2, 165, 3, 1, 165, 4, 2, 166, 2, 0, 168, 1, 5, 172, 3, 3, 177, 3, 2, 180, 4, 4, 182, 3, 3, 185, 1, 5, 185, 3, 2]);
