n_res = 4;
rc = [ 39, 43, 35, 28 ];
n_tasks = 92;
d = [0, 8, 1, 2, 8, 7, 7, 1, 7, 4, 5, 5, 5, 9, 5, 7, 7, 6, 6, 2, 3, 6, 5, 3, 1, 3, 8, 4, 1, 3, 3, 3, 1, 10, 7, 10, 7, 3, 9, 8, 2, 6, 6, 1, 10, 5, 1, 7, 5, 5, 3, 8, 7, 10, 10, 7, 2, 6, 6, 4, 4, 4, 7, 2, 1, 3, 10, 2, 3, 8, 2, 2, 5, 6, 10, 10, 4, 2, 9, 7, 4, 1, 10, 7, 1, 8, 1, 4, 7, 8, 10, 0];
rr = array2d(1..4, 1..92, [0, 0, 0, 0, 4, 0, 0, 9, 0, 0, 6, 0, 0, 0, 1, 0, 6, 8, 4, 5, 9, 2, 5, 9, 0, 0, 6, 0, 8, 10, 3, 10, 0, 0, 0, 0, 1, 6, 0, 0, 0, 0, 5, 1, 6, 8, 10, 4, 0, 0, 0, 0, 5, 5, 0, 0, 2, 0, 0, 10, 0, 0, 7, 5, 0, 0, 9, 3, 0, 0, 0, 6, 9, 0, 1, 4, 0, 5, 0, 6, 0, 0, 7, 0, 0, 0, 0, 0, 0, 2, 2, 0, 0, 0, 0, 8, 0, 0, 6, 5, 0, 10, 8, 0, 0, 2, 0, 5, 10, 5, 0, 2, 0, 0, 0, 0, 2, 0, 5, 2, 3, 10, 1, 8, 7, 0, 0, 0, 0, 1, 5, 7, 0, 0, 0, 0, 8, 0, 7, 3, 0, 8, 2, 10, 0, 7, 0, 0, 0, 10, 3, 0, 0, 0, 4, 0, 1, 10, 0, 0, 0, 0, 10, 0, 0, 6, 2, 0, 0, 0, 0, 0, 3, 0, 0, 5, 4, 0, 0, 7, 9, 1, 7, 0, 0, 0, 3, 0, 10, 0, 4, 6, 10, 0, 0, 3, 0, 0, 0, 4, 0, 6, 1, 0, 4, 0, 0, 9, 5, 0, 0, 6, 0, 9, 6, 0, 0, 7, 1, 0, 6, 6, 4, 6, 3, 2, 7, 0, 0, 0, 1, 1, 0, 2, 6, 0, 7, 3, 0, 3, 1, 3, 0, 0, 4, 4, 0, 5, 7, 0, 0, 0, 8, 9, 4, 0, 7, 0, 0, 7, 1, 0, 0, 0, 4, 5, 2, 0, 0, 5, 4, 4, 4, 0, 0, 0, 0, 4, 1, 5, 2, 3, 0, 0, 0, 6, 0, 3, 6, 0, 0, 1, 6, 0, 3, 4, 0, 9, 1, 1, 2, 7, 0, 5, 0, 0, 3, 6, 0, 6, 0, 2, 0, 0, 3, 5, 0, 0, 0, 7, 9, 0, 0, 0, 9, 0, 0, 7, 8, 0, 4, 0, 9, 0, 6, 0, 0, 8, 1, 4, 0, 0, 0, 0, 0, 0, 1, 0, 0, 0, 9, 0, 6, 4, 1, 1, 5, 0, 0, 0, 7, 10, 0, 5, 0, 7, 0, 0]);

suc = [
   {2, 3, 4},
   {45, 19, 5},
   {10, 6, 7},
   {50, 51, 13},
   {8, 11, 14},
   {24, 18, 30},
   {65, 34, 20},
   {64, 9, 55},
   {32, 12, 38},
   {49, 31, 15},
   {17, 37, 33},
   {27, 61, 31},
   {39, 29, 31},
   {28, 21, 23},
   {16, 36, 22},
   {90, 79},
   {34, 43},
   {42, 21},
   {80, 52, 87},
   {88, 59},
   {40},
   {25, 58, 35},
   {26, 42, 44},
   {87},
   {62},
   {49},
   {53, 78},
   {47},
   {66},
   {62},
   {34, 82, 46},
   {80, 41},
   {91, 67},
   {36, 77},
   {56, 41, 55},
   {89},
   {49},
   {40, 57, 66},
   {40},
   {56},
   {57},
   {88, 73},
   {48, 77},
   {68},
   {55},
   {56, 71},
   {83, 61},
   {75, 67},
   {60},
   {54},
   {72, 59},
   {57, 62, 79},
   {82, 75, 69},
   {80, 60, 78},
   {74, 86, 63},
   {59, 70},
   {70, 71},
   {76, 69},
   {68},
   {72, 65},
   {65, 66},
   {75},
   {69},
   {67},
   {74, 85},
   {82},
   {68},
   {73, 76},
   {70},
   {81},
   {91},
   {74},
   {83},
   {87},
   {88, 83, 84},
   {78},
   {81, 85},
   {85, 79},
   {81},
   {89},
   {84},
   {84},
   {86},
   {89},
   {86},
   {90},
   {91},
   {90},
   {92},
   {92},
   {92},
   {  } ];

deadline = array2d(1..92, 1..3, [4, 4, 3, 5, 1, 1, 5, 4, 0, 5, 2, 2, 10, 5, 0, 11, 5, 1, 15, 2, 4, 16, 2, 5, 17, 3, 3, 17, 1, 0, 18, 2, 4, 21, 1, 4, 27, 2, 3, 30, 4, 3, 32, 0, 4, 39, 5, 4, 39, 4, 1, 44, 1, 0, 45, 3, 3, 46, 3, 3, 53, 5, 1, 55, 3, 5, 55, 1, 4, 55, 2, 4, 56, 5, 2, 57, 2, 4, 76, 5, 5, 79, 3, 5, 84, 2, 3, 86, 2, 5, 88, 4, 5, 89, 4, 4, 91, 1, 2, 93, 0, 1, 94, 4, 2, 96, 0, 2, 100, 0, 4, 102, 0, 1, 104, 3, 3, 105, 5, 5, 106, 1, 5, 112, 1, 5, 112, 0, 5, 113, 2, 4, 114, 5, 1, 121, 5, 4, 122, 5, 0, 127, 2, 3, 128, 4, 0, 131, 4, 3, 136, 0, 0, 140, 4, 0, 143, 3, 2, 143, 1, 5, 143, 0, 2, 145, 2, 0, 148, 1, 1, 149, 4, 1, 151, 0, 0, 152, 4, 2, 158, 5, 0, 162, 1, 2, 162, 4, 1, 164, 2, 1, 165, 3, 1, 167, 1, 5, 168, 3, 2, 171, 3, 2, 174, 2, 3, 180, 2, 0, 183, 5, 1, 183, 2, 2, 185, 0, 5, 186, 2, 3, 187, 4, 5, 196, 2, 0, 197, 5, 4, 197, 4, 0, 198, 4, 0, 200, 0, 2, 202, 0, 0, 202, 1, 4, 210, 2, 3, 211, 3, 1, 211, 4, 1, 212, 0, 3, 212, 4, 0, 214, 5, 0, 215, 1, 1, 217, 4, 1, 220, 1, 0, 227, 1, 0]);
