n_res = 4;
rc = [ 33, 32, 40, 21 ];
n_tasks = 92;
d = [0, 3, 3, 8, 9, 8, 1, 3, 2, 7, 3, 6, 8, 5, 9, 6, 3, 8, 7, 2, 10, 2, 5, 1, 9, 10, 7, 8, 1, 2, 8, 7, 4, 2, 7, 5, 1, 3, 10, 1, 10, 10, 4, 8, 5, 6, 1, 6, 2, 5, 9, 4, 6, 4, 5, 7, 10, 8, 1, 9, 1, 3, 10, 2, 2, 9, 1, 10, 6, 6, 10, 1, 4, 9, 1, 6, 10, 10, 6, 10, 3, 4, 7, 5, 9, 8, 2, 7, 1, 6, 1, 0];
rr = array2d(1..4, 1..92, [0, 0, 1, 0, 6, 0, 0, 0, 1, 0, 0, 0, 5, 0, 0, 0, 9, 0, 8, 0, 0, 0, 0, 0, 0, 7, 0, 5, 9, 0, 0, 0, 0, 1, 0, 0, 0, 0, 0, 0, 0, 10, 0, 0, 0, 8, 6, 0, 0, 0, 2, 0, 0, 9, 0, 0, 0, 0, 2, 8, 2, 0, 0, 0, 0, 7, 10, 0, 0, 0, 10, 0, 0, 0, 7, 0, 0, 0, 6, 0, 10, 0, 3, 0, 5, 0, 8, 0, 0, 0, 0, 0, 0, 0, 0, 7, 0, 0, 6, 0, 0, 7, 0, 0, 0, 0, 0, 0, 0, 9, 0, 7, 0, 0, 0, 2, 0, 0, 0, 0, 0, 0, 0, 0, 0, 0, 0, 0, 10, 0, 0, 6, 0, 0, 0, 6, 0, 0, 0, 0, 0, 3, 0, 9, 0, 0, 0, 0, 5, 0, 0, 0, 0, 0, 0, 0, 0, 0, 0, 3, 0, 0, 0, 0, 0, 0, 0, 5, 0, 0, 0, 0, 0, 0, 0, 2, 0, 0, 0, 0, 2, 0, 0, 0, 0, 0, 0, 0, 0, 0, 0, 0, 0, 0, 2, 0, 0, 9, 7, 10, 0, 0, 0, 0, 9, 10, 0, 0, 7, 0, 0, 0, 0, 0, 0, 7, 0, 0, 9, 2, 0, 6, 10, 0, 3, 0, 0, 0, 0, 0, 0, 8, 5, 0, 0, 0, 0, 0, 8, 0, 0, 9, 0, 0, 0, 0, 0, 5, 0, 0, 0, 0, 1, 0, 0, 9, 0, 0, 0, 0, 0, 2, 0, 10, 0, 4, 0, 0, 0, 6, 0, 1, 0, 6, 0, 0, 0, 2, 0, 0, 0, 3, 0, 2, 0, 0, 0, 5, 0, 0, 0, 0, 0, 0, 0, 0, 0, 0, 1, 0, 0, 0, 9, 0, 0, 4, 4, 0, 7, 0, 0, 0, 0, 0, 0, 0, 0, 0, 7, 0, 9, 0, 0, 0, 0, 0, 0, 0, 6, 0, 0, 3, 0, 0, 0, 0, 0, 1, 4, 0, 9, 0, 0, 0, 0, 1, 0, 0, 3, 5, 0, 0, 1, 0, 0, 0, 0, 0, 0, 0, 0, 0, 0, 0, 0, 0, 6, 0]);

suc = [
   {2, 3, 4},
   {51, 6, 15},
   {34, 53, 21},
   {8, 5, 7},
   {26},
   {10, 68},
   {25, 11},
   {16, 9, 12},
   {45, 29, 47},
   {56, 14},
   {32, 33, 13},
   {18, 28, 61},
   {17, 22},
   {30},
   {24, 26},
   {20},
   {58, 19, 21},
   {75, 69},
   {36, 76},
   {87},
   {54, 38},
   {27, 23},
   {59},
   {57, 63},
   {65},
   {75, 52},
   {43},
   {35, 37, 39},
   {44},
   {42, 83, 31},
   {40, 85},
   {73},
   {48},
   {63},
   {80},
   {50, 71},
   {59},
   {59},
   {63},
   {41, 90},
   {64, 49, 78},
   {54, 46},
   {72, 62},
   {73},
   {49, 71},
   {55},
   {67},
   {89},
   {79},
   {74, 51},
   {57, 66, 70},
   {80},
   {86},
   {71},
   {76},
   {60},
   {86},
   {64, 67, 77},
   {60},
   {84},
   {88},
   {82},
   {89},
   {81},
   {69},
   {84},
   {89},
   {69},
   {84},
   {78},
   {90},
   {91},
   {76},
   {82},
   {81},
   {81, 77},
   {87},
   {79},
   {80},
   {82},
   {86},
   {88},
   {85},
   {88},
   {87},
   {91},
   {90},
   {91},
   {92},
   {92},
   {92},
   {  } ];

deadline = array2d(1..92, 1..3, [1, 3, 5, 2, 1, 5, 5, 5, 3, 11, 3, 3, 13, 3, 3, 14, 4, 4, 17, 4, 1, 25, 0, 3, 26, 0, 3, 28, 5, 1, 29, 5, 0, 30, 5, 1, 32, 1, 1, 35, 4, 2, 35, 1, 5, 43, 4, 1, 45, 2, 1, 46, 4, 4, 46, 5, 0, 50, 5, 5, 50, 4, 0, 51, 5, 3, 54, 3, 2, 58, 5, 5, 62, 5, 0, 62, 0, 2, 68, 4, 2, 69, 4, 0, 70, 1, 3, 72, 0, 3, 73, 0, 5, 73, 1, 0, 77, 1, 0, 80, 5, 3, 86, 3, 3, 88, 5, 5, 88, 3, 0, 90, 5, 2, 91, 5, 2, 92, 2, 1, 92, 1, 4, 92, 3, 0, 93, 3, 0, 95, 2, 1, 99, 3, 2, 106, 1, 1, 108, 2, 2, 109, 5, 5, 113, 0, 2, 115, 2, 5, 119, 5, 0, 120, 2, 0, 120, 1, 4, 124, 5, 1, 124, 4, 5, 130, 3, 3, 133, 0, 0, 133, 1, 3, 135, 1, 4, 136, 2, 4, 137, 1, 3, 140, 0, 3, 142, 5, 2, 143, 2, 2, 144, 3, 2, 144, 4, 0, 146, 5, 2, 159, 4, 0, 159, 3, 5, 164, 4, 2, 170, 2, 3, 172, 4, 0, 174, 5, 3, 177, 1, 5, 179, 3, 0, 179, 5, 3, 181, 3, 0, 183, 3, 0, 184, 0, 2, 184, 2, 1, 186, 0, 0, 191, 0, 0, 200, 2, 3, 203, 3, 4, 207, 4, 2, 208, 0, 3, 209, 4, 5, 210, 4, 5, 213, 2, 0, 227, 5, 1, 231, 5, 2, 232, 4, 0]);
