n_res = 4;
rc = [ 20, 21, 18, 21 ];
n_tasks = 92;
d = [0, 1, 10, 8, 7, 10, 3, 2, 1, 2, 10, 6, 7, 8, 5, 8, 10, 9, 2, 1, 6, 4, 2, 10, 5, 10, 7, 9, 2, 3, 8, 8, 7, 9, 2, 4, 4, 5, 1, 3, 7, 4, 5, 5, 3, 8, 1, 5, 7, 4, 3, 10, 3, 2, 9, 6, 10, 10, 7, 3, 5, 2, 3, 5, 2, 2, 4, 6, 5, 3, 6, 9, 9, 5, 4, 2, 5, 4, 3, 2, 10, 1, 10, 2, 8, 10, 5, 7, 2, 2, 5, 0];
rr = array2d(1..4, 1..92, [0, 5, 0, 2, 3, 1, 7, 10, 2, 10, 6, 0, 0, 1, 0, 0, 0, 6, 0, 2, 2, 10, 9, 9, 3, 10, 8, 3, 3, 7, 0, 7, 0, 4, 9, 4, 3, 8, 7, 8, 0, 1, 0, 7, 6, 8, 5, 0, 6, 8, 1, 0, 0, 0, 2, 4, 0, 0, 6, 1, 5, 7, 3, 1, 2, 7, 8, 8, 0, 0, 4, 2, 10, 5, 3, 10, 0, 8, 3, 0, 0, 3, 7, 6, 5, 1, 2, 8, 10, 0, 0, 0, 0, 4, 0, 7, 0, 0, 0, 8, 8, 7, 0, 9, 0, 8, 10, 2, 7, 1, 9, 7, 2, 0, 0, 6, 5, 6, 0, 5, 5, 8, 8, 9, 0, 9, 1, 8, 3, 0, 2, 1, 6, 1, 2, 5, 10, 5, 7, 3, 10, 4, 4, 9, 0, 6, 2, 0, 8, 6, 4, 0, 5, 10, 4, 0, 8, 10, 2, 0, 0, 2, 9, 0, 6, 6, 8, 3, 2, 4, 5, 5, 0, 10, 3, 8, 0, 7, 0, 3, 5, 3, 1, 0, 0, 5, 5, 9, 2, 1, 3, 0, 8, 0, 9, 8, 8, 5, 0, 1, 6, 0, 7, 4, 5, 7, 4, 6, 0, 8, 8, 8, 10, 9, 4, 1, 0, 3, 0, 2, 0, 8, 7, 4, 0, 10, 8, 8, 5, 5, 1, 0, 0, 1, 0, 4, 1, 5, 3, 0, 0, 0, 1, 9, 7, 1, 0, 1, 0, 10, 1, 0, 8, 1, 1, 0, 10, 0, 0, 7, 10, 0, 2, 4, 10, 5, 4, 8, 0, 0, 0, 7, 0, 10, 7, 0, 0, 4, 0, 0, 0, 2, 3, 1, 1, 4, 2, 4, 4, 9, 9, 2, 3, 8, 9, 0, 5, 3, 0, 10, 0, 2, 1, 6, 5, 3, 6, 8, 10, 4, 6, 0, 0, 7, 10, 6, 10, 7, 2, 0, 2, 1, 0, 9, 1, 2, 6, 5, 0, 6, 10, 8, 8, 0, 5, 3, 0, 10, 6, 1, 2, 0, 0, 7, 7, 2, 5, 3, 10, 10, 7, 3, 0, 0, 4, 2, 6, 4, 6, 8, 6, 9, 6, 8, 4, 8, 0, 0]);

suc = [
   {2, 3, 4},
   {11, 6, 39},
   {8, 9, 41},
   {24, 5},
   {90, 13},
   {31, 21, 7},
   {10, 14, 30},
   {33, 19, 15},
   {12, 37, 38},
   {20},
   {16, 28, 68},
   {32, 17, 65},
   {46, 22, 79},
   {35, 20},
   {18, 51, 46},
   {50, 22, 23},
   {40, 52},
   {34, 38, 63},
   {75, 71, 23},
   {64, 62},
   {25, 44},
   {67, 47},
   {40, 27, 54},
   {26, 34, 53},
   {76},
   {41, 28, 44},
   {48},
   {56, 43, 29},
   {73, 37, 79},
   {42},
   {42, 36, 44},
   {75, 79},
   {35},
   {67, 55},
   {81, 55},
   {46},
   {77, 54},
   {80, 47},
   {82},
   {45},
   {50, 60},
   {83},
   {49, 62},
   {56, 71},
   {61, 78},
   {73, 66},
   {78},
   {65},
   {80, 57, 60},
   {65, 58, 59},
   {71},
   {59},
   {61},
   {84, 61},
   {68},
   {69},
   {82, 70, 63},
   {70},
   {81},
   {67},
   {81},
   {89},
   {74, 84},
   {86},
   {74},
   {83, 77},
   {85},
   {90, 87},
   {72, 75},
   {73},
   {72},
   {74, 76},
   {91, 76},
   {77, 86},
   {82, 83},
   {78},
   {91},
   {85, 87},
   {80, 91},
   {88},
   {89},
   {84},
   {85},
   {86, 87},
   {88},
   {90},
   {88},
   {89},
   {92},
   {92},
   {92},
   {  } ];

deadline = array2d(1..92, 1..3, [2, 4, 0, 2, 2, 1, 4, 5, 5, 8, 0, 3, 16, 2, 4, 20, 2, 5, 25, 1, 4, 29, 5, 2, 31, 0, 4, 32, 3, 0, 32, 2, 1, 36, 3, 1, 38, 2, 5, 44, 4, 2, 48, 2, 0, 48, 1, 2, 49, 3, 2, 49, 0, 4, 52, 3, 1, 52, 5, 5, 52, 5, 4, 53, 2, 4, 54, 4, 3, 55, 1, 3, 56, 2, 5, 58, 3, 2, 58, 0, 0, 59, 3, 2, 59, 3, 1, 60, 4, 1, 60, 4, 0, 61, 3, 0, 64, 4, 2, 66, 4, 5, 66, 3, 1, 69, 4, 1, 70, 5, 2, 70, 0, 5, 70, 3, 4, 75, 4, 3, 78, 4, 5, 87, 2, 2, 87, 0, 3, 89, 4, 0, 90, 2, 0, 91, 1, 1, 100, 3, 2, 101, 4, 0, 111, 0, 4, 111, 0, 2, 112, 1, 2, 112, 4, 2, 121, 0, 4, 122, 2, 0, 126, 5, 0, 127, 2, 1, 128, 1, 2, 129, 1, 4, 131, 5, 5, 131, 0, 1, 142, 4, 3, 152, 0, 0, 158, 1, 4, 163, 3, 5, 166, 5, 5, 166, 3, 5, 167, 1, 4, 167, 2, 3, 168, 1, 1, 168, 3, 3, 174, 4, 0, 176, 4, 5, 176, 1, 5, 179, 5, 0, 182, 2, 1, 184, 2, 1, 186, 2, 2, 191, 1, 3, 192, 4, 5, 198, 1, 2, 201, 0, 4, 207, 3, 1, 210, 1, 0, 211, 2, 1, 223, 0, 3, 224, 1, 0, 225, 1, 0, 226, 2, 1, 230, 1, 5, 234, 4, 0, 234, 2, 3, 235, 2, 1]);
