n_res = 4;
rc = [ 32, 31, 34, 27 ];
n_tasks = 92;
d = [0, 5, 4, 6, 1, 6, 7, 2, 8, 7, 5, 3, 6, 8, 9, 6, 8, 9, 5, 3, 3, 10, 10, 8, 8, 6, 3, 10, 9, 3, 6, 3, 7, 6, 9, 10, 2, 1, 10, 7, 10, 3, 7, 3, 1, 5, 8, 7, 5, 9, 1, 5, 1, 9, 1, 3, 8, 5, 1, 4, 7, 10, 6, 2, 4, 9, 8, 5, 1, 5, 6, 5, 6, 9, 10, 3, 4, 7, 10, 8, 6, 4, 1, 8, 3, 2, 1, 9, 8, 6, 2, 0];
rr = array2d(1..4, 1..92, [0, 0, 0, 0, 0, 0, 1, 0, 0, 3, 5, 0, 8, 1, 5, 7, 0, 2, 0, 2, 0, 0, 5, 7, 5, 0, 0, 0, 0, 6, 0, 6, 0, 6, 3, 5, 9, 9, 0, 0, 0, 10, 7, 0, 0, 0, 0, 10, 6, 4, 0, 0, 4, 7, 8, 0, 2, 0, 0, 5, 0, 0, 0, 8, 0, 7, 9, 7, 0, 9, 7, 0, 1, 4, 7, 0, 7, 10, 0, 0, 1, 0, 8, 7, 8, 0, 0, 0, 0, 0, 0, 0, 0, 0, 0, 2, 0, 9, 0, 0, 10, 3, 0, 0, 0, 7, 7, 9, 10, 5, 9, 0, 7, 0, 0, 0, 1, 4, 5, 4, 0, 0, 6, 0, 7, 0, 0, 1, 2, 6, 5, 6, 0, 0, 0, 9, 3, 0, 0, 10, 7, 7, 7, 8, 7, 0, 10, 0, 0, 0, 0, 4, 4, 0, 0, 0, 9, 0, 0, 0, 2, 0, 7, 0, 1, 0, 10, 10, 0, 0, 7, 6, 0, 0, 7, 8, 10, 4, 0, 8, 8, 9, 0, 0, 0, 9, 9, 0, 0, 0, 0, 0, 0, 0, 0, 10, 7, 1, 6, 0, 10, 0, 0, 0, 0, 10, 2, 6, 0, 2, 5, 8, 0, 0, 0, 2, 7, 0, 0, 8, 3, 7, 0, 0, 10, 10, 6, 2, 0, 3, 5, 0, 0, 7, 2, 0, 0, 0, 0, 4, 0, 10, 9, 10, 0, 10, 7, 7, 9, 0, 9, 6, 10, 0, 0, 7, 6, 0, 0, 10, 0, 10, 0, 1, 0, 0, 0, 0, 0, 1, 0, 8, 9, 2, 0, 0, 0, 0, 0, 3, 10, 5, 10, 10, 0, 0, 1, 4, 0, 0, 7, 6, 0, 0, 9, 0, 0, 10, 10, 5, 0, 0, 6, 0, 1, 0, 1, 6, 0, 0, 0, 9, 3, 0, 10, 0, 0, 1, 9, 0, 0, 5, 0, 2, 0, 3, 6, 0, 0, 8, 0, 8, 0, 6, 0, 0, 0, 6, 0, 0, 7, 0, 0, 0, 1, 2, 3, 10, 4, 0, 10, 0, 0, 0, 0, 9, 0, 9, 0, 5, 0, 0, 3, 0, 2, 0, 3, 0]);

suc = [
   {2, 3, 4},
   {9, 13, 14},
   {41, 42, 5},
   {8, 10, 6},
   {19, 12, 7},
   {88, 18, 20},
   {17, 59},
   {67, 31},
   {11, 61, 30},
   {16, 23},
   {47, 45, 15},
   {21},
   {69},
   {32, 89, 35},
   {37},
   {25, 27, 53},
   {40, 38},
   {44, 29, 68},
   {24},
   {45},
   {22},
   {33, 26},
   {55},
   {56},
   {39},
   {36, 46},
   {74, 28, 70},
   {32},
   {69},
   {52, 39},
   {74},
   {34, 54},
   {55},
   {62},
   {49},
   {37},
   {81, 57},
   {69},
   {48, 75},
   {51},
   {65, 51, 43},
   {64},
   {50},
   {58, 77},
   {49},
   {86},
   {55},
   {56},
   {57},
   {64},
   {75},
   {63},
   {87},
   {80, 61},
   {73},
   {60},
   {66},
   {81, 79},
   {78},
   {78},
   {72, 62},
   {65, 84},
   {66, 71},
   {82, 78},
   {91},
   {79},
   {70},
   {83},
   {82},
   {76},
   {73, 79},
   {83},
   {76},
   {83, 84},
   {88},
   {77},
   {91},
   {88},
   {87},
   {81},
   {91, 85},
   {84, 85},
   {85},
   {90},
   {86},
   {87},
   {90},
   {90},
   {92},
   {92},
   {92},
   {  } ];

deadline = array2d(1..92, 1..3, [4, 1, 1, 4, 3, 3, 8, 5, 0, 10, 2, 4, 12, 1, 2, 14, 1, 5, 16, 1, 5, 17, 0, 5, 19, 5, 1, 23, 0, 5, 27, 0, 2, 29, 2, 3, 30, 5, 1, 32, 0, 0, 33, 2, 4, 39, 2, 2, 44, 3, 2, 46, 0, 1, 47, 5, 3, 47, 2, 2, 53, 1, 5, 54, 2, 5, 55, 0, 2, 56, 1, 0, 56, 4, 5, 57, 4, 5, 59, 5, 0, 65, 2, 3, 66, 3, 0, 66, 1, 0, 67, 2, 0, 71, 3, 5, 73, 2, 0, 74, 2, 0, 77, 4, 1, 79, 3, 3, 82, 0, 1, 85, 1, 4, 88, 3, 5, 90, 4, 4, 91, 4, 0, 94, 2, 5, 95, 0, 5, 106, 0, 3, 106, 5, 4, 106, 1, 5, 108, 0, 0, 111, 3, 1, 111, 3, 1, 113, 5, 1, 114, 3, 1, 119, 4, 2, 119, 1, 4, 127, 5, 0, 127, 4, 5, 128, 5, 4, 129, 2, 4, 130, 2, 3, 130, 2, 1, 130, 2, 2, 139, 1, 5, 141, 0, 0, 142, 5, 2, 142, 0, 4, 143, 1, 4, 146, 1, 1, 147, 3, 3, 154, 5, 0, 162, 2, 0, 162, 3, 0, 162, 3, 1, 166, 5, 0, 167, 3, 2, 169, 4, 3, 171, 2, 1, 171, 5, 0, 172, 2, 3, 173, 3, 3, 175, 3, 5, 175, 4, 3, 176, 1, 1, 176, 4, 1, 178, 3, 5, 178, 1, 2, 179, 1, 4, 179, 3, 2, 180, 2, 2, 181, 0, 3, 182, 3, 5, 183, 1, 4, 184, 1, 3, 184, 4, 4]);
