n_res = 4;
rc = [ 88, 79, 75, 63 ];
n_tasks = 92;
d = [0, 2, 2, 10, 1, 2, 8, 6, 10, 8, 1, 10, 7, 8, 10, 1, 3, 6, 1, 10, 4, 3, 3, 10, 5, 7, 8, 8, 2, 1, 10, 1, 2, 3, 6, 2, 4, 5, 6, 2, 9, 3, 10, 9, 10, 4, 8, 10, 8, 3, 9, 1, 3, 2, 6, 1, 1, 4, 9, 10, 7, 10, 5, 5, 7, 4, 3, 8, 3, 8, 10, 10, 4, 3, 7, 10, 5, 5, 7, 5, 10, 8, 8, 9, 2, 7, 2, 2, 4, 1, 6, 0];
rr = array2d(1..4, 1..92, [0, 7, 0, 0, 4, 3, 0, 4, 3, 10, 4, 1, 4, 6, 2, 7, 0, 8, 4, 3, 8, 2, 9, 0, 8, 5, 0, 4, 7, 4, 4, 1, 7, 7, 6, 9, 2, 0, 7, 9, 1, 0, 0, 10, 9, 9, 7, 9, 0, 0, 7, 7, 0, 9, 6, 0, 4, 5, 0, 5, 1, 3, 0, 6, 8, 0, 4, 4, 9, 0, 7, 10, 0, 1, 0, 8, 8, 4, 4, 7, 0, 7, 9, 0, 0, 1, 5, 1, 8, 5, 7, 0, 0, 5, 5, 0, 0, 7, 0, 0, 8, 6, 6, 10, 8, 0, 4, 4, 6, 2, 0, 5, 6, 0, 8, 0, 10, 2, 10, 0, 4, 8, 3, 0, 9, 0, 5, 10, 2, 2, 6, 9, 0, 8, 5, 2, 6, 10, 8, 7, 8, 4, 8, 8, 2, 8, 6, 3, 3, 0, 8, 10, 3, 4, 0, 3, 0, 0, 0, 5, 5, 5, 9, 9, 5, 0, 0, 4, 0, 3, 1, 5, 7, 2, 10, 0, 2, 9, 3, 0, 7, 0, 0, 0, 0, 3, 9, 9, 3, 7, 5, 5, 1, 2, 3, 1, 0, 2, 4, 3, 10, 0, 10, 0, 7, 6, 2, 6, 0, 6, 0, 9, 4, 0, 10, 10, 0, 3, 10, 9, 3, 8, 0, 2, 8, 0, 5, 5, 6, 0, 10, 9, 5, 5, 4, 4, 0, 0, 5, 7, 7, 2, 1, 2, 2, 3, 2, 5, 5, 10, 8, 2, 0, 0, 0, 0, 7, 0, 3, 2, 4, 0, 5, 6, 1, 4, 0, 5, 8, 0, 0, 0, 7, 1, 3, 0, 0, 4, 0, 4, 0, 4, 3, 0, 5, 0, 5, 0, 0, 1, 3, 4, 1, 0, 2, 5, 5, 4, 10, 10, 3, 6, 8, 0, 0, 1, 1, 0, 1, 10, 6, 8, 0, 3, 0, 6, 5, 4, 8, 6, 2, 2, 0, 0, 4, 1, 3, 1, 0, 3, 6, 2, 4, 0, 0, 4, 2, 4, 4, 6, 7, 0, 0, 0, 5, 2, 9, 0, 3, 7, 5, 4, 4, 9, 9, 7, 1, 10, 6, 1, 3, 4, 3, 6, 3, 7, 6, 0]);

suc = [
   {2, 3, 4},
   {28, 5, 84},
   {10, 12, 7},
   {20, 13, 6},
   {18, 26, 70},
   {23, 68, 15},
   {8, 19, 22},
   {9},
   {11},
   {24, 25},
   {49, 26, 36},
   {72, 14, 47},
   {52},
   {68},
   {16, 38},
   {17},
   {25},
   {27, 46},
   {33, 37, 41},
   {43, 21},
   {51, 45, 30},
   {75},
   {32, 57},
   {64, 34, 35},
   {61},
   {29},
   {53},
   {44},
   {89, 76},
   {40, 77, 31},
   {54},
   {55},
   {48, 50},
   {50, 90},
   {58},
   {39},
   {88, 43, 87},
   {82},
   {83},
   {59},
   {65, 42},
   {60},
   {91, 46},
   {74},
   {49},
   {64},
   {56},
   {73, 54},
   {78},
   {85},
   {64},
   {66, 67},
   {69},
   {63},
   {81, 61, 62},
   {81},
   {65, 70},
   {60, 85},
   {62},
   {62},
   {86},
   {70},
   {81},
   {66},
   {72, 77},
   {79},
   {78},
   {69},
   {85, 71},
   {76},
   {78},
   {83},
   {77},
   {87, 79},
   {80},
   {80},
   {79},
   {91},
   {89},
   {86},
   {90},
   {83},
   {86},
   {91},
   {88},
   {87},
   {90},
   {89},
   {92},
   {92},
   {92},
   {  } ];

deadline = array2d(1..92, 1..3, [2, 5, 1, 3, 4, 4, 3, 3, 5, 5, 5, 0, 7, 4, 2, 8, 1, 1, 10, 1, 0, 12, 0, 0, 13, 3, 5, 14, 0, 3, 21, 3, 2, 21, 4, 3, 26, 2, 0, 26, 1, 5, 31, 3, 0, 32, 2, 0, 33, 3, 1, 35, 4, 0, 39, 3, 0, 39, 0, 3, 41, 4, 4, 41, 4, 3, 42, 0, 0, 44, 3, 5, 45, 2, 2, 48, 4, 2, 50, 0, 2, 54, 3, 0, 56, 3, 2, 58, 1, 4, 64, 4, 3, 67, 3, 5, 69, 2, 3, 70, 1, 1, 73, 0, 0, 73, 4, 5, 73, 3, 2, 80, 5, 3, 85, 3, 5, 86, 1, 1, 88, 2, 5, 90, 1, 0, 91, 0, 3, 92, 5, 0, 93, 2, 2, 95, 0, 5, 98, 3, 2, 99, 5, 3, 100, 4, 1, 102, 1, 1, 108, 3, 2, 109, 3, 2, 111, 4, 1, 112, 4, 4, 114, 3, 0, 123, 0, 0, 124, 1, 0, 124, 5, 4, 124, 5, 2, 126, 2, 2, 127, 1, 2, 129, 4, 1, 135, 5, 0, 136, 2, 0, 140, 0, 1, 141, 0, 3, 141, 1, 1, 142, 0, 2, 146, 1, 0, 148, 1, 0, 156, 4, 5, 160, 3, 0, 161, 4, 3, 161, 1, 4, 165, 2, 2, 167, 1, 0, 176, 2, 0, 179, 3, 3, 179, 4, 2, 186, 4, 1, 187, 5, 1, 191, 1, 3, 192, 0, 5, 192, 0, 4, 193, 2, 1, 193, 3, 2, 194, 2, 0, 195, 3, 2, 198, 3, 1, 199, 2, 1, 200, 4, 2, 207, 1, 2]);
