n_res = 4;
rc = [ 34, 26, 35, 15 ];
n_tasks = 92;
d = [0, 2, 6, 3, 4, 1, 10, 1, 4, 8, 5, 3, 7, 2, 5, 1, 4, 7, 3, 3, 2, 8, 5, 2, 7, 6, 9, 9, 4, 5, 8, 10, 5, 8, 9, 5, 7, 9, 9, 1, 2, 3, 1, 1, 5, 10, 5, 6, 5, 7, 9, 5, 10, 6, 5, 4, 9, 3, 1, 7, 1, 1, 9, 7, 1, 9, 8, 4, 3, 4, 9, 8, 2, 5, 1, 7, 8, 9, 3, 10, 3, 9, 5, 5, 4, 10, 2, 1, 2, 2, 2, 0];
rr = array2d(1..4, 1..92, [0, 0, 0, 0, 5, 0, 0, 0, 0, 0, 0, 0, 4, 0, 0, 0, 0, 0, 0, 1, 8, 0, 0, 2, 0, 2, 6, 0, 5, 0, 0, 8, 0, 1, 0, 0, 0, 5, 8, 0, 0, 3, 0, 3, 0, 4, 0, 0, 0, 10, 5, 0, 0, 0, 0, 0, 0, 0, 0, 0, 0, 0, 0, 0, 0, 0, 0, 0, 0, 0, 9, 1, 0, 0, 1, 6, 0, 0, 0, 0, 0, 0, 0, 9, 0, 0, 0, 4, 0, 8, 0, 0, 0, 9, 0, 8, 0, 4, 6, 5, 5, 0, 0, 0, 0, 1, 0, 1, 10, 0, 2, 0, 0, 0, 5, 0, 0, 0, 0, 0, 0, 2, 0, 0, 8, 0, 1, 0, 3, 0, 0, 0, 7, 0, 8, 0, 2, 0, 2, 0, 0, 0, 0, 0, 0, 0, 5, 10, 0, 0, 0, 0, 0, 1, 0, 0, 0, 10, 5, 0, 0, 0, 0, 0, 0, 0, 0, 0, 0, 0, 0, 0, 0, 0, 6, 0, 0, 0, 1, 0, 0, 0, 0, 0, 0, 0, 0, 0, 0, 0, 0, 0, 0, 1, 3, 9, 0, 0, 4, 0, 0, 0, 0, 0, 0, 4, 0, 0, 0, 0, 0, 10, 0, 0, 0, 0, 0, 0, 0, 0, 0, 0, 0, 0, 0, 0, 0, 0, 0, 0, 0, 0, 7, 0, 0, 8, 0, 0, 0, 0, 9, 9, 4, 0, 0, 0, 2, 4, 0, 0, 0, 10, 7, 10, 0, 0, 0, 5, 0, 0, 0, 4, 0, 0, 3, 10, 0, 0, 5, 9, 0, 0, 0, 0, 6, 0, 0, 0, 7, 0, 0, 0, 0, 0, 0, 0, 0, 0, 0, 0, 0, 0, 0, 5, 0, 0, 0, 0, 0, 0, 1, 0, 0, 0, 0, 0, 6, 0, 0, 0, 0, 4, 0, 0, 0, 6, 0, 0, 0, 0, 0, 0, 0, 1, 0, 0, 0, 0, 8, 5, 0, 0, 0, 0, 0, 1, 6, 0, 0, 0, 4, 0, 0, 0, 0, 0, 0, 0, 7, 0, 0, 0, 2, 0, 1, 2, 0, 0, 0, 0, 0, 0, 0, 0, 7, 0, 0, 0]);

suc = [
   {2, 3, 4},
   {48, 9, 58},
   {17, 5, 6},
   {26, 13, 7},
   {42, 12, 31},
   {8, 30, 23},
   {68, 38, 39},
   {10, 11, 15},
   {16, 19, 22},
   {38, 37, 14},
   {50, 35, 70},
   {49, 37, 47},
   {27, 20},
   {51, 21, 39},
   {25, 28, 60},
   {40, 65, 18},
   {35, 62},
   {24, 51, 21},
   {38},
   {22, 23},
   {25, 91, 29},
   {32, 44, 78},
   {36, 71, 55},
   {57, 27, 60},
   {80, 54, 31},
   {33, 51, 53},
   {32, 43, 44},
   {40, 34, 45},
   {32, 67, 53},
   {81, 41, 82},
   {73, 69},
   {55},
   {49, 42, 71},
   {54, 47},
   {76},
   {65, 58, 52},
   {76, 63, 39},
   {74, 61, 46},
   {81, 57},
   {69},
   {64, 50, 90},
   {66, 45},
   {56, 75, 52},
   {61, 85, 45},
   {75, 52},
   {49, 78, 86},
   {56, 64, 69},
   {73, 65, 55},
   {88},
   {67, 59, 78},
   {74},
   {73, 54, 63},
   {56, 59},
   {62},
   {59},
   {66, 68, 62},
   {82, 83, 79},
   {88, 66, 86},
   {80},
   {67, 61},
   {75, 63},
   {72, 70},
   {64, 83, 72},
   {79},
   {83, 77},
   {76},
   {68},
   {74, 71},
   {72, 70},
   {79},
   {85},
   {87},
   {87},
   {77},
   {81, 82},
   {77, 87},
   {80},
   {84},
   {89},
   {85},
   {90},
   {84},
   {84, 86},
   {88, 89},
   {89},
   {91},
   {90},
   {91},
   {92},
   {92},
   {92},
   {  } ];

deadline = array2d(1..92, 1..3, [2, 3, 3, 2, 1, 5, 2, 2, 0, 3, 2, 0, 5, 3, 1, 10, 0, 1, 13, 0, 0, 14, 5, 3, 14, 1, 0, 18, 0, 0, 19, 0, 5, 22, 2, 1, 28, 4, 0, 28, 2, 2, 29, 5, 2, 37, 0, 2, 39, 4, 5, 39, 3, 0, 44, 3, 2, 46, 2, 2, 54, 5, 3, 55, 1, 2, 55, 0, 3, 56, 5, 0, 56, 2, 4, 57, 3, 4, 57, 2, 3, 58, 2, 4, 59, 1, 1, 65, 5, 0, 67, 0, 3, 68, 3, 0, 70, 1, 1, 85, 3, 2, 87, 4, 5, 89, 1, 4, 94, 3, 0, 95, 0, 2, 95, 0, 1, 99, 5, 0, 102, 1, 2, 102, 1, 5, 104, 2, 2, 108, 2, 1, 109, 0, 2, 112, 2, 0, 114, 0, 0, 116, 4, 4, 119, 2, 0, 120, 3, 1, 120, 5, 2, 121, 3, 0, 124, 1, 3, 126, 0, 3, 127, 0, 3, 127, 0, 2, 127, 5, 5, 129, 5, 4, 131, 4, 4, 135, 2, 1, 135, 3, 2, 138, 3, 2, 139, 4, 3, 139, 5, 0, 139, 2, 0, 141, 1, 1, 144, 2, 1, 147, 2, 3, 147, 2, 0, 150, 0, 4, 153, 1, 5, 153, 3, 4, 153, 5, 5, 157, 4, 2, 158, 3, 3, 162, 4, 4, 163, 2, 0, 166, 1, 1, 167, 2, 2, 168, 1, 5, 173, 2, 1, 175, 3, 2, 178, 1, 4, 181, 2, 3, 181, 0, 0, 183, 3, 1, 183, 2, 5, 185, 3, 3, 189, 3, 5, 192, 3, 0, 193, 3, 4, 195, 4, 3]);
