n_res = 4;
rc = [ 34, 21, 26, 33 ];
n_tasks = 92;
d = [0, 10, 1, 10, 2, 8, 5, 8, 6, 5, 9, 3, 8, 1, 9, 2, 2, 5, 7, 5, 2, 8, 10, 10, 5, 2, 8, 7, 9, 9, 10, 6, 5, 4, 3, 8, 4, 6, 6, 4, 1, 3, 9, 5, 9, 10, 2, 5, 6, 3, 5, 6, 10, 7, 3, 3, 2, 4, 6, 4, 6, 10, 10, 6, 2, 3, 6, 7, 2, 5, 1, 1, 5, 2, 5, 5, 3, 4, 10, 9, 1, 10, 9, 3, 9, 5, 1, 2, 9, 1, 10, 0];
rr = array2d(1..4, 1..92, [0, 7, 4, 10, 10, 1, 0, 9, 4, 0, 4, 5, 0, 0, 9, 0, 10, 0, 9, 0, 0, 0, 2, 1, 0, 9, 6, 0, 3, 0, 7, 5, 0, 7, 10, 7, 5, 0, 0, 0, 0, 9, 5, 2, 0, 8, 0, 0, 0, 1, 10, 5, 3, 0, 6, 0, 1, 0, 0, 0, 2, 1, 0, 1, 3, 0, 5, 0, 3, 10, 0, 0, 6, 6, 0, 0, 0, 0, 9, 0, 8, 0, 0, 7, 0, 1, 4, 1, 10, 8, 9, 0, 0, 0, 10, 0, 2, 3, 0, 9, 5, 0, 0, 7, 0, 0, 0, 0, 0, 0, 10, 8, 1, 0, 0, 0, 3, 5, 0, 2, 0, 1, 0, 0, 2, 0, 0, 1, 0, 0, 8, 6, 0, 0, 0, 5, 3, 1, 1, 0, 5, 0, 0, 7, 0, 0, 0, 1, 0, 7, 9, 4, 0, 2, 0, 7, 9, 7, 0, 9, 0, 4, 6, 0, 0, 0, 2, 0, 0, 0, 0, 0, 1, 0, 0, 0, 2, 0, 5, 0, 0, 6, 6, 0, 0, 0, 0, 0, 0, 0, 4, 0, 0, 5, 0, 5, 1, 10, 8, 7, 0, 0, 7, 9, 0, 0, 1, 0, 4, 5, 0, 0, 4, 0, 0, 0, 0, 4, 7, 7, 6, 2, 4, 0, 0, 0, 0, 0, 0, 0, 2, 1, 0, 7, 3, 0, 7, 5, 1, 0, 8, 6, 8, 3, 0, 0, 4, 3, 8, 10, 0, 0, 2, 6, 0, 6, 4, 2, 6, 0, 6, 6, 6, 3, 0, 10, 0, 10, 6, 10, 0, 0, 7, 0, 0, 0, 0, 6, 0, 0, 9, 0, 3, 0, 3, 0, 0, 0, 5, 0, 0, 10, 10, 2, 0, 6, 8, 1, 0, 7, 5, 0, 3, 9, 0, 9, 4, 9, 9, 0, 7, 0, 0, 10, 8, 1, 3, 0, 10, 4, 0, 0, 0, 0, 10, 0, 0, 7, 0, 0, 0, 0, 0, 2, 4, 4, 0, 0, 0, 0, 0, 0, 0, 0, 0, 0, 0, 0, 7, 0, 9, 5, 0, 8, 0, 0, 9, 8, 10, 0, 0, 9, 0, 0, 8, 7, 0, 0]);

suc = [
   {2, 3, 4},
   {5, 6, 31},
   {35, 12, 7},
   {8, 34, 35},
   {40, 10, 43},
   {17, 18, 13},
   {34, 14},
   {9, 11, 12},
   {48, 56, 58},
   {28, 21},
   {81, 27, 15},
   {65, 57, 75},
   {52, 61, 54},
   {16, 24, 20},
   {72, 58},
   {91, 52, 22},
   {33, 51, 71},
   {48, 66, 19},
   {30},
   {32, 26, 23},
   {51, 29, 86},
   {32, 42, 46},
   {40, 42, 71},
   {25, 36, 47},
   {70, 50, 46},
   {59, 27, 37},
   {69},
   {72, 65, 36},
   {41, 44, 60},
   {60, 78, 55},
   {73, 76, 38},
   {67, 38},
   {49, 35, 47},
   {45, 55},
   {64, 41, 76},
   {66, 67, 54},
   {50, 43, 39},
   {66, 43, 39},
   {51, 47},
   {57, 50},
   {80, 84, 85},
   {64},
   {89, 77},
   {53, 45, 70},
   {48, 49, 73},
   {68},
   {56, 65, 70},
   {68, 63},
   {57},
   {60, 53},
   {56, 79},
   {75, 67, 69},
   {78, 55},
   {81, 58, 69},
   {61, 62},
   {82, 68},
   {59, 63},
   {90, 59},
   {85},
   {73, 61, 62},
   {83, 76},
   {80, 63},
   {64, 72},
   {79},
   {84, 86},
   {74, 83},
   {77, 87},
   {80, 78},
   {86, 71},
   {89, 82},
   {74},
   {91},
   {74, 75},
   {82},
   {77},
   {81, 90},
   {79},
   {83},
   {88},
   {88},
   {85},
   {84},
   {87},
   {87},
   {91},
   {89},
   {88},
   {90},
   {92},
   {92},
   {92},
   {  } ];

deadline = array2d(1..92, 1..3, [7, 4, 2, 7, 4, 0, 9, 5, 5, 18, 3, 4, 23, 2, 3, 23, 2, 4, 24, 2, 0, 30, 2, 3, 31, 1, 3, 32, 3, 2, 34, 1, 4, 37, 3, 5, 41, 0, 0, 41, 0, 3, 43, 5, 3, 46, 5, 1, 49, 2, 3, 54, 3, 0, 54, 4, 1, 55, 2, 4, 58, 5, 5, 61, 4, 4, 66, 3, 3, 68, 4, 4, 69, 0, 1, 69, 1, 4, 72, 2, 3, 72, 5, 2, 75, 3, 0, 77, 4, 4, 79, 2, 5, 80, 1, 4, 81, 0, 1, 82, 3, 2, 82, 2, 0, 82, 0, 1, 87, 1, 3, 94, 3, 0, 95, 0, 5, 96, 4, 1, 96, 3, 2, 104, 2, 2, 105, 3, 1, 108, 4, 4, 109, 3, 0, 109, 0, 2, 113, 5, 4, 115, 5, 5, 117, 1, 0, 119, 1, 4, 120, 5, 0, 121, 4, 1, 122, 2, 1, 128, 3, 0, 129, 1, 4, 136, 3, 5, 138, 4, 5, 139, 5, 4, 141, 0, 4, 143, 1, 1, 143, 5, 4, 144, 1, 4, 144, 3, 5, 146, 3, 3, 148, 0, 4, 148, 3, 3, 152, 0, 5, 157, 5, 0, 158, 5, 4, 159, 3, 3, 159, 5, 3, 163, 3, 1, 165, 1, 3, 167, 4, 3, 170, 3, 3, 171, 5, 2, 171, 2, 0, 171, 5, 3, 172, 0, 4, 176, 2, 3, 177, 5, 2, 181, 2, 2, 182, 1, 0, 183, 5, 5, 185, 1, 5, 194, 0, 0, 195, 1, 5, 199, 5, 0, 205, 3, 3, 206, 5, 5, 207, 3, 3, 209, 0, 2]);
