n_res = 4;
rc = [ 45, 25, 20, 22 ];
n_tasks = 92;
d = [0, 3, 2, 10, 8, 1, 10, 1, 9, 6, 5, 4, 1, 1, 8, 6, 8, 6, 10, 3, 1, 8, 2, 2, 7, 5, 5, 2, 9, 9, 7, 6, 5, 10, 6, 6, 4, 10, 9, 10, 4, 7, 6, 6, 2, 3, 1, 10, 2, 9, 2, 6, 10, 2, 6, 1, 4, 1, 9, 4, 5, 3, 7, 7, 2, 4, 3, 6, 8, 4, 4, 5, 3, 4, 10, 3, 10, 8, 7, 7, 3, 9, 9, 5, 9, 5, 3, 10, 4, 5, 8, 0];
rr = array2d(1..4, 1..92, [0, 7, 9, 0, 10, 0, 0, 0, 0, 1, 0, 0, 10, 0, 0, 0, 0, 0, 0, 0, 0, 0, 0, 0, 7, 10, 1, 0, 0, 8, 0, 0, 0, 0, 0, 4, 7, 0, 0, 9, 10, 0, 0, 0, 0, 0, 0, 4, 0, 10, 7, 0, 0, 0, 3, 1, 0, 0, 10, 5, 0, 8, 0, 0, 0, 0, 0, 0, 0, 0, 0, 0, 8, 0, 7, 0, 0, 0, 5, 0, 6, 0, 0, 0, 0, 9, 0, 0, 8, 6, 0, 0, 0, 0, 0, 2, 0, 0, 0, 0, 8, 0, 0, 2, 0, 0, 0, 0, 0, 7, 0, 0, 0, 6, 0, 0, 0, 0, 0, 0, 0, 0, 4, 5, 2, 4, 7, 0, 0, 0, 0, 0, 0, 10, 0, 5, 0, 0, 0, 0, 8, 0, 0, 0, 0, 0, 0, 0, 0, 0, 0, 0, 0, 0, 0, 0, 0, 0, 0, 0, 0, 0, 0, 6, 0, 0, 0, 0, 7, 2, 0, 0, 0, 8, 0, 6, 0, 0, 0, 0, 0, 0, 0, 0, 0, 0, 0, 0, 0, 0, 8, 0, 0, 0, 6, 0, 0, 0, 0, 0, 0, 0, 2, 0, 0, 0, 0, 0, 0, 0, 0, 1, 2, 0, 0, 0, 0, 0, 0, 0, 0, 3, 8, 0, 0, 0, 9, 0, 0, 0, 0, 0, 0, 0, 0, 0, 0, 5, 0, 0, 0, 0, 0, 0, 0, 0, 0, 4, 0, 7, 7, 3, 7, 0, 2, 0, 0, 0, 0, 0, 0, 0, 0, 6, 0, 0, 0, 0, 0, 0, 0, 4, 0, 0, 8, 0, 0, 0, 0, 0, 0, 3, 0, 2, 0, 0, 0, 0, 0, 7, 1, 2, 3, 0, 0, 5, 9, 0, 7, 3, 0, 0, 0, 0, 0, 0, 0, 0, 0, 0, 0, 0, 0, 0, 0, 0, 0, 0, 0, 0, 9, 5, 10, 0, 0, 0, 0, 2, 8, 0, 0, 0, 8, 8, 0, 0, 10, 0, 6, 0, 10, 0, 0, 0, 0, 5, 0, 0, 0, 1, 0, 6, 0, 0, 0, 0, 0, 0, 8, 0, 7, 0, 2, 0, 0, 0, 0, 0]);

suc = [
   {2, 3, 4},
   {32, 11, 15},
   {5, 6, 14},
   {10, 19, 7},
   {9, 21, 17},
   {8, 71},
   {81, 35, 12},
   {16, 41},
   {23},
   {25, 42, 22},
   {27, 20},
   {13, 47},
   {18},
   {43, 44, 23},
   {79},
   {56, 29},
   {37},
   {36},
   {51},
   {36},
   {40},
   {90},
   {24, 65, 28},
   {48, 26, 39},
   {83, 84, 30},
   {54},
   {49, 61},
   {33},
   {36, 46},
   {50, 38, 31},
   {34},
   {34},
   {91, 54},
   {53},
   {60},
   {49, 70},
   {64},
   {40, 78},
   {52, 45, 60},
   {63},
   {69},
   {72},
   {76},
   {85, 62},
   {50, 53},
   {58, 59, 55},
   {74, 51},
   {56},
   {64, 67, 53},
   {88},
   {87},
   {57},
   {74},
   {68},
   {70},
   {62},
   {70},
   {72},
   {76},
   {64, 62},
   {66, 86, 63},
   {73, 77},
   {81},
   {89},
   {69},
   {68},
   {83},
   {75},
   {75},
   {82},
   {72},
   {80},
   {80},
   {82},
   {76},
   {83},
   {84},
   {79},
   {80},
   {87},
   {87},
   {85},
   {88},
   {90},
   {91},
   {89},
   {89},
   {90},
   {92},
   {92},
   {92},
   {  } ];

deadline = array2d(1..92, 1..3, [3, 3, 5, 16, 1, 3, 17, 1, 4, 17, 5, 1, 17, 4, 3, 22, 5, 3, 24, 2, 2, 24, 5, 2, 24, 0, 5, 30, 5, 0, 31, 3, 2, 31, 4, 2, 32, 2, 4, 32, 2, 0, 33, 5, 5, 41, 2, 4, 47, 3, 4, 47, 1, 4, 47, 2, 0, 48, 1, 4, 49, 5, 0, 53, 5, 5, 54, 3, 0, 56, 4, 3, 57, 2, 2, 60, 5, 3, 62, 0, 1, 63, 2, 5, 68, 1, 2, 72, 1, 3, 74, 5, 3, 77, 5, 0, 80, 2, 2, 82, 5, 2, 91, 4, 4, 93, 3, 1, 93, 2, 1, 96, 0, 4, 97, 4, 4, 99, 2, 4, 102, 0, 1, 108, 3, 2, 109, 5, 3, 111, 0, 2, 111, 5, 4, 113, 5, 5, 118, 3, 2, 118, 4, 2, 120, 5, 3, 126, 4, 3, 128, 5, 2, 131, 3, 2, 136, 4, 2, 140, 1, 1, 141, 4, 1, 151, 1, 4, 153, 1, 0, 153, 4, 5, 153, 3, 2, 159, 1, 2, 160, 2, 3, 162, 1, 0, 164, 1, 0, 167, 5, 0, 167, 4, 4, 169, 4, 2, 170, 0, 0, 171, 1, 2, 174, 4, 2, 175, 0, 2, 177, 5, 1, 180, 2, 5, 181, 1, 5, 183, 3, 3, 189, 5, 0, 193, 0, 0, 193, 0, 5, 194, 3, 3, 201, 3, 2, 203, 1, 1, 203, 0, 5, 206, 5, 0, 208, 2, 0, 211, 4, 4, 212, 1, 1, 213, 2, 1, 213, 5, 0, 215, 5, 4, 218, 5, 0, 221, 5, 3, 221, 3, 4, 222, 2, 3]);
