n_res = 4;
rc = [ 23, 23, 28, 27 ];
n_tasks = 92;
d = [0, 1, 6, 4, 2, 1, 10, 8, 1, 8, 3, 6, 8, 7, 10, 7, 4, 2, 7, 5, 10, 1, 2, 4, 3, 10, 6, 10, 9, 4, 6, 6, 6, 7, 10, 8, 2, 5, 2, 7, 6, 4, 2, 6, 10, 5, 9, 8, 7, 3, 8, 4, 3, 5, 9, 2, 1, 4, 7, 9, 3, 3, 9, 8, 1, 9, 5, 10, 2, 8, 6, 6, 6, 6, 6, 1, 9, 2, 1, 9, 9, 6, 5, 3, 1, 9, 10, 10, 4, 3, 7, 0];
rr = array2d(1..4, 1..92, [0, 0, 0, 0, 0, 0, 0, 3, 0, 0, 0, 0, 0, 0, 0, 0, 5, 8, 4, 4, 0, 0, 0, 0, 0, 0, 0, 0, 6, 0, 0, 0, 10, 0, 0, 6, 0, 0, 0, 0, 0, 0, 0, 0, 0, 6, 6, 0, 0, 8, 0, 7, 0, 0, 3, 1, 0, 0, 0, 0, 0, 0, 0, 0, 0, 0, 0, 0, 0, 0, 4, 0, 1, 0, 0, 0, 0, 0, 0, 0, 0, 0, 0, 0, 0, 0, 0, 5, 4, 0, 0, 0, 0, 10, 0, 0, 0, 0, 2, 0, 4, 0, 0, 0, 0, 3, 8, 0, 0, 0, 0, 0, 4, 3, 3, 2, 0, 0, 0, 5, 0, 0, 2, 0, 0, 0, 0, 0, 4, 0, 3, 0, 0, 7, 0, 0, 0, 0, 0, 0, 7, 0, 0, 0, 0, 5, 0, 0, 0, 0, 10, 0, 0, 3, 0, 0, 0, 0, 0, 1, 0, 0, 0, 5, 0, 0, 3, 0, 0, 9, 0, 0, 0, 0, 0, 4, 0, 10, 0, 0, 0, 0, 0, 0, 0, 0, 7, 0, 9, 0, 0, 0, 0, 0, 4, 0, 0, 0, 0, 0, 0, 0, 0, 0, 0, 0, 0, 0, 2, 0, 0, 0, 0, 7, 0, 0, 0, 0, 0, 0, 0, 0, 0, 0, 0, 0, 0, 7, 1, 0, 0, 1, 0, 0, 10, 0, 0, 0, 0, 0, 0, 0, 0, 4, 0, 0, 7, 2, 0, 5, 0, 0, 0, 9, 0, 0, 0, 0, 0, 0, 4, 0, 8, 9, 9, 10, 9, 0, 0, 0, 7, 0, 0, 0, 0, 0, 0, 0, 0, 6, 0, 6, 0, 0, 0, 7, 0, 8, 2, 0, 0, 4, 0, 0, 0, 0, 0, 0, 0, 0, 0, 9, 5, 0, 0, 0, 0, 1, 0, 4, 8, 0, 0, 10, 0, 4, 5, 0, 10, 0, 0, 0, 0, 0, 0, 0, 0, 0, 10, 0, 0, 0, 4, 1, 0, 0, 1, 0, 0, 0, 3, 0, 10, 0, 9, 0, 0, 0, 0, 4, 0, 2, 0, 0, 0, 0, 0, 0, 0, 0, 2, 0, 0, 0, 0, 4, 4, 0]);

suc = [
   {2, 3, 4},
   {42, 5, 46},
   {48, 6, 23},
   {16, 6, 7},
   {43, 27, 29},
   {64, 19, 14},
   {8, 9, 28},
   {10, 18, 12},
   {25, 11, 13},
   {44, 30},
   {90, 36, 31},
   {73, 59, 68},
   {17, 22, 15},
   {42, 45, 46},
   {24, 49, 35},
   {32, 40, 46},
   {20, 52, 79},
   {57, 51, 39},
   {33, 51, 21},
   {26, 43, 69},
   {81, 66},
   {65, 30},
   {73, 33},
   {83, 75},
   {58, 74, 38},
   {48, 49, 62},
   {83, 35, 62},
   {72, 42},
   {57, 34, 87},
   {33, 63, 39},
   {56, 41},
   {65, 74, 35},
   {43, 36, 37},
   {41, 37, 38},
   {41, 66},
   {74, 82},
   {49, 61},
   {44, 54, 39},
   {52, 45, 47},
   {56, 77, 55},
   {86},
   {50, 68, 47},
   {56, 50, 78},
   {50, 67, 52},
   {69, 61},
   {57, 79},
   {61, 69, 53},
   {64, 60, 63},
   {91, 67},
   {53},
   {65, 58, 53},
   {88, 60},
   {90},
   {64},
   {81, 58},
   {71},
   {72, 60, 70},
   {72, 67, 76},
   {62},
   {85},
   {80},
   {78, 71},
   {77, 71},
   {66, 70},
   {75, 76},
   {68},
   {84},
   {84, 85},
   {75, 70},
   {73, 90},
   {76, 86},
   {82},
   {77},
   {87, 79},
   {80},
   {87},
   {82, 83, 78},
   {80},
   {84},
   {81},
   {85},
   {91},
   {89},
   {86},
   {89, 91},
   {88},
   {88},
   {89},
   {92},
   {92},
   {92},
   {  } ];

deadline = array2d(1..92, 1..3, [2, 3, 0, 2, 5, 0, 3, 0, 2, 3, 1, 3, 6, 1, 5, 8, 1, 1, 8, 1, 4, 26, 2, 1, 32, 3, 0, 46, 0, 4, 49, 3, 5, 53, 4, 5, 56, 4, 0, 59, 5, 4, 62, 4, 1, 63, 1, 1, 63, 2, 5, 64, 5, 4, 68, 3, 1, 69, 0, 3, 74, 3, 5, 76, 4, 2, 89, 2, 1, 91, 4, 2, 95, 2, 2, 100, 5, 0, 102, 4, 5, 103, 0, 4, 104, 3, 1, 107, 2, 0, 108, 1, 2, 109, 3, 4, 111, 1, 5, 112, 0, 3, 113, 0, 1, 117, 2, 5, 123, 5, 1, 125, 2, 2, 125, 1, 1, 126, 3, 5, 129, 1, 0, 138, 2, 1, 138, 5, 3, 139, 2, 0, 140, 4, 0, 144, 5, 3, 145, 5, 5, 147, 3, 2, 148, 2, 1, 149, 0, 2, 153, 5, 2, 159, 0, 0, 164, 0, 4, 171, 2, 5, 174, 3, 3, 179, 2, 0, 186, 0, 1, 187, 5, 2, 190, 2, 3, 196, 3, 3, 198, 0, 1, 200, 1, 4, 201, 2, 2, 206, 1, 3, 208, 1, 2, 209, 2, 5, 210, 2, 4, 212, 0, 4, 213, 4, 3, 216, 1, 1, 216, 3, 4, 217, 4, 5, 220, 2, 4, 222, 1, 5, 225, 2, 1, 226, 0, 0, 226, 3, 3, 229, 0, 1, 234, 3, 1, 243, 1, 3, 244, 0, 3, 244, 2, 0, 244, 5, 0, 246, 5, 4, 249, 4, 1, 258, 1, 5, 260, 4, 4, 267, 0, 5, 267, 3, 0, 268, 5, 3, 269, 0, 5, 271, 5, 5]);
