n_res = 4;
rc = [ 59, 42, 37, 44 ];
n_tasks = 92;
d = [0, 5, 10, 5, 3, 10, 9, 8, 7, 1, 8, 8, 1, 1, 7, 5, 2, 4, 5, 5, 10, 4, 10, 3, 10, 4, 5, 4, 6, 7, 3, 6, 9, 4, 3, 5, 6, 2, 5, 6, 7, 4, 8, 6, 10, 3, 10, 9, 4, 2, 10, 6, 2, 7, 6, 4, 5, 4, 8, 4, 4, 2, 6, 1, 6, 7, 1, 10, 1, 7, 7, 8, 1, 4, 7, 8, 2, 9, 2, 1, 8, 4, 1, 8, 4, 2, 2, 9, 6, 6, 6, 0];
rr = array2d(1..4, 1..92, [0, 6, 5, 3, 10, 5, 2, 5, 0, 2, 2, 5, 3, 7, 4, 0, 7, 0, 0, 8, 5, 0, 5, 7, 9, 2, 9, 3, 6, 8, 1, 2, 10, 0, 1, 9, 10, 10, 4, 0, 4, 7, 5, 2, 8, 5, 6, 0, 2, 10, 10, 3, 0, 0, 0, 0, 10, 0, 5, 0, 10, 3, 4, 3, 5, 3, 10, 8, 3, 0, 8, 0, 6, 8, 0, 7, 10, 9, 0, 5, 4, 7, 2, 4, 0, 9, 4, 10, 8, 10, 8, 0, 0, 3, 0, 6, 1, 0, 5, 10, 7, 0, 9, 0, 10, 4, 7, 9, 1, 6, 2, 0, 1, 0, 1, 0, 3, 9, 8, 5, 2, 6, 6, 0, 3, 5, 3, 2, 0, 9, 10, 9, 10, 10, 10, 6, 3, 9, 9, 4, 2, 4, 6, 2, 2, 0, 9, 0, 1, 1, 5, 3, 6, 1, 5, 0, 2, 4, 4, 8, 0, 10, 7, 1, 6, 4, 7, 9, 6, 4, 0, 2, 2, 5, 1, 1, 1, 4, 5, 6, 6, 0, 0, 0, 0, 5, 1, 1, 4, 0, 1, 7, 4, 3, 0, 8, 0, 7, 1, 10, 0, 0, 6, 0, 0, 9, 0, 0, 6, 6, 0, 0, 3, 0, 4, 7, 0, 9, 0, 6, 0, 7, 5, 0, 2, 0, 4, 0, 1, 9, 0, 8, 4, 1, 8, 2, 0, 3, 10, 0, 8, 9, 3, 0, 7, 0, 4, 8, 6, 0, 0, 9, 0, 3, 10, 0, 9, 0, 10, 10, 6, 10, 0, 10, 0, 8, 0, 8, 9, 6, 7, 9, 4, 0, 10, 0, 0, 3, 0, 6, 0, 7, 1, 0, 9, 0, 4, 2, 1, 7, 10, 0, 1, 4, 8, 1, 0, 5, 3, 9, 0, 4, 0, 8, 6, 9, 10, 5, 4, 3, 4, 3, 6, 6, 10, 4, 4, 3, 5, 9, 0, 3, 3, 6, 6, 5, 4, 10, 1, 4, 4, 5, 9, 8, 0, 6, 0, 0, 0, 0, 8, 2, 2, 6, 5, 8, 0, 0, 1, 0, 0, 10, 6, 6, 10, 0, 0, 0, 4, 10, 2, 0, 2, 2, 3, 3, 5, 0]);

suc = [
   {2, 3, 4},
   {10, 5, 7},
   {74, 85, 29},
   {33, 34},
   {8, 13, 6},
   {24, 14, 22},
   {9, 11, 28},
   {43},
   {72, 85},
   {34, 45, 39},
   {49, 12, 84},
   {41, 15},
   {58, 77, 37},
   {51, 18, 19},
   {16, 26, 23},
   {17, 50, 20},
   {25, 34, 21},
   {66, 27},
   {33, 27},
   {88},
   {75, 29},
   {54, 31},
   {40, 77, 38},
   {32, 90},
   {40, 54},
   {79},
   {48},
   {66, 63},
   {71, 30, 47},
   {78, 54},
   {35, 53, 46},
   {75, 36, 60},
   {64, 44, 68},
   {51, 52, 47},
   {37},
   {52, 37},
   {49, 74, 45},
   {72, 42, 69},
   {48, 57, 62},
   {64, 68},
   {56},
   {76},
   {48, 60},
   {62, 87},
   {73, 84},
   {73},
   {66},
   {65, 71},
   {63},
   {77},
   {65},
   {78},
   {55},
   {55},
   {58, 76},
   {61, 70},
   {59, 68, 70},
   {60},
   {80},
   {65, 67},
   {89, 62},
   {91},
   {64},
   {67},
   {81},
   {79},
   {82},
   {72, 73, 69},
   {78},
   {81, 74},
   {82, 83},
   {80},
   {87},
   {79},
   {88, 81, 83},
   {80, 86},
   {90},
   {86},
   {83},
   {82, 90},
   {89},
   {87},
   {86},
   {85},
   {91},
   {89},
   {88},
   {91},
   {92},
   {92},
   {92},
   {  } ];

deadline = array2d(1..92, 1..3, [1, 1, 5, 2, 3, 2, 11, 2, 1, 19, 5, 0, 22, 4, 1, 22, 0, 2, 24, 5, 2, 25, 0, 2, 29, 4, 4, 30, 4, 2, 34, 3, 4, 36, 2, 2, 41, 2, 1, 42, 1, 3, 45, 0, 1, 45, 3, 4, 46, 2, 3, 48, 3, 5, 49, 4, 3, 51, 0, 1, 59, 2, 3, 63, 0, 3, 64, 4, 3, 69, 0, 2, 69, 1, 2, 80, 1, 0, 85, 0, 3, 86, 3, 0, 87, 4, 1, 87, 5, 2, 87, 3, 0, 89, 4, 1, 94, 5, 5, 98, 5, 2, 108, 3, 1, 110, 4, 0, 110, 2, 3, 113, 3, 2, 114, 2, 1, 117, 4, 3, 118, 4, 3, 120, 2, 0, 120, 3, 5, 122, 1, 5, 123, 1, 5, 124, 3, 5, 130, 1, 4, 134, 4, 3, 135, 3, 2, 135, 4, 1, 141, 3, 5, 145, 0, 4, 146, 1, 5, 150, 1, 1, 158, 0, 3, 159, 4, 0, 161, 1, 0, 163, 3, 4, 166, 0, 3, 166, 0, 0, 167, 5, 2, 169, 5, 4, 170, 5, 3, 171, 2, 5, 174, 5, 1, 177, 1, 5, 185, 2, 5, 187, 2, 5, 188, 3, 3, 192, 4, 4, 194, 2, 0, 196, 3, 3, 209, 2, 0, 213, 3, 2, 216, 4, 3, 216, 1, 5, 216, 4, 2, 222, 1, 4, 226, 0, 3, 227, 4, 1, 234, 1, 0, 245, 3, 3, 247, 3, 4, 249, 0, 3, 251, 4, 5, 258, 1, 3, 258, 2, 4, 262, 0, 2, 262, 1, 2, 267, 0, 4, 270, 1, 4, 271, 0, 5]);
