n_res = 4;
rc = [ 38, 49, 66, 44 ];
n_tasks = 92;
d = [0, 5, 9, 7, 4, 8, 4, 10, 4, 7, 1, 10, 10, 4, 9, 6, 7, 2, 3, 2, 9, 7, 10, 3, 9, 5, 10, 2, 5, 7, 9, 6, 5, 7, 9, 1, 9, 3, 8, 9, 9, 2, 1, 8, 2, 4, 7, 10, 7, 10, 4, 1, 9, 3, 2, 2, 3, 2, 4, 1, 6, 8, 1, 6, 4, 6, 8, 8, 9, 1, 2, 5, 8, 1, 3, 8, 1, 6, 9, 6, 1, 8, 7, 6, 4, 10, 9, 4, 10, 7, 5, 0];
rr = array2d(1..4, 1..92, [0, 0, 10, 0, 1, 0, 0, 4, 3, 7, 7, 1, 5, 2, 7, 9, 7, 1, 4, 4, 1, 0, 3, 8, 5, 2, 2, 3, 6, 0, 5, 1, 0, 4, 3, 2, 5, 1, 4, 6, 0, 0, 6, 7, 0, 3, 2, 0, 3, 3, 10, 7, 4, 8, 8, 0, 5, 2, 0, 9, 1, 7, 4, 2, 6, 0, 7, 8, 8, 1, 5, 7, 0, 1, 0, 2, 2, 7, 1, 0, 7, 10, 8, 5, 2, 6, 3, 3, 0, 1, 1, 0, 0, 1, 5, 0, 1, 2, 3, 0, 1, 1, 7, 1, 2, 0, 0, 7, 0, 1, 4, 8, 9, 10, 10, 1, 5, 0, 3, 0, 0, 0, 8, 2, 0, 7, 9, 9, 4, 8, 6, 0, 4, 4, 4, 9, 8, 8, 8, 4, 2, 9, 4, 7, 0, 3, 0, 2, 1, 1, 0, 4, 0, 7, 8, 0, 0, 9, 6, 6, 0, 1, 0, 4, 5, 5, 3, 0, 0, 3, 8, 1, 3, 3, 7, 2, 6, 1, 2, 0, 5, 0, 1, 0, 0, 10, 0, 8, 0, 3, 10, 4, 2, 8, 6, 3, 6, 10, 8, 10, 10, 0, 1, 9, 9, 5, 1, 4, 0, 1, 3, 9, 1, 6, 0, 5, 2, 0, 2, 0, 9, 4, 4, 0, 0, 0, 0, 9, 0, 9, 5, 9, 4, 7, 4, 0, 6, 8, 6, 8, 2, 2, 9, 8, 7, 7, 8, 6, 7, 0, 4, 1, 4, 7, 1, 3, 0, 6, 0, 2, 0, 0, 4, 8, 7, 7, 0, 8, 0, 0, 1, 0, 0, 1, 10, 0, 0, 7, 8, 5, 2, 10, 9, 5, 2, 6, 9, 8, 1, 1, 0, 2, 5, 0, 10, 9, 1, 7, 10, 6, 6, 1, 0, 7, 6, 0, 2, 4, 3, 0, 6, 1, 3, 0, 0, 3, 8, 6, 5, 10, 8, 0, 4, 0, 7, 0, 0, 9, 8, 9, 7, 6, 0, 10, 0, 1, 1, 0, 8, 0, 1, 0, 0, 7, 0, 10, 9, 2, 5, 0, 0, 5, 6, 4, 2, 1, 0, 10, 6, 0, 8, 8, 0, 2, 4, 0, 0, 0]);

suc = [
   {2, 3, 4},
   {8, 9, 5},
   {39, 6, 22},
   {27, 10, 18},
   {25, 50, 22},
   {35, 11, 7},
   {19, 20, 23},
   {29, 46},
   {17, 12, 28},
   {24, 25, 53},
   {24, 26, 40},
   {64, 43, 13},
   {70, 60, 14},
   {31, 22, 15},
   {16, 61, 45},
   {44, 46, 39},
   {51, 44, 79},
   {34, 71},
   {32},
   {53, 21, 30},
   {41, 68, 76},
   {58},
   {33, 59, 28},
   {56, 64, 52},
   {40, 45},
   {38, 63},
   {32, 78},
   {57, 34, 84},
   {45, 37},
   {56, 91, 64},
   {32, 36, 85},
   {74},
   {69, 86, 63},
   {80, 37},
   {40, 49},
   {80, 41, 54},
   {88},
   {42},
   {41, 67, 62},
   {59, 51, 44},
   {81},
   {56, 65, 47},
   {48, 49, 46},
   {73},
   {80, 57},
   {51, 54, 55},
   {57, 54, 70},
   {50, 58},
   {67, 59, 52},
   {65, 61, 55},
   {65, 68},
   {60, 63, 55},
   {67},
   {89, 90},
   {74, 69, 71},
   {58, 60, 76},
   {75},
   {66, 62},
   {73, 83, 69},
   {72, 75, 62},
   {79},
   {87},
   {72, 68},
   {66, 70},
   {66, 75, 76},
   {77, 71},
   {74, 84, 79},
   {87},
   {88},
   {88, 77},
   {72, 73, 83},
   {84},
   {81},
   {91},
   {77},
   {81, 83, 78},
   {82, 85, 78},
   {86},
   {91},
   {82},
   {82},
   {89},
   {85},
   {87},
   {86},
   {90},
   {90},
   {89},
   {92},
   {92},
   {92},
   {  } ];

deadline = array2d(1..92, 1..3, [3, 4, 0, 4, 0, 0, 6, 1, 4, 6, 2, 1, 7, 4, 4, 8, 1, 4, 8, 5, 3, 9, 2, 0, 11, 0, 5, 12, 4, 5, 17, 5, 0, 21, 3, 3, 26, 0, 3, 27, 1, 0, 32, 5, 1, 34, 0, 1, 34, 4, 1, 45, 4, 4, 50, 0, 1, 54, 3, 1, 54, 3, 4, 58, 3, 4, 63, 2, 4, 65, 4, 5, 67, 4, 0, 69, 3, 5, 75, 0, 5, 84, 1, 1, 89, 2, 0, 90, 5, 3, 91, 5, 1, 93, 1, 2, 95, 5, 0, 98, 3, 4, 99, 5, 4, 101, 0, 1, 103, 0, 2, 104, 2, 5, 104, 1, 3, 107, 3, 0, 113, 2, 2, 118, 4, 0, 119, 4, 0, 120, 1, 4, 122, 1, 2, 124, 3, 1, 124, 4, 1, 130, 1, 5, 131, 1, 0, 137, 2, 0, 138, 2, 3, 140, 5, 3, 141, 4, 3, 145, 5, 0, 148, 3, 3, 149, 3, 5, 151, 3, 0, 152, 3, 5, 157, 5, 5, 159, 5, 3, 161, 2, 5, 165, 2, 3, 168, 4, 1, 171, 3, 2, 172, 0, 0, 173, 4, 4, 173, 2, 0, 177, 5, 4, 177, 5, 1, 180, 5, 2, 184, 5, 2, 184, 1, 0, 187, 5, 5, 187, 3, 4, 189, 2, 2, 202, 1, 2, 205, 3, 2, 205, 2, 4, 205, 4, 5, 212, 4, 3, 212, 3, 3, 213, 3, 5, 225, 5, 1, 225, 0, 5, 226, 4, 0, 228, 1, 0, 231, 2, 3, 231, 3, 4, 233, 3, 4, 235, 5, 3, 236, 3, 4, 237, 0, 4]);
