n_res = 4;
rc = [ 13, 10, 16, 12 ];
n_tasks = 92;
d = [0, 4, 8, 1, 2, 5, 2, 9, 8, 2, 8, 3, 4, 2, 7, 8, 1, 6, 6, 8, 3, 3, 7, 6, 8, 2, 8, 5, 4, 2, 5, 5, 6, 8, 1, 7, 9, 2, 3, 8, 2, 9, 10, 3, 2, 6, 7, 9, 3, 10, 2, 5, 5, 9, 8, 8, 4, 9, 6, 6, 8, 1, 5, 4, 2, 6, 10, 3, 1, 3, 5, 9, 1, 1, 9, 7, 1, 1, 7, 9, 4, 5, 8, 8, 3, 9, 10, 2, 1, 3, 10, 0];
rr = array2d(1..4, 1..92, [0, 0, 0, 0, 4, 10, 9, 10, 0, 9, 0, 0, 6, 0, 0, 0, 5, 0, 0, 6, 0, 0, 0, 0, 2, 0, 0, 0, 0, 0, 0, 0, 0, 0, 0, 0, 0, 0, 2, 0, 0, 0, 0, 0, 0, 5, 0, 0, 6, 10, 6, 0, 0, 3, 10, 1, 0, 0, 0, 0, 0, 0, 0, 0, 0, 2, 0, 0, 0, 0, 10, 0, 0, 0, 0, 0, 0, 0, 0, 0, 0, 0, 0, 0, 0, 0, 0, 0, 0, 0, 0, 0, 0, 0, 0, 0, 0, 0, 0, 0, 3, 0, 9, 0, 0, 0, 0, 1, 0, 0, 2, 0, 0, 0, 0, 6, 0, 3, 0, 0, 0, 0, 7, 0, 1, 0, 8, 0, 1, 0, 0, 0, 0, 0, 0, 7, 0, 0, 0, 0, 0, 0, 0, 0, 0, 0, 0, 0, 0, 0, 0, 4, 0, 0, 0, 0, 9, 0, 0, 0, 9, 0, 0, 0, 0, 6, 0, 0, 0, 0, 5, 0, 5, 0, 5, 0, 1, 0, 0, 0, 4, 0, 9, 0, 0, 7, 0, 0, 0, 0, 0, 0, 0, 0, 0, 0, 0, 0, 8, 0, 0, 7, 0, 0, 0, 10, 0, 0, 0, 0, 7, 2, 0, 7, 0, 0, 0, 2, 0, 0, 0, 1, 0, 0, 0, 4, 5, 0, 6, 0, 0, 6, 0, 0, 0, 5, 0, 0, 0, 0, 0, 9, 0, 0, 6, 6, 7, 0, 0, 0, 0, 10, 0, 10, 0, 10, 0, 0, 7, 8, 0, 0, 0, 0, 0, 0, 0, 0, 0, 2, 0, 9, 0, 0, 0, 0, 0, 0, 10, 8, 0, 0, 0, 0, 0, 0, 0, 2, 0, 1, 0, 0, 0, 0, 0, 0, 5, 0, 9, 0, 0, 0, 0, 0, 8, 0, 0, 5, 0, 0, 0, 5, 0, 0, 0, 6, 1, 0, 0, 0, 0, 0, 1, 0, 0, 0, 0, 0, 6, 0, 0, 0, 6, 0, 5, 0, 0, 0, 0, 3, 0, 0, 4, 0, 0, 0, 0, 0, 8, 0, 0, 0, 1, 2, 0, 7, 0, 1, 0, 8, 0, 0, 10, 0, 0, 7, 0, 0]);

suc = [
   {2, 3, 4},
   {42, 35, 20},
   {10, 18, 14},
   {5, 6, 7},
   {21, 13, 54},
   {8, 44},
   {56, 17},
   {9, 55, 47},
   {50, 11, 12},
   {33, 58, 27},
   {24, 54, 15},
   {86, 74, 22},
   {26, 19, 34},
   {25, 27, 29},
   {16, 36, 31},
   {49, 66, 45},
   {51},
   {64, 49, 60},
   {41, 36, 31},
   {24, 40, 69},
   {41, 28, 23},
   {53, 29, 30},
   {32, 70, 30},
   {57, 59},
   {34, 75, 44},
   {68, 76},
   {91, 51},
   {43, 38, 39},
   {87, 38, 63},
   {48},
   {32, 70},
   {51, 68, 84},
   {56, 37, 71},
   {48, 36, 46},
   {43, 45, 47},
   {56, 58, 74},
   {54},
   {73},
   {47},
   {52, 45},
   {67, 69, 62},
   {49, 60},
   {46},
   {48, 68, 46},
   {72, 59, 61},
   {88, 61, 70},
   {57},
   {89, 52},
   {65, 77},
   {88, 53, 62},
   {59, 52, 53},
   {71},
   {81, 73, 60},
   {67, 62, 63},
   {72, 65, 58},
   {66, 85},
   {76, 61, 63},
   {80, 78},
   {75},
   {90},
   {64, 65, 80},
   {72, 78, 79},
   {64, 66},
   {77},
   {82, 67, 79},
   {88, 81},
   {74},
   {86},
   {75, 78, 79},
   {73, 85, 71},
   {76},
   {80, 82},
   {77},
   {83},
   {81},
   {90},
   {89},
   {82},
   {83},
   {83},
   {89},
   {90, 84, 85},
   {84},
   {87},
   {86},
   {87},
   {91},
   {91},
   {92},
   {92},
   {92},
   {  } ];

deadline = array2d(1..92, 1..3, [3, 0, 3, 8, 3, 4, 19, 2, 2, 38, 3, 0, 38, 3, 3, 42, 3, 0, 45, 0, 1, 45, 3, 3, 54, 5, 0, 54, 0, 4, 56, 0, 1, 61, 3, 4, 63, 0, 5, 68, 0, 3, 76, 0, 1, 85, 5, 4, 89, 4, 3, 89, 2, 2, 95, 4, 5, 97, 1, 0, 99, 2, 0, 100, 5, 5, 100, 4, 2, 107, 1, 3, 110, 3, 5, 112, 2, 0, 117, 4, 2, 118, 4, 2, 119, 5, 3, 120, 4, 4, 120, 0, 5, 123, 0, 0, 123, 2, 2, 124, 2, 0, 124, 4, 5, 131, 0, 5, 134, 4, 4, 139, 2, 3, 142, 4, 0, 145, 4, 3, 150, 3, 2, 150, 3, 1, 151, 4, 3, 154, 5, 0, 155, 4, 2, 158, 0, 0, 160, 5, 0, 161, 0, 4, 165, 1, 3, 166, 4, 5, 167, 2, 1, 170, 4, 5, 177, 1, 2, 186, 1, 4, 188, 1, 3, 190, 4, 2, 191, 1, 1, 192, 0, 2, 194, 2, 5, 199, 0, 5, 199, 0, 2, 199, 2, 0, 199, 1, 1, 199, 5, 5, 200, 2, 0, 201, 1, 5, 206, 1, 3, 218, 4, 4, 218, 3, 4, 220, 5, 0, 223, 4, 5, 224, 4, 5, 227, 4, 1, 230, 4, 1, 231, 3, 5, 231, 4, 4, 231, 5, 4, 233, 0, 4, 233, 0, 1, 237, 1, 1, 239, 2, 1, 239, 1, 1, 245, 0, 1, 246, 0, 1, 248, 2, 2, 251, 1, 5, 253, 1, 1, 253, 0, 0, 255, 5, 3, 257, 0, 3, 261, 0, 5, 262, 2, 1]);
