n_res = 4;
rc = [ 54, 60, 60, 53 ];
n_tasks = 92;
d = [0, 6, 10, 10, 9, 8, 7, 1, 2, 3, 4, 4, 8, 8, 9, 5, 8, 9, 8, 8, 4, 8, 1, 10, 2, 7, 10, 9, 9, 7, 6, 7, 9, 4, 6, 5, 4, 5, 4, 4, 7, 4, 3, 5, 10, 1, 9, 9, 10, 4, 5, 5, 10, 3, 4, 9, 7, 2, 5, 9, 5, 7, 2, 3, 2, 5, 2, 1, 2, 3, 2, 3, 7, 6, 5, 5, 6, 10, 8, 9, 6, 10, 5, 7, 4, 10, 10, 9, 8, 6, 1, 0];
rr = array2d(1..4, 1..92, [0, 7, 7, 2, 9, 3, 6, 1, 3, 5, 4, 7, 10, 9, 9, 5, 3, 10, 1, 8, 2, 8, 5, 3, 10, 7, 3, 6, 6, 10, 10, 3, 4, 2, 7, 4, 10, 4, 3, 8, 4, 2, 2, 5, 6, 3, 9, 5, 10, 2, 1, 8, 6, 1, 10, 2, 4, 6, 3, 5, 5, 4, 5, 6, 3, 8, 1, 5, 10, 5, 5, 7, 6, 6, 1, 10, 9, 5, 4, 2, 3, 8, 6, 2, 9, 8, 4, 5, 8, 1, 1, 0, 0, 8, 9, 7, 2, 6, 8, 4, 7, 4, 4, 4, 2, 6, 6, 8, 1, 7, 4, 9, 9, 4, 3, 8, 6, 5, 2, 4, 7, 2, 5, 4, 4, 6, 4, 9, 8, 9, 5, 7, 6, 9, 4, 8, 5, 10, 9, 4, 3, 8, 8, 3, 8, 3, 2, 8, 8, 10, 2, 3, 3, 8, 3, 7, 6, 9, 7, 7, 8, 6, 1, 3, 8, 5, 4, 4, 7, 8, 8, 4, 3, 2, 3, 2, 8, 8, 7, 3, 5, 4, 7, 0, 0, 8, 1, 10, 5, 5, 6, 5, 5, 1, 8, 8, 9, 6, 10, 2, 6, 8, 8, 7, 6, 3, 10, 9, 4, 6, 9, 5, 5, 1, 10, 6, 6, 2, 7, 4, 3, 1, 8, 10, 7, 6, 7, 8, 9, 8, 4, 5, 9, 1, 5, 3, 2, 10, 4, 8, 7, 8, 9, 6, 6, 2, 3, 3, 4, 2, 7, 2, 8, 10, 8, 2, 4, 7, 10, 10, 6, 1, 5, 10, 7, 4, 7, 1, 4, 5, 4, 9, 7, 8, 9, 0, 0, 10, 8, 5, 1, 7, 10, 7, 10, 7, 9, 6, 9, 10, 7, 6, 2, 2, 3, 9, 3, 5, 2, 2, 10, 10, 2, 7, 7, 2, 3, 3, 6, 5, 4, 8, 4, 6, 1, 3, 3, 2, 2, 4, 10, 3, 8, 1, 6, 5, 4, 2, 10, 8, 1, 1, 4, 1, 7, 3, 7, 8, 2, 1, 1, 9, 8, 3, 5, 7, 2, 8, 8, 4, 7, 10, 7, 1, 3, 3, 2, 2, 7, 2, 4, 10, 8, 3, 5, 10, 10, 0]);

suc = [
   {2, 3, 4},
   {32, 28, 77},
   {20, 5, 7},
   {8, 12, 6},
   {10, 13, 15},
   {9, 36, 21},
   {81, 85, 37},
   {17, 18, 43},
   {17, 84},
   {26, 11, 38},
   {16, 75, 44},
   {64, 45},
   {39, 14, 23},
   {25, 87},
   {24, 66, 71},
   {48, 27, 54},
   {67, 51, 37},
   {45, 19, 37},
   {24, 57, 53},
   {49, 34, 22},
   {51, 44},
   {88, 27, 29},
   {50, 29, 63},
   {33, 58, 68},
   {50, 35, 29},
   {65},
   {81},
   {34, 30, 31},
   {56, 43, 44},
   {41, 49},
   {74, 60, 45},
   {33, 50},
   {48, 52, 54},
   {40, 38, 47},
   {40, 43, 61},
   {59, 70, 47},
   {38, 71},
   {64, 90, 59},
   {76, 69, 55},
   {80, 46},
   {73, 42, 55},
   {58, 52, 47},
   {58},
   {48},
   {54, 83, 46},
   {67, 59},
   {56, 80, 62},
   {73, 61},
   {64, 86, 62},
   {52, 84, 55},
   {60, 62},
   {70},
   {81, 69, 63},
   {88, 67, 61},
   {56, 78},
   {91, 60},
   {68, 78, 71},
   {86},
   {75},
   {85},
   {80, 76, 70},
   {72, 63},
   {66, 74, 79},
   {72, 66, 79},
   {74, 68},
   {83},
   {73},
   {72, 69, 79},
   {77},
   {78},
   {77},
   {82, 75, 76},
   {91},
   {87},
   {89},
   {89},
   {82},
   {85},
   {82},
   {84},
   {86},
   {83},
   {87},
   {89},
   {90},
   {90},
   {88},
   {91},
   {92},
   {92},
   {92},
   {  } ];

deadline = array2d(1..92, 1..3, [4, 4, 0, 7, 1, 4, 7, 4, 3, 8, 2, 0, 10, 1, 4, 13, 3, 0, 14, 3, 0, 21, 0, 0, 37, 0, 0, 38, 1, 4, 41, 5, 0, 42, 1, 2, 45, 1, 3, 55, 5, 0, 56, 3, 1, 57, 4, 0, 57, 1, 1, 60, 0, 4, 64, 1, 3, 64, 3, 2, 67, 1, 4, 68, 5, 0, 76, 0, 4, 87, 3, 0, 106, 0, 4, 107, 2, 0, 108, 2, 5, 110, 4, 0, 111, 1, 0, 112, 1, 1, 112, 3, 0, 113, 1, 0, 117, 3, 3, 118, 4, 1, 122, 0, 3, 123, 5, 1, 125, 3, 3, 129, 2, 3, 134, 3, 5, 137, 0, 2, 138, 1, 4, 140, 4, 1, 141, 4, 4, 142, 2, 3, 148, 3, 5, 151, 5, 4, 151, 2, 3, 156, 3, 5, 157, 4, 4, 158, 3, 0, 159, 1, 4, 160, 4, 5, 162, 5, 5, 163, 2, 3, 164, 1, 4, 165, 0, 3, 165, 2, 4, 167, 0, 5, 167, 5, 1, 170, 5, 2, 174, 1, 2, 174, 3, 3, 178, 1, 0, 180, 2, 2, 181, 5, 3, 183, 1, 1, 184, 0, 5, 185, 1, 0, 189, 3, 5, 191, 4, 0, 192, 1, 1, 193, 3, 5, 195, 4, 0, 198, 1, 0, 199, 1, 0, 203, 5, 0, 205, 0, 3, 205, 1, 1, 205, 1, 1, 210, 5, 4, 211, 0, 3, 214, 5, 0, 214, 4, 3, 214, 4, 3, 216, 1, 1, 217, 2, 4, 219, 3, 2, 220, 1, 1, 222, 4, 1, 224, 5, 1, 229, 4, 0, 230, 4, 3]);
