n_res = 4;
rc = [ 27, 20, 20, 23 ];
n_tasks = 92;
d = [0, 6, 1, 2, 4, 4, 3, 7, 1, 1, 10, 6, 4, 4, 2, 8, 2, 7, 6, 2, 5, 3, 8, 7, 4, 1, 10, 6, 10, 7, 9, 8, 4, 9, 9, 7, 5, 7, 2, 10, 4, 9, 10, 9, 8, 4, 2, 1, 1, 3, 9, 9, 9, 1, 8, 5, 2, 5, 6, 7, 5, 3, 10, 7, 5, 3, 10, 9, 2, 3, 10, 5, 8, 8, 4, 9, 1, 6, 2, 9, 7, 10, 3, 2, 10, 5, 4, 8, 1, 3, 9, 0];
rr = array2d(1..4, 1..92, [0, 0, 0, 0, 0, 0, 0, 0, 0, 1, 0, 6, 0, 0, 0, 0, 0, 6, 0, 0, 0, 1, 0, 0, 0, 0, 0, 0, 4, 0, 0, 0, 0, 0, 0, 0, 0, 0, 2, 2, 0, 0, 0, 3, 0, 0, 0, 0, 0, 0, 0, 0, 1, 0, 0, 0, 4, 10, 7, 0, 0, 0, 0, 0, 0, 0, 0, 9, 4, 10, 5, 0, 6, 7, 0, 0, 0, 0, 0, 7, 0, 0, 10, 4, 5, 6, 0, 0, 6, 0, 0, 0, 0, 0, 1, 0, 0, 0, 0, 4, 0, 0, 7, 0, 0, 4, 0, 0, 0, 0, 0, 2, 0, 0, 0, 0, 0, 0, 0, 3, 0, 0, 0, 0, 0, 0, 5, 2, 0, 0, 0, 0, 0, 0, 9, 0, 0, 0, 2, 0, 10, 0, 6, 0, 0, 0, 0, 0, 0, 0, 0, 0, 4, 8, 7, 9, 0, 0, 4, 0, 0, 0, 0, 0, 0, 0, 2, 0, 10, 0, 0, 0, 6, 0, 0, 0, 0, 0, 6, 0, 0, 0, 9, 0, 0, 0, 0, 2, 2, 0, 5, 0, 7, 0, 0, 0, 0, 0, 0, 9, 0, 0, 6, 0, 0, 0, 7, 1, 0, 4, 0, 0, 0, 0, 0, 2, 1, 0, 0, 0, 0, 0, 0, 0, 10, 0, 0, 0, 0, 0, 0, 7, 0, 1, 0, 7, 0, 7, 0, 4, 0, 0, 0, 10, 0, 0, 0, 0, 0, 2, 0, 0, 0, 0, 0, 6, 0, 0, 0, 9, 0, 9, 0, 0, 0, 5, 0, 0, 0, 0, 0, 5, 0, 3, 0, 0, 0, 7, 0, 0, 0, 10, 0, 0, 0, 0, 0, 0, 3, 0, 9, 0, 3, 0, 0, 0, 6, 0, 0, 0, 7, 0, 7, 0, 0, 4, 2, 0, 0, 8, 0, 0, 8, 8, 0, 0, 0, 9, 0, 0, 1, 3, 0, 0, 0, 0, 0, 0, 0, 0, 2, 0, 0, 0, 0, 0, 0, 0, 0, 0, 4, 0, 0, 0, 0, 0, 0, 0, 0, 0, 0, 0, 0, 0, 10, 0, 0, 0, 0, 0, 0, 0, 0, 0, 0, 0, 0, 0]);

suc = [
   {2, 3, 4},
   {27, 11, 12},
   {64, 5, 39},
   {33, 6, 7},
   {8, 9, 13},
   {42, 20, 62},
   {74, 68, 90},
   {32, 14},
   {16, 10, 18},
   {49, 45, 15},
   {17, 20, 49},
   {72, 25, 50},
   {19, 20, 15},
   {67, 21},
   {35, 77, 70},
   {58, 29, 63},
   {24, 38},
   {40, 44, 31},
   {26, 44, 22},
   {21, 30, 23},
   {76, 46, 87},
   {49, 74, 67},
   {32, 28, 86},
   {42, 50, 76},
   {64, 83},
   {34, 36, 55},
   {57, 60, 39},
   {56, 44, 76},
   {72, 65, 59},
   {41, 46},
   {36, 46, 47},
   {53},
   {40, 53, 45},
   {56, 42, 66},
   {48, 57, 37},
   {51, 37},
   {43},
   {61},
   {41, 58, 52},
   {58, 51, 66},
   {85, 69, 71},
   {52, 71},
   {75, 54},
   {85, 61},
   {57, 47},
   {59, 55},
   {65, 62, 78},
   {72, 52, 54},
   {63},
   {51, 53, 63},
   {56, 62},
   {59},
   {60, 84, 55},
   {66, 60, 68},
   {82, 69},
   {68},
   {81, 65, 79},
   {70},
   {73, 61},
   {81, 78},
   {83, 79},
   {67, 71},
   {77},
   {88, 84},
   {86},
   {90},
   {69, 70},
   {80, 84},
   {91},
   {73},
   {73, 86},
   {81, 74, 75},
   {75},
   {82},
   {79},
   {80, 77, 78},
   {85},
   {82},
   {80, 89},
   {91},
   {83, 87},
   {88},
   {89},
   {89},
   {88},
   {87},
   {90},
   {91},
   {92},
   {92},
   {92},
   {  } ];

deadline = array2d(1..92, 1..3, [1, 2, 0, 4, 5, 2, 8, 5, 0, 8, 4, 2, 9, 4, 4, 11, 3, 3, 15, 2, 0, 17, 0, 2, 17, 0, 3, 17, 5, 3, 17, 1, 5, 22, 4, 1, 22, 4, 0, 22, 2, 1, 24, 2, 2, 34, 0, 2, 36, 0, 2, 36, 3, 1, 43, 5, 0, 45, 2, 5, 46, 1, 3, 47, 0, 1, 47, 5, 3, 60, 1, 1, 61, 1, 0, 65, 5, 2, 71, 4, 2, 82, 4, 0, 82, 1, 4, 85, 1, 4, 88, 3, 1, 95, 4, 2, 96, 3, 1, 96, 5, 0, 97, 4, 1, 99, 4, 2, 101, 5, 4, 101, 2, 4, 102, 4, 1, 103, 1, 3, 105, 4, 4, 109, 2, 3, 109, 5, 2, 110, 0, 2, 113, 4, 5, 115, 5, 4, 117, 4, 1, 117, 4, 1, 119, 5, 3, 120, 4, 4, 120, 3, 2, 122, 0, 4, 122, 5, 3, 124, 2, 1, 124, 2, 5, 139, 1, 4, 144, 0, 5, 145, 0, 1, 146, 1, 1, 148, 0, 2, 149, 1, 0, 150, 1, 4, 151, 5, 3, 152, 2, 0, 153, 3, 1, 154, 3, 4, 156, 5, 1, 159, 1, 3, 161, 0, 3, 164, 3, 5, 165, 4, 2, 171, 2, 0, 173, 2, 0, 173, 1, 2, 178, 4, 2, 178, 4, 3, 181, 0, 3, 183, 1, 1, 184, 2, 4, 187, 0, 2, 189, 4, 5, 195, 4, 5, 199, 3, 0, 200, 5, 4, 201, 2, 0, 202, 1, 0, 204, 3, 1, 207, 1, 5, 207, 0, 5, 208, 0, 3, 214, 5, 5, 214, 2, 4]);
