n_res = 4;
rc = [ 40, 47, 53, 38 ];
n_tasks = 92;
d = [0, 9, 4, 9, 1, 5, 2, 8, 1, 7, 8, 4, 6, 7, 8, 5, 4, 5, 3, 1, 5, 7, 5, 2, 9, 5, 7, 10, 1, 1, 4, 4, 6, 5, 10, 4, 9, 5, 8, 9, 8, 5, 3, 6, 9, 9, 6, 4, 1, 7, 6, 8, 3, 5, 5, 2, 8, 4, 4, 7, 10, 2, 5, 8, 9, 7, 8, 2, 1, 9, 9, 7, 9, 3, 5, 3, 1, 9, 4, 1, 2, 10, 5, 4, 6, 4, 4, 8, 1, 6, 1, 0];
rr = array2d(1..4, 1..92, [0, 0, 10, 5, 0, 5, 9, 0, 1, 0, 9, 0, 2, 4, 0, 0, 2, 0, 0, 5, 0, 1, 9, 5, 0, 0, 9, 3, 0, 0, 0, 0, 0, 9, 5, 0, 3, 0, 3, 10, 0, 0, 0, 5, 5, 0, 3, 6, 0, 4, 0, 0, 4, 4, 5, 0, 4, 0, 8, 6, 0, 0, 4, 0, 2, 0, 0, 3, 4, 6, 0, 0, 0, 0, 0, 0, 6, 5, 0, 7, 5, 1, 1, 0, 1, 4, 0, 0, 10, 1, 0, 0, 0, 6, 0, 0, 8, 0, 3, 8, 4, 0, 0, 6, 0, 1, 0, 8, 0, 9, 10, 10, 0, 6, 1, 0, 0, 6, 7, 0, 10, 5, 7, 0, 1, 0, 1, 0, 8, 10, 2, 0, 4, 0, 0, 2, 6, 8, 0, 0, 3, 0, 0, 6, 0, 4, 10, 0, 0, 1, 0, 1, 10, 3, 1, 8, 0, 0, 7, 0, 8, 10, 0, 9, 0, 6, 8, 5, 0, 0, 0, 0, 0, 0, 0, 0, 0, 0, 0, 0, 1, 0, 0, 0, 0, 7, 0, 7, 0, 1, 10, 0, 0, 3, 0, 1, 0, 2, 10, 3, 8, 0, 0, 0, 5, 2, 4, 0, 8, 0, 8, 0, 0, 0, 0, 10, 0, 0, 0, 5, 0, 7, 9, 9, 0, 0, 10, 0, 7, 0, 6, 7, 0, 3, 6, 2, 4, 0, 0, 8, 0, 1, 0, 0, 0, 0, 0, 0, 9, 2, 0, 9, 0, 0, 3, 0, 7, 0, 0, 7, 5, 5, 0, 3, 0, 0, 0, 5, 0, 0, 10, 0, 0, 0, 0, 0, 0, 0, 10, 9, 8, 0, 8, 0, 0, 1, 0, 0, 0, 0, 0, 8, 0, 1, 5, 0, 0, 6, 0, 3, 3, 5, 4, 0, 8, 8, 0, 0, 0, 0, 0, 0, 0, 3, 5, 3, 0, 4, 0, 0, 9, 0, 0, 0, 9, 0, 2, 7, 0, 7, 0, 5, 3, 0, 0, 9, 4, 2, 5, 9, 1, 0, 0, 5, 8, 9, 10, 3, 0, 0, 0, 6, 0, 0, 1, 1, 2, 0, 9, 8, 4, 1, 0, 4, 9, 6, 10, 0]);

suc = [
   {2, 3, 4},
   {8, 17, 15},
   {9, 20, 6},
   {10, 5},
   {49, 38, 63},
   {12, 28, 7},
   {18, 27, 13},
   {24, 11, 21},
   {16, 26, 54},
   {20, 37, 14},
   {56, 27, 31},
   {19, 31},
   {34, 61, 62},
   {68, 54},
   {81, 25, 62},
   {38, 19, 30},
   {65, 41, 37},
   {50, 37, 31},
   {32, 22, 39},
   {58, 52, 77},
   {49, 35, 23},
   {77, 62},
   {72, 27, 36},
   {43, 44, 38},
   {89, 29, 30},
   {65, 33, 66},
   {64},
   {53, 69, 29},
   {40, 51, 52},
   {58, 51},
   {33, 66, 57},
   {45},
   {70},
   {57, 60},
   {83, 45, 55},
   {44, 76},
   {68, 55, 47},
   {50, 91, 45},
   {56, 52, 78},
   {71},
   {54, 42, 46},
   {48, 58, 82},
   {75, 60},
   {81, 50, 60},
   {48, 67},
   {48, 64, 53},
   {49, 59, 57},
   {56, 59, 86},
   {64, 73, 51},
   {55},
   {91},
   {84},
   {85, 63},
   {74, 75},
   {66, 59},
   {85},
   {73, 67, 70},
   {68},
   {69},
   {65, 84},
   {73, 76, 79},
   {80, 74, 63},
   {72, 88},
   {76, 69, 84},
   {88},
   {67, 79, 71},
   {74},
   {70},
   {79, 71},
   {72},
   {90},
   {91},
   {80, 75},
   {82},
   {82, 78},
   {80, 77},
   {78},
   {81, 83, 85},
   {88, 87},
   {83},
   {86},
   {86},
   {87},
   {90},
   {90},
   {87},
   {89},
   {89},
   {92},
   {92},
   {92},
   {  } ];

deadline = array2d(1..92, 1..3, [1, 3, 3, 2, 3, 1, 2, 5, 5, 6, 2, 2, 11, 1, 5, 12, 4, 3, 12, 1, 4, 15, 4, 1, 16, 4, 2, 16, 2, 0, 17, 3, 2, 18, 2, 3, 21, 2, 0, 23, 5, 5, 24, 2, 3, 26, 1, 5, 28, 1, 0, 30, 4, 3, 31, 2, 4, 33, 2, 5, 39, 0, 3, 41, 1, 1, 42, 3, 5, 44, 1, 2, 45, 4, 3, 45, 3, 4, 47, 4, 4, 50, 2, 5, 54, 1, 3, 56, 2, 2, 59, 0, 2, 59, 0, 5, 61, 3, 0, 67, 3, 2, 69, 0, 5, 71, 1, 0, 73, 0, 4, 76, 4, 2, 77, 0, 0, 85, 2, 3, 89, 4, 0, 96, 4, 0, 98, 4, 3, 99, 1, 2, 104, 2, 1, 104, 3, 0, 106, 4, 1, 106, 3, 5, 111, 3, 2, 115, 5, 2, 115, 0, 3, 118, 3, 0, 118, 2, 2, 118, 1, 4, 119, 3, 3, 120, 5, 1, 122, 5, 5, 123, 1, 1, 128, 4, 0, 130, 5, 4, 131, 4, 5, 132, 3, 4, 134, 0, 2, 135, 1, 1, 139, 1, 1, 143, 1, 1, 144, 4, 4, 147, 4, 3, 150, 3, 0, 154, 1, 0, 154, 3, 4, 155, 4, 4, 155, 4, 3, 158, 1, 5, 169, 3, 1, 173, 3, 5, 174, 4, 2, 174, 5, 3, 174, 3, 2, 175, 1, 0, 179, 4, 5, 182, 2, 1, 190, 0, 4, 190, 4, 3, 194, 2, 5, 194, 2, 0, 198, 0, 4, 206, 0, 4, 209, 5, 4, 212, 4, 5, 212, 3, 1, 214, 1, 2]);
