n_res = 4;
rc = [ 81, 88, 73, 80 ];
n_tasks = 92;
d = [0, 9, 8, 7, 4, 3, 3, 3, 9, 8, 3, 1, 7, 2, 6, 1, 5, 7, 4, 9, 8, 8, 3, 1, 1, 7, 4, 1, 6, 7, 1, 9, 4, 9, 7, 2, 9, 2, 3, 5, 5, 4, 6, 10, 5, 5, 3, 5, 10, 9, 10, 4, 3, 7, 7, 7, 8, 3, 3, 8, 9, 5, 7, 8, 1, 5, 6, 9, 2, 3, 8, 2, 9, 2, 6, 3, 5, 7, 1, 1, 4, 7, 5, 10, 6, 1, 7, 9, 2, 6, 6, 0];
rr = array2d(1..4, 1..92, [0, 9, 0, 7, 7, 5, 0, 8, 0, 2, 4, 3, 2, 1, 1, 8, 5, 7, 1, 5, 3, 10, 1, 10, 3, 10, 0, 6, 10, 0, 0, 9, 8, 10, 7, 0, 0, 8, 2, 0, 9, 5, 0, 1, 0, 7, 10, 8, 10, 4, 0, 0, 2, 0, 9, 10, 1, 0, 1, 8, 8, 6, 6, 8, 0, 9, 0, 8, 10, 0, 1, 6, 5, 8, 8, 8, 2, 5, 0, 0, 9, 0, 10, 3, 5, 3, 0, 1, 7, 9, 10, 0, 0, 8, 2, 10, 6, 8, 3, 3, 6, 10, 6, 4, 0, 0, 10, 8, 3, 1, 6, 5, 8, 0, 8, 5, 4, 10, 5, 8, 1, 2, 0, 7, 5, 0, 2, 8, 10, 2, 2, 1, 6, 0, 0, 0, 6, 0, 7, 9, 7, 6, 0, 7, 6, 7, 0, 8, 0, 9, 1, 2, 6, 0, 3, 6, 3, 1, 1, 0, 5, 0, 2, 3, 7, 0, 6, 0, 0, 10, 2, 7, 0, 4, 8, 3, 3, 0, 10, 0, 8, 10, 9, 0, 0, 3, 0, 4, 10, 10, 4, 0, 0, 9, 3, 4, 2, 0, 0, 1, 8, 3, 2, 5, 8, 1, 0, 6, 0, 1, 0, 7, 1, 0, 8, 9, 2, 0, 1, 0, 5, 0, 1, 0, 9, 6, 8, 7, 0, 8, 9, 0, 6, 0, 2, 8, 3, 7, 1, 7, 9, 10, 3, 8, 3, 7, 1, 2, 6, 0, 6, 10, 8, 6, 0, 1, 10, 0, 0, 0, 1, 0, 9, 0, 4, 9, 7, 8, 1, 8, 3, 5, 5, 9, 1, 0, 0, 4, 6, 3, 0, 4, 9, 2, 2, 0, 0, 3, 7, 5, 6, 4, 9, 6, 0, 0, 10, 0, 6, 2, 2, 0, 8, 0, 8, 2, 6, 0, 0, 1, 3, 4, 8, 8, 0, 9, 6, 4, 5, 0, 7, 2, 2, 3, 9, 6, 8, 0, 6, 0, 9, 0, 8, 10, 0, 0, 3, 0, 9, 0, 3, 0, 4, 5, 0, 7, 3, 10, 3, 7, 4, 6, 6, 10, 9, 2, 5, 10, 3, 8, 8, 0, 3, 2, 5, 8, 0, 0]);

suc = [
   {2, 3, 4},
   {11, 5, 6},
   {17, 61, 13},
   {8, 9, 7},
   {23},
   {20, 45, 22},
   {40, 56, 12},
   {49, 19, 59},
   {24, 10, 15},
   {18, 62, 39},
   {35, 31},
   {16, 46},
   {51, 14},
   {26},
   {57},
   {25, 28},
   {25, 49},
   {80},
   {44, 21, 78},
   {34, 53, 29},
   {68},
   {41},
   {73, 27, 78},
   {43},
   {45},
   {77},
   {32, 33, 30},
   {48, 60},
   {32},
   {74},
   {69, 68, 37},
   {37},
   {38},
   {88, 73, 36},
   {50},
   {42, 55},
   {83},
   {58},
   {86, 47},
   {76},
   {63},
   {52},
   {66, 54},
   {68},
   {57},
   {65},
   {55},
   {88},
   {79},
   {67},
   {85},
   {66, 70},
   {74},
   {60},
   {64},
   {81},
   {70},
   {61, 79},
   {85},
   {71},
   {69},
   {88},
   {74},
   {72, 80, 79},
   {85},
   {69},
   {73},
   {89, 84},
   {82},
   {82},
   {72},
   {91, 75},
   {90},
   {91},
   {83},
   {81},
   {91},
   {86},
   {82},
   {81, 84},
   {87},
   {89, 87},
   {84},
   {87},
   {86},
   {89},
   {90},
   {90},
   {92},
   {92},
   {92},
   {  } ];

deadline = array2d(1..92, 1..3, [2, 4, 1, 5, 0, 1, 7, 4, 4, 9, 4, 3, 10, 3, 3, 10, 3, 3, 14, 0, 2, 14, 3, 1, 17, 4, 0, 17, 3, 1, 18, 2, 2, 18, 0, 1, 18, 1, 5, 19, 0, 0, 22, 0, 3, 34, 2, 5, 37, 4, 5, 37, 5, 5, 37, 4, 3, 40, 0, 5, 41, 1, 1, 43, 1, 0, 44, 4, 1, 46, 4, 3, 47, 5, 1, 50, 2, 5, 56, 1, 2, 56, 0, 5, 56, 4, 2, 59, 0, 1, 61, 1, 3, 64, 5, 3, 74, 1, 2, 78, 5, 1, 78, 0, 4, 79, 2, 0, 82, 0, 3, 85, 1, 0, 88, 4, 3, 89, 5, 5, 90, 0, 5, 94, 2, 5, 103, 0, 0, 105, 1, 5, 105, 3, 0, 107, 5, 2, 110, 2, 1, 110, 2, 0, 112, 5, 2, 113, 4, 1, 113, 4, 5, 119, 1, 3, 120, 2, 3, 120, 5, 4, 121, 1, 4, 123, 2, 2, 123, 5, 0, 124, 2, 2, 125, 2, 2, 125, 0, 1, 125, 2, 5, 127, 5, 3, 127, 3, 4, 128, 2, 2, 141, 0, 5, 143, 4, 1, 144, 3, 2, 144, 0, 5, 144, 3, 2, 145, 1, 4, 145, 5, 4, 153, 3, 4, 155, 1, 3, 160, 5, 1, 161, 3, 4, 167, 2, 2, 172, 1, 3, 182, 5, 5, 183, 5, 4, 193, 4, 5, 193, 3, 1, 194, 0, 3, 195, 2, 0, 197, 5, 2, 197, 4, 2, 198, 4, 2, 198, 4, 3, 202, 5, 3, 203, 1, 0, 206, 4, 5, 206, 5, 3, 207, 0, 1]);
