n_res = 4;
rc = [ 28, 29, 38, 30 ];
n_tasks = 92;
d = [0, 7, 3, 4, 4, 6, 9, 5, 9, 5, 6, 2, 2, 4, 10, 6, 2, 2, 4, 6, 2, 10, 9, 2, 5, 2, 8, 5, 7, 8, 3, 9, 7, 4, 7, 4, 9, 7, 3, 1, 3, 9, 1, 6, 4, 8, 2, 10, 1, 6, 6, 3, 3, 9, 1, 4, 3, 9, 7, 7, 8, 7, 10, 2, 1, 9, 7, 10, 3, 1, 10, 10, 6, 10, 2, 1, 4, 7, 7, 8, 5, 8, 3, 7, 9, 8, 3, 6, 2, 3, 7, 0];
rr = array2d(1..4, 1..92, [0, 10, 0, 0, 0, 0, 0, 3, 9, 0, 7, 0, 0, 0, 0, 4, 0, 5, 2, 0, 4, 0, 0, 0, 0, 2, 0, 5, 4, 0, 4, 0, 0, 0, 8, 0, 3, 1, 0, 0, 2, 0, 7, 0, 0, 0, 0, 8, 5, 2, 0, 0, 0, 9, 0, 0, 5, 0, 0, 6, 1, 9, 8, 1, 5, 2, 3, 2, 0, 0, 0, 0, 2, 8, 0, 0, 3, 9, 10, 0, 10, 0, 0, 3, 0, 10, 0, 0, 0, 8, 1, 0, 0, 5, 1, 0, 0, 0, 2, 7, 0, 2, 0, 10, 0, 8, 0, 3, 9, 0, 0, 5, 2, 3, 0, 8, 8, 4, 0, 9, 0, 7, 0, 0, 0, 0, 0, 9, 9, 1, 2, 4, 0, 0, 0, 4, 3, 7, 6, 0, 0, 0, 0, 1, 3, 10, 0, 9, 0, 4, 1, 0, 0, 0, 2, 10, 0, 0, 8, 6, 0, 0, 0, 6, 3, 0, 6, 9, 0, 6, 2, 0, 0, 0, 0, 0, 0, 6, 0, 9, 0, 2, 10, 0, 0, 4, 8, 6, 6, 2, 0, 6, 0, 0, 4, 6, 4, 0, 9, 0, 4, 6, 0, 0, 0, 10, 0, 0, 0, 0, 3, 0, 10, 4, 0, 6, 10, 8, 8, 3, 0, 3, 1, 4, 0, 8, 0, 8, 5, 0, 10, 0, 0, 0, 8, 0, 0, 0, 6, 0, 3, 0, 5, 0, 2, 0, 7, 10, 0, 6, 0, 0, 6, 8, 0, 3, 0, 0, 6, 0, 2, 0, 10, 0, 0, 1, 0, 0, 0, 7, 5, 6, 1, 8, 10, 0, 0, 0, 0, 7, 8, 0, 7, 0, 0, 0, 0, 6, 1, 2, 0, 9, 6, 0, 4, 0, 10, 7, 5, 0, 0, 2, 0, 5, 10, 7, 0, 4, 6, 0, 0, 0, 0, 0, 0, 0, 8, 7, 8, 10, 9, 0, 6, 0, 0, 0, 4, 0, 0, 8, 0, 4, 9, 0, 6, 6, 0, 2, 1, 4, 0, 0, 0, 0, 0, 9, 6, 0, 0, 0, 6, 0, 0, 0, 7, 9, 8, 0, 4, 1, 7, 1, 0, 0, 0, 9, 7, 0]);

suc = [
   {2, 3, 4},
   {56, 9},
   {25, 5, 7},
   {44, 6},
   {8, 18, 35},
   {19, 12, 14},
   {10, 29, 21},
   {44, 22},
   {16, 11, 15},
   {24, 36, 13},
   {40, 54},
   {64, 33, 20},
   {78, 59, 14},
   {72, 34, 30},
   {26, 51, 62},
   {17},
   {28, 37, 31},
   {41, 66, 38},
   {65, 23},
   {42, 55},
   {27, 22, 39},
   {50},
   {51, 27},
   {60, 53, 76},
   {72},
   {49},
   {45, 63},
   {44, 69},
   {88},
   {32},
   {42, 68},
   {66, 86},
   {75, 38, 55},
   {76},
   {86},
   {58, 68, 69},
   {48, 80, 43},
   {77},
   {66, 69},
   {90, 79},
   {71, 47},
   {65, 74, 59},
   {54, 46},
   {62},
   {50, 76, 74},
   {68, 71, 47},
   {91},
   {72, 59, 52},
   {91},
   {62},
   {58, 75, 84},
   {65, 57, 54},
   {70},
   {60},
   {74, 67},
   {64, 83, 77},
   {84, 61},
   {73, 61},
   {85},
   {82},
   {64},
   {75},
   {78},
   {90},
   {83},
   {77},
   {70, 71},
   {78},
   {73},
   {85},
   {73},
   {79},
   {82, 87},
   {80, 79},
   {80, 82, 87},
   {81, 83},
   {81},
   {88},
   {89},
   {81, 85},
   {88},
   {86},
   {84},
   {87},
   {90},
   {91},
   {89},
   {89},
   {92},
   {92},
   {92},
   {  } ];

deadline = array2d(1..92, 1..3, [3, 5, 5, 7, 3, 4, 9, 2, 5, 14, 5, 5, 16, 1, 3, 18, 3, 2, 20, 2, 1, 20, 2, 0, 21, 4, 1, 24, 1, 4, 26, 4, 2, 28, 0, 0, 29, 0, 4, 30, 5, 4, 32, 2, 3, 33, 4, 5, 34, 3, 0, 35, 3, 1, 41, 0, 0, 49, 4, 3, 51, 0, 0, 54, 3, 1, 55, 3, 2, 58, 2, 3, 60, 4, 5, 60, 1, 1, 62, 3, 5, 64, 5, 2, 66, 3, 4, 67, 1, 2, 70, 1, 2, 76, 4, 0, 80, 1, 1, 83, 1, 4, 90, 4, 1, 90, 5, 4, 90, 2, 5, 94, 0, 5, 96, 4, 2, 97, 2, 5, 103, 3, 3, 104, 4, 1, 104, 3, 5, 107, 4, 5, 110, 0, 0, 112, 1, 0, 116, 2, 4, 121, 5, 2, 122, 1, 2, 123, 5, 1, 124, 5, 5, 124, 2, 5, 127, 4, 1, 129, 0, 3, 130, 2, 0, 137, 4, 5, 137, 3, 3, 141, 2, 1, 142, 1, 0, 145, 2, 3, 145, 2, 1, 145, 5, 5, 146, 4, 2, 146, 0, 2, 150, 5, 5, 155, 4, 5, 156, 1, 2, 157, 2, 0, 159, 2, 2, 161, 3, 2, 164, 3, 3, 167, 0, 0, 167, 4, 5, 167, 2, 2, 171, 2, 2, 174, 3, 4, 179, 3, 2, 181, 0, 0, 182, 3, 1, 184, 1, 4, 187, 2, 2, 187, 5, 3, 188, 2, 2, 191, 0, 0, 192, 3, 3, 193, 0, 0, 195, 5, 4, 196, 2, 5, 197, 1, 1, 204, 3, 1, 211, 5, 4, 211, 0, 3]);
