n_res = 4;
rc = [ 37, 40, 43, 44 ];
n_tasks = 92;
d = [0, 8, 10, 4, 6, 6, 5, 3, 9, 10, 6, 1, 4, 5, 1, 7, 1, 4, 4, 10, 10, 3, 4, 1, 3, 9, 3, 3, 3, 4, 10, 1, 2, 2, 1, 3, 6, 4, 6, 8, 5, 2, 10, 8, 5, 2, 6, 8, 7, 1, 5, 7, 3, 9, 3, 8, 4, 10, 8, 5, 7, 5, 3, 5, 1, 7, 7, 3, 5, 9, 2, 8, 1, 2, 8, 4, 8, 7, 5, 7, 9, 3, 6, 3, 8, 2, 8, 9, 5, 8, 8, 0];
rr = array2d(1..4, 1..92, [0, 8, 8, 5, 4, 1, 10, 9, 1, 8, 10, 6, 1, 3, 7, 9, 7, 1, 9, 8, 6, 5, 1, 5, 10, 5, 4, 7, 8, 2, 5, 2, 5, 6, 3, 6, 4, 9, 9, 6, 5, 1, 8, 9, 9, 1, 10, 4, 1, 1, 6, 2, 1, 4, 2, 9, 7, 7, 1, 1, 5, 10, 8, 9, 7, 1, 8, 2, 7, 10, 2, 5, 5, 5, 10, 1, 2, 4, 9, 7, 6, 9, 3, 10, 10, 5, 6, 5, 10, 1, 2, 0, 0, 2, 3, 6, 1, 3, 1, 7, 5, 4, 2, 2, 2, 2, 10, 7, 9, 9, 1, 3, 5, 3, 4, 8, 9, 9, 10, 8, 1, 8, 10, 10, 1, 5, 8, 4, 6, 4, 6, 1, 4, 2, 9, 3, 1, 5, 5, 5, 8, 6, 5, 2, 2, 5, 7, 10, 8, 1, 8, 6, 6, 7, 2, 9, 5, 4, 6, 8, 1, 9, 4, 6, 7, 6, 9, 9, 8, 2, 1, 10, 8, 9, 5, 4, 5, 6, 2, 10, 10, 7, 3, 0, 0, 5, 1, 4, 1, 6, 4, 10, 8, 5, 4, 4, 7, 5, 5, 6, 6, 5, 10, 3, 2, 1, 4, 1, 1, 1, 4, 6, 7, 10, 3, 8, 2, 4, 2, 3, 2, 10, 4, 4, 8, 7, 10, 2, 3, 10, 8, 7, 1, 6, 3, 8, 10, 5, 1, 5, 4, 7, 2, 3, 7, 9, 8, 8, 8, 10, 8, 5, 9, 8, 4, 6, 5, 6, 9, 9, 9, 1, 10, 9, 10, 5, 7, 10, 1, 5, 9, 9, 1, 5, 9, 0, 0, 1, 4, 1, 6, 1, 2, 7, 10, 6, 8, 6, 10, 9, 7, 9, 1, 3, 9, 4, 5, 5, 9, 6, 4, 7, 7, 2, 9, 4, 8, 7, 8, 3, 10, 1, 8, 1, 8, 5, 4, 2, 10, 1, 1, 8, 5, 7, 6, 10, 2, 8, 9, 8, 9, 10, 2, 6, 7, 6, 4, 6, 7, 2, 3, 6, 2, 5, 10, 6, 5, 1, 5, 4, 9, 9, 3, 7, 4, 1, 1, 2, 8, 6, 1, 9, 4, 5, 2, 10, 2, 0]);

suc = [
   {2, 3, 4},
   {9, 5, 6},
   {19, 22, 31},
   {9, 12, 14},
   {33, 20, 15},
   {15, 13, 7},
   {8, 24, 41},
   {51, 12, 36},
   {10, 11, 30},
   {28},
   {18, 27, 60},
   {84, 77, 46},
   {18, 26, 21},
   {16, 65, 38},
   {40, 17, 42},
   {41, 37},
   {64, 69},
   {40, 33},
   {20, 36, 23},
   {32, 35, 45},
   {25, 44, 29},
   {39},
   {83, 79},
   {48, 28, 63},
   {69},
   {42, 43, 68},
   {90, 63, 47},
   {32, 50, 37},
   {40, 52, 30},
   {60, 37, 62},
   {48, 45},
   {56, 73, 38},
   {34, 35, 45},
   {56, 75, 43},
   {42, 66},
   {88, 44, 70},
   {75, 61, 53},
   {49, 43, 78},
   {53, 78, 79},
   {73, 57, 58},
   {49, 74, 53},
   {63, 61, 47},
   {52},
   {56, 69, 46},
   {72, 61, 71},
   {62, 57, 54},
   {48, 72, 52},
   {77},
   {81, 67, 60},
   {55},
   {64, 54},
   {77},
   {67, 54},
   {82},
   {58, 59, 71},
   {57, 66},
   {65},
   {64, 85},
   {89, 66, 70},
   {91},
   {81, 83},
   {65, 76},
   {80, 70},
   {68, 79},
   {82, 68},
   {76},
   {83, 76},
   {91, 86},
   {72, 74, 86},
   {74},
   {78},
   {73, 75},
   {80, 87},
   {84},
   {82},
   {86},
   {87},
   {80, 81},
   {87},
   {84},
   {88},
   {85},
   {88, 85},
   {91},
   {89},
   {90},
   {89},
   {90},
   {92},
   {92},
   {92},
   {  } ];

deadline = array2d(1..92, 1..3, [8, 1, 4, 9, 1, 4, 11, 0, 1, 11, 3, 1, 11, 5, 1, 13, 2, 0, 20, 3, 5, 23, 5, 5, 25, 2, 5, 26, 5, 0, 28, 4, 4, 29, 5, 4, 33, 3, 0, 33, 0, 2, 34, 5, 3, 34, 3, 5, 35, 5, 2, 36, 0, 2, 37, 0, 4, 39, 4, 4, 42, 1, 0, 43, 2, 2, 44, 5, 1, 46, 4, 0, 47, 1, 5, 49, 1, 5, 49, 4, 0, 49, 1, 3, 50, 3, 1, 54, 2, 2, 54, 0, 2, 55, 3, 0, 56, 1, 4, 59, 4, 5, 60, 0, 1, 62, 1, 0, 63, 1, 0, 65, 3, 1, 72, 1, 3, 74, 4, 4, 75, 2, 2, 75, 2, 5, 76, 4, 0, 77, 3, 1, 78, 4, 3, 79, 3, 1, 80, 2, 1, 81, 2, 5, 83, 1, 0, 88, 0, 5, 90, 3, 2, 91, 0, 1, 100, 4, 4, 104, 2, 3, 106, 0, 5, 108, 2, 1, 110, 3, 2, 110, 2, 3, 112, 4, 0, 113, 2, 0, 114, 0, 0, 115, 1, 2, 119, 1, 2, 120, 2, 4, 126, 2, 0, 128, 5, 4, 129, 4, 3, 129, 4, 3, 135, 2, 1, 137, 2, 5, 139, 4, 2, 140, 1, 5, 143, 5, 4, 149, 0, 0, 149, 3, 0, 150, 2, 2, 151, 0, 5, 152, 1, 3, 152, 1, 1, 154, 4, 4, 158, 3, 4, 164, 5, 4, 166, 2, 5, 168, 2, 2, 172, 3, 4, 177, 2, 3, 177, 3, 2, 177, 3, 0, 178, 2, 2, 179, 3, 2, 180, 2, 3, 181, 1, 3]);
