n_res = 4;
rc = [ 31, 37, 29, 30 ];
n_tasks = 92;
d = [0, 6, 7, 5, 4, 8, 5, 5, 5, 9, 8, 6, 3, 10, 7, 8, 10, 2, 2, 7, 9, 8, 2, 2, 5, 6, 9, 10, 7, 9, 10, 6, 2, 5, 9, 5, 6, 7, 9, 8, 8, 9, 6, 5, 5, 10, 6, 4, 1, 5, 7, 4, 9, 9, 1, 10, 10, 8, 9, 7, 4, 5, 5, 5, 10, 5, 8, 9, 7, 2, 2, 2, 8, 1, 7, 9, 7, 7, 9, 3, 4, 1, 6, 3, 7, 3, 3, 7, 8, 5, 2, 0];
rr = array2d(1..4, 1..92, [0, 2, 8, 6, 0, 1, 3, 0, 2, 2, 0, 10, 0, 8, 0, 1, 4, 0, 0, 1, 6, 6, 0, 0, 0, 0, 8, 0, 10, 0, 3, 4, 0, 0, 0, 0, 0, 1, 0, 4, 1, 0, 9, 4, 4, 7, 0, 0, 0, 0, 8, 0, 0, 0, 0, 10, 6, 1, 0, 4, 3, 7, 0, 0, 0, 1, 1, 0, 0, 1, 8, 9, 0, 0, 3, 9, 0, 0, 8, 0, 0, 3, 1, 0, 0, 0, 2, 4, 6, 2, 0, 0, 0, 9, 0, 0, 4, 0, 3, 8, 5, 10, 5, 6, 0, 10, 8, 0, 0, 0, 0, 5, 0, 9, 0, 7, 8, 5, 0, 6, 0, 9, 5, 4, 0, 0, 0, 9, 0, 7, 0, 0, 2, 0, 0, 0, 4, 2, 0, 0, 0, 8, 0, 3, 8, 7, 7, 10, 0, 4, 0, 0, 0, 1, 0, 0, 0, 0, 2, 7, 3, 10, 0, 0, 0, 2, 7, 3, 4, 6, 7, 0, 0, 1, 0, 8, 0, 6, 0, 3, 4, 1, 0, 0, 0, 6, 0, 0, 7, 0, 0, 0, 0, 5, 0, 0, 9, 0, 1, 5, 0, 10, 9, 0, 0, 0, 7, 5, 6, 0, 0, 5, 0, 0, 0, 0, 9, 3, 10, 0, 6, 0, 0, 4, 9, 0, 0, 0, 0, 4, 0, 2, 8, 1, 0, 2, 0, 9, 0, 10, 0, 10, 7, 4, 3, 0, 0, 0, 6, 7, 0, 0, 5, 0, 0, 0, 8, 0, 1, 0, 2, 0, 0, 5, 8, 0, 3, 0, 5, 7, 0, 6, 0, 7, 7, 0, 0, 0, 0, 10, 6, 4, 4, 0, 2, 0, 4, 0, 5, 0, 9, 10, 0, 6, 0, 1, 9, 0, 0, 5, 0, 8, 3, 0, 0, 0, 0, 0, 8, 10, 0, 0, 9, 3, 4, 0, 0, 1, 6, 3, 0, 10, 6, 0, 0, 10, 0, 0, 0, 0, 0, 4, 0, 0, 0, 0, 0, 0, 3, 10, 2, 0, 1, 0, 0, 0, 9, 2, 6, 0, 0, 10, 0, 0, 0, 1, 5, 4, 8, 9, 0, 4, 0, 9, 0, 4, 9, 0]);

suc = [
   {2, 3, 4},
   {40},
   {9, 20, 5},
   {16, 21, 6},
   {11, 12},
   {8, 25, 7},
   {24, 10, 13},
   {80, 86, 70},
   {44, 37, 15},
   {14, 30},
   {26, 19, 55},
   {48, 53, 47},
   {17, 36, 57},
   {18, 27, 74},
   {32},
   {38},
   {69},
   {89},
   {89, 54},
   {78},
   {34, 22, 23},
   {29, 46, 31},
   {51, 85},
   {33, 35, 28},
   {72, 90},
   {88},
   {49},
   {50},
   {41, 67, 45},
   {50},
   {43},
   {66, 59, 39},
   {63},
   {70},
   {88, 43},
   {48},
   {83},
   {80},
   {61},
   {64},
   {65, 42, 51},
   {82},
   {87},
   {68, 69},
   {61},
   {72, 52},
   {81, 58},
   {56},
   {62},
   {75},
   {54, 63},
   {67},
   {74, 62, 79},
   {59},
   {60},
   {59},
   {82, 83},
   {77},
   {60},
   {64},
   {71},
   {68},
   {89},
   {76},
   {85},
   {73},
   {70},
   {76},
   {76},
   {81},
   {91},
   {73},
   {88},
   {77},
   {80},
   {86},
   {82},
   {87},
   {81},
   {91},
   {83},
   {84},
   {84},
   {85},
   {90},
   {87},
   {90},
   {91},
   {92},
   {92},
   {92},
   {  } ];

deadline = array2d(1..92, 1..3, [5, 0, 0, 6, 2, 1, 7, 5, 1, 8, 2, 5, 10, 3, 0, 12, 0, 0, 14, 2, 0, 17, 2, 2, 20, 0, 5, 23, 2, 1, 28, 0, 5, 28, 5, 3, 28, 2, 1, 29, 2, 0, 33, 4, 3, 34, 0, 0, 34, 0, 0, 35, 4, 0, 39, 0, 0, 41, 4, 0, 43, 2, 1, 44, 2, 3, 52, 3, 4, 54, 1, 3, 55, 5, 2, 58, 3, 3, 63, 0, 4, 66, 2, 1, 68, 3, 5, 68, 3, 4, 73, 4, 3, 79, 1, 3, 81, 0, 1, 81, 2, 4, 83, 0, 1, 91, 5, 1, 92, 4, 2, 92, 0, 0, 97, 5, 4, 99, 5, 2, 116, 5, 0, 118, 1, 1, 120, 2, 5, 120, 3, 1, 123, 3, 2, 123, 5, 1, 125, 0, 5, 128, 5, 1, 129, 5, 3, 130, 4, 3, 135, 5, 5, 138, 0, 1, 140, 3, 1, 142, 0, 4, 144, 4, 3, 145, 5, 3, 145, 2, 1, 146, 0, 5, 146, 3, 3, 151, 5, 1, 151, 4, 2, 154, 4, 4, 155, 5, 4, 161, 3, 4, 162, 3, 0, 167, 3, 1, 167, 2, 3, 169, 0, 2, 169, 3, 1, 177, 5, 2, 178, 1, 3, 178, 4, 3, 179, 3, 2, 182, 3, 3, 184, 1, 0, 185, 3, 1, 185, 4, 5, 185, 4, 0, 186, 5, 0, 190, 3, 4, 194, 4, 0, 198, 5, 2, 203, 5, 4, 211, 0, 0, 214, 5, 5, 214, 2, 2, 215, 5, 0, 218, 1, 4, 218, 1, 2, 223, 4, 3, 226, 4, 1, 234, 1, 3]);
