n_res = 4;
rc = [ 27, 25, 60, 20 ];
n_tasks = 92;
d = [0, 5, 10, 4, 9, 8, 5, 9, 7, 7, 10, 1, 6, 9, 2, 10, 6, 9, 7, 3, 8, 2, 7, 1, 5, 6, 3, 1, 10, 1, 9, 4, 3, 10, 9, 1, 3, 6, 5, 5, 10, 6, 4, 1, 6, 5, 4, 2, 3, 9, 1, 1, 9, 2, 7, 5, 10, 4, 4, 6, 4, 2, 7, 1, 8, 9, 7, 8, 1, 4, 6, 10, 8, 4, 9, 6, 10, 2, 8, 1, 7, 10, 8, 3, 1, 8, 1, 3, 1, 3, 10, 0];
rr = array2d(1..4, 1..92, [0, 0, 0, 0, 0, 0, 9, 2, 7, 0, 5, 0, 10, 7, 0, 0, 0, 2, 0, 0, 0, 0, 0, 6, 0, 0, 0, 9, 8, 0, 0, 0, 0, 0, 0, 5, 0, 0, 9, 0, 0, 0, 0, 5, 0, 0, 0, 0, 0, 0, 0, 8, 0, 0, 0, 0, 0, 0, 0, 6, 3, 0, 4, 0, 0, 0, 5, 0, 0, 0, 0, 0, 0, 0, 0, 0, 5, 0, 0, 0, 0, 0, 0, 6, 0, 7, 0, 0, 0, 0, 0, 0, 0, 0, 0, 0, 0, 0, 0, 0, 0, 0, 0, 0, 0, 0, 0, 8, 0, 0, 0, 0, 0, 6, 0, 0, 0, 0, 1, 0, 0, 7, 10, 0, 0, 4, 10, 0, 0, 0, 0, 0, 0, 0, 0, 0, 0, 0, 0, 0, 0, 2, 0, 0, 0, 0, 0, 0, 0, 0, 0, 0, 0, 0, 0, 2, 0, 0, 0, 0, 0, 0, 0, 10, 0, 0, 9, 0, 0, 0, 0, 5, 2, 8, 9, 0, 4, 0, 0, 0, 0, 7, 0, 0, 0, 0, 1, 0, 8, 0, 0, 0, 0, 5, 0, 0, 0, 0, 4, 0, 7, 0, 8, 2, 3, 0, 3, 0, 0, 0, 0, 0, 0, 0, 0, 6, 9, 0, 0, 0, 7, 9, 0, 0, 4, 0, 6, 0, 7, 7, 0, 7, 7, 0, 2, 0, 9, 0, 3, 0, 9, 0, 0, 0, 0, 0, 0, 0, 3, 3, 0, 7, 0, 0, 10, 0, 0, 0, 0, 10, 0, 4, 0, 0, 0, 0, 0, 0, 0, 0, 0, 8, 0, 0, 0, 0, 0, 8, 0, 4, 0, 3, 0, 0, 0, 0, 0, 4, 0, 0, 0, 0, 0, 0, 0, 0, 0, 0, 0, 0, 1, 9, 0, 0, 0, 0, 0, 0, 0, 0, 0, 0, 0, 0, 0, 1, 0, 4, 0, 0, 0, 0, 2, 0, 0, 0, 0, 0, 0, 1, 0, 3, 0, 7, 2, 0, 0, 8, 0, 0, 0, 0, 0, 0, 1, 7, 0, 0, 8, 7, 0, 0, 0, 0, 5, 0, 0, 0, 0, 0, 0, 0, 5, 0, 10, 0, 10, 0]);

suc = [
   {2, 3, 4},
   {11, 5, 7},
   {36, 13},
   {44, 14},
   {8, 9, 6},
   {17, 41, 15},
   {10, 12, 77},
   {19},
   {12, 21},
   {39},
   {35},
   {42},
   {74, 22},
   {16, 24, 66},
   {65, 25, 69},
   {18, 76},
   {28, 53},
   {49, 26},
   {20},
   {31},
   {75},
   {38, 30, 23},
   {33, 83, 52},
   {61, 55},
   {27, 37, 46},
   {29},
   {60},
   {43, 77},
   {32, 34, 45},
   {90},
   {62, 46},
   {47},
   {50, 54},
   {54},
   {56, 81},
   {47},
   {40, 39},
   {71},
   {66},
   {80, 70},
   {58},
   {43, 47},
   {69},
   {48, 60, 68},
   {48},
   {51},
   {54},
   {72},
   {64},
   {59, 87, 63},
   {53},
   {57},
   {68},
   {82},
   {86},
   {65},
   {59},
   {78},
   {88},
   {66, 67},
   {87},
   {91},
   {78, 79},
   {69},
   {85},
   {87},
   {79},
   {74},
   {88},
   {73, 85},
   {72},
   {79},
   {83},
   {77},
   {78},
   {84},
   {84},
   {90},
   {81, 91, 85},
   {83},
   {89},
   {86},
   {88, 84},
   {91},
   {86},
   {89},
   {90},
   {89},
   {92},
   {92},
   {92},
   {  } ];

deadline = array2d(1..92, 1..3, [1, 4, 1, 2, 3, 0, 4, 0, 1, 8, 2, 5, 11, 2, 1, 12, 3, 1, 16, 3, 4, 17, 4, 1, 19, 5, 3, 21, 2, 2, 23, 4, 1, 24, 4, 2, 25, 5, 2, 29, 5, 1, 29, 3, 0, 30, 3, 4, 32, 2, 2, 42, 4, 1, 47, 0, 0, 48, 2, 0, 50, 1, 1, 56, 1, 2, 58, 0, 1, 62, 4, 3, 65, 2, 0, 68, 1, 5, 69, 1, 2, 70, 5, 1, 72, 1, 2, 75, 3, 1, 78, 0, 2, 81, 4, 1, 81, 3, 5, 81, 1, 3, 82, 5, 3, 97, 4, 3, 104, 2, 0, 104, 5, 2, 109, 4, 0, 111, 5, 3, 111, 1, 5, 112, 2, 2, 112, 3, 0, 112, 5, 3, 114, 5, 1, 118, 0, 4, 120, 3, 2, 121, 1, 4, 123, 0, 3, 125, 3, 0, 127, 0, 1, 128, 4, 4, 128, 1, 5, 144, 0, 0, 146, 2, 2, 149, 0, 4, 150, 5, 2, 152, 2, 2, 155, 0, 3, 157, 4, 3, 157, 4, 2, 158, 1, 4, 160, 2, 5, 169, 1, 4, 172, 2, 5, 176, 3, 3, 177, 0, 1, 178, 1, 2, 178, 4, 4, 181, 2, 2, 181, 4, 3, 184, 5, 0, 184, 2, 0, 184, 2, 1, 186, 2, 5, 193, 5, 0, 193, 3, 0, 193, 4, 2, 196, 3, 0, 196, 3, 0, 196, 0, 1, 202, 5, 4, 203, 0, 1, 205, 4, 0, 206, 3, 3, 207, 4, 3, 207, 0, 4, 207, 5, 3, 208, 0, 0, 221, 5, 0, 221, 2, 2, 224, 4, 5]);
