n_res = 4;
rc = [ 48, 56, 47, 61 ];
n_tasks = 92;
d = [0, 9, 1, 10, 5, 9, 5, 3, 4, 10, 6, 5, 2, 2, 9, 3, 4, 3, 8, 4, 3, 6, 8, 10, 5, 3, 5, 6, 6, 7, 9, 4, 1, 5, 10, 5, 4, 3, 1, 6, 7, 8, 3, 1, 2, 7, 7, 1, 3, 6, 4, 9, 6, 10, 6, 5, 1, 2, 7, 3, 2, 10, 6, 2, 9, 7, 9, 3, 6, 7, 8, 6, 4, 7, 6, 10, 2, 10, 7, 5, 7, 4, 9, 1, 4, 5, 9, 8, 8, 8, 2, 0];
rr = array2d(1..4, 1..92, [0, 5, 3, 9, 2, 3, 9, 6, 7, 6, 2, 2, 8, 7, 10, 2, 6, 7, 2, 1, 3, 7, 10, 2, 1, 7, 8, 7, 9, 7, 4, 1, 1, 8, 5, 9, 1, 8, 4, 10, 4, 4, 8, 10, 5, 2, 9, 5, 8, 3, 3, 3, 7, 3, 8, 3, 3, 4, 10, 10, 6, 5, 4, 5, 2, 5, 3, 2, 10, 7, 2, 9, 4, 4, 6, 10, 10, 9, 7, 10, 4, 8, 5, 5, 10, 5, 4, 8, 6, 7, 6, 0, 0, 8, 2, 7, 2, 7, 5, 3, 7, 2, 9, 5, 6, 6, 2, 5, 9, 1, 7, 1, 4, 10, 9, 7, 9, 2, 2, 9, 6, 6, 4, 7, 4, 1, 5, 8, 5, 7, 4, 4, 2, 7, 7, 2, 9, 6, 8, 3, 6, 6, 4, 6, 6, 5, 9, 8, 9, 8, 1, 10, 3, 3, 3, 2, 6, 7, 10, 5, 4, 6, 7, 9, 7, 1, 9, 10, 6, 3, 4, 7, 1, 10, 6, 9, 2, 2, 9, 7, 6, 6, 9, 0, 0, 6, 7, 7, 8, 4, 6, 5, 5, 3, 5, 8, 3, 9, 10, 8, 7, 5, 3, 3, 2, 6, 4, 8, 10, 4, 4, 2, 4, 6, 8, 1, 3, 6, 4, 8, 7, 5, 1, 6, 2, 2, 8, 3, 9, 2, 6, 7, 2, 2, 1, 8, 7, 5, 9, 10, 6, 8, 9, 3, 8, 7, 5, 2, 2, 7, 8, 8, 7, 3, 3, 9, 9, 2, 5, 2, 1, 10, 4, 10, 8, 3, 4, 1, 2, 1, 1, 2, 10, 3, 6, 0, 0, 8, 7, 1, 7, 4, 8, 2, 2, 9, 2, 4, 7, 2, 10, 8, 8, 9, 10, 3, 8, 4, 9, 5, 8, 5, 10, 9, 6, 3, 8, 3, 9, 3, 6, 4, 7, 5, 10, 5, 10, 4, 5, 3, 1, 5, 1, 9, 10, 7, 9, 7, 9, 6, 5, 3, 8, 10, 6, 1, 3, 1, 3, 1, 6, 9, 8, 4, 6, 4, 8, 3, 6, 6, 4, 6, 10, 9, 10, 4, 9, 9, 1, 2, 2, 4, 6, 5, 1, 7, 9, 0]);

suc = [
   {2, 3, 4},
   {9, 22, 7},
   {11, 5, 23},
   {10, 6, 15},
   {30},
   {8, 33, 20},
   {12, 13, 14},
   {42, 35, 39},
   {58},
   {34, 50},
   {18, 31},
   {17, 25, 57},
   {16},
   {24, 31},
   {59, 76, 54},
   {65, 74, 29},
   {27, 19},
   {40},
   {85},
   {43, 21, 38},
   {81, 46},
   {83, 51, 63},
   {80, 41, 78},
   {26, 28, 36},
   {82},
   {75, 61},
   {37, 47},
   {49},
   {32, 70},
   {69},
   {89, 68},
   {66, 79},
   {70},
   {48, 49},
   {64},
   {44},
   {44, 86},
   {45, 62},
   {58, 47},
   {56},
   {52},
   {49},
   {50},
   {52},
   {71},
   {84, 53},
   {56},
   {55},
   {72, 55},
   {66},
   {85},
   {59, 77},
   {67},
   {80},
   {64},
   {59},
   {60},
   {60},
   {69},
   {88},
   {64},
   {68},
   {77},
   {73},
   {86},
   {69},
   {70},
   {80},
   {85},
   {75},
   {77},
   {86},
   {91},
   {88},
   {79},
   {82},
   {82, 90},
   {87},
   {83},
   {81},
   {90},
   {91},
   {87},
   {88, 90},
   {89},
   {87},
   {89},
   {91},
   {92},
   {92},
   {92},
   {  } ];

deadline = array2d(1..92, 1..3, [2, 5, 4, 2, 5, 0, 5, 4, 1, 6, 5, 0, 8, 4, 0, 9, 1, 3, 11, 5, 1, 11, 3, 1, 15, 0, 0, 22, 1, 5, 22, 5, 2, 23, 4, 5, 27, 0, 1, 27, 4, 3, 31, 1, 4, 33, 3, 4, 35, 0, 2, 36, 3, 1, 39, 4, 0, 40, 1, 3, 41, 1, 3, 42, 1, 1, 46, 2, 2, 47, 4, 0, 47, 4, 3, 50, 2, 2, 52, 3, 2, 53, 0, 3, 56, 3, 3, 58, 0, 2, 64, 3, 3, 66, 3, 4, 72, 3, 2, 74, 2, 2, 76, 0, 0, 76, 0, 4, 78, 4, 5, 83, 5, 5, 87, 0, 5, 89, 3, 4, 89, 2, 0, 90, 2, 4, 100, 5, 0, 100, 5, 4, 103, 5, 1, 104, 2, 4, 107, 2, 0, 118, 5, 5, 126, 1, 4, 129, 0, 2, 132, 5, 3, 136, 2, 2, 139, 2, 1, 139, 1, 2, 141, 0, 2, 141, 1, 5, 142, 1, 2, 143, 2, 0, 148, 2, 2, 154, 5, 3, 156, 1, 5, 159, 3, 4, 161, 2, 0, 165, 4, 1, 167, 4, 0, 168, 2, 1, 172, 1, 0, 175, 2, 0, 176, 5, 0, 176, 3, 1, 180, 4, 1, 193, 4, 5, 195, 2, 1, 197, 3, 0, 198, 1, 5, 199, 2, 3, 199, 4, 0, 200, 2, 2, 205, 4, 2, 206, 0, 3, 215, 4, 3, 216, 1, 1, 216, 2, 1, 220, 1, 3, 223, 1, 3, 226, 5, 4, 226, 5, 2, 227, 0, 1, 232, 0, 4, 233, 2, 2, 234, 2, 0, 234, 2, 2]);
