n_res = 4;
rc = [ 65, 71, 79, 64 ];
n_tasks = 92;
d = [0, 9, 8, 7, 5, 1, 7, 6, 9, 10, 1, 9, 8, 1, 10, 8, 3, 3, 4, 10, 5, 3, 2, 9, 10, 7, 5, 9, 1, 2, 4, 7, 1, 3, 2, 3, 2, 10, 7, 3, 7, 9, 10, 5, 3, 5, 9, 1, 8, 7, 6, 7, 10, 6, 2, 5, 8, 4, 2, 8, 9, 8, 7, 1, 1, 9, 10, 5, 7, 5, 1, 7, 4, 3, 10, 6, 6, 7, 8, 6, 8, 4, 8, 3, 4, 5, 10, 4, 7, 1, 1, 0];
rr = array2d(1..4, 1..92, [0, 1, 7, 6, 5, 6, 3, 9, 10, 0, 7, 0, 7, 10, 10, 3, 0, 10, 9, 5, 6, 8, 0, 8, 5, 3, 7, 0, 10, 6, 5, 4, 0, 0, 4, 2, 5, 4, 0, 2, 5, 2, 9, 0, 10, 5, 8, 5, 3, 6, 2, 3, 9, 0, 3, 0, 1, 1, 5, 10, 2, 3, 10, 8, 3, 3, 0, 10, 1, 6, 2, 10, 1, 5, 5, 9, 4, 10, 4, 4, 7, 6, 0, 0, 7, 7, 0, 2, 0, 4, 9, 0, 0, 4, 5, 0, 4, 0, 2, 9, 8, 0, 0, 7, 3, 0, 0, 0, 10, 5, 0, 10, 6, 0, 8, 5, 7, 3, 4, 7, 9, 2, 1, 0, 10, 10, 8, 6, 3, 6, 0, 4, 4, 0, 0, 5, 0, 6, 0, 4, 10, 6, 4, 4, 9, 0, 2, 6, 0, 5, 8, 6, 4, 0, 0, 9, 0, 7, 0, 10, 5, 8, 0, 0, 7, 0, 0, 0, 0, 2, 5, 6, 1, 7, 2, 7, 8, 4, 2, 9, 6, 6, 2, 0, 0, 5, 0, 3, 3, 10, 0, 0, 0, 0, 0, 9, 4, 0, 2, 7, 9, 8, 10, 0, 5, 4, 10, 0, 6, 7, 4, 10, 5, 7, 4, 5, 9, 3, 6, 0, 9, 1, 4, 4, 8, 8, 3, 6, 7, 4, 5, 1, 3, 10, 10, 10, 2, 4, 4, 8, 8, 0, 10, 2, 4, 10, 5, 0, 8, 8, 10, 9, 4, 10, 7, 10, 4, 9, 1, 7, 3, 9, 5, 10, 10, 10, 0, 4, 0, 5, 1, 0, 0, 10, 5, 0, 0, 0, 5, 8, 7, 0, 0, 1, 10, 9, 0, 7, 1, 0, 8, 0, 3, 1, 8, 4, 4, 0, 1, 0, 5, 6, 0, 1, 5, 0, 3, 9, 3, 5, 9, 0, 10, 5, 8, 8, 1, 10, 8, 6, 0, 9, 0, 5, 4, 0, 0, 0, 3, 0, 9, 0, 2, 9, 6, 4, 2, 0, 4, 5, 6, 9, 0, 0, 0, 9, 5, 7, 9, 4, 0, 0, 0, 8, 0, 0, 0, 10, 5, 3, 1, 0, 10, 5, 0, 10, 9, 0]);

suc = [
   {2, 3, 4},
   {33, 50},
   {20, 5, 23},
   {8, 9, 6},
   {16, 11, 14},
   {55, 30, 7},
   {48, 54},
   {10, 12, 13},
   {17, 42, 57},
   {34, 59},
   {43},
   {44, 68},
   {37, 19, 21},
   {18, 26, 15},
   {73, 44, 47},
   {91, 22},
   {89, 34, 51},
   {58, 27, 47},
   {40, 51},
   {24},
   {72, 74, 30},
   {25, 43, 28},
   {32},
   {49, 36, 29},
   {31},
   {88},
   {35, 45},
   {68, 85},
   {80, 57},
   {83},
   {85},
   {81, 66, 71},
   {61},
   {86, 69, 46},
   {41, 69, 49},
   {40, 90, 39},
   {44, 38, 55},
   {72, 76},
   {69},
   {52, 85, 60},
   {59},
   {56, 49, 45},
   {66},
   {89},
   {70, 46},
   {65, 77},
   {57, 60},
   {80},
   {64, 71, 63},
   {61, 68, 53},
   {72},
   {53},
   {87},
   {56},
   {58},
   {73, 62},
   {83, 67, 59},
   {82},
   {81, 66, 75},
   {62},
   {77, 70},
   {67},
   {83, 70, 79},
   {65},
   {75},
   {82, 77},
   {81, 75, 79},
   {76},
   {79},
   {73, 78},
   {74, 76},
   {80},
   {82},
   {84},
   {91},
   {86, 78},
   {78},
   {90},
   {91},
   {84},
   {87},
   {87},
   {84},
   {86},
   {88},
   {90},
   {88},
   {89},
   {92},
   {92},
   {92},
   {  } ];

deadline = array2d(1..92, 1..3, [5, 5, 2, 6, 2, 1, 7, 0, 3, 9, 0, 0, 10, 1, 5, 10, 2, 0, 13, 1, 1, 16, 2, 3, 18, 3, 1, 18, 3, 5, 20, 4, 4, 21, 1, 0, 23, 0, 2, 26, 5, 0, 29, 4, 4, 30, 4, 4, 31, 2, 0, 35, 5, 3, 39, 0, 4, 39, 4, 2, 40, 3, 1, 42, 0, 3, 46, 2, 2, 49, 1, 3, 51, 4, 1, 52, 0, 0, 62, 4, 3, 62, 5, 5, 65, 3, 1, 65, 0, 4, 70, 2, 1, 73, 5, 4, 76, 5, 4, 78, 2, 3, 82, 5, 0, 83, 2, 4, 83, 2, 2, 86, 0, 5, 88, 5, 5, 89, 1, 1, 91, 1, 1, 91, 5, 2, 92, 4, 4, 92, 4, 2, 92, 0, 0, 93, 3, 3, 96, 2, 0, 97, 3, 5, 97, 3, 1, 100, 5, 5, 102, 5, 2, 104, 0, 5, 104, 0, 0, 107, 1, 3, 110, 4, 0, 111, 0, 2, 113, 1, 3, 115, 2, 5, 115, 4, 4, 116, 0, 1, 126, 4, 1, 126, 0, 5, 130, 0, 3, 130, 0, 1, 133, 2, 3, 134, 0, 1, 135, 3, 3, 136, 1, 3, 143, 2, 1, 144, 2, 0, 144, 3, 2, 146, 1, 2, 149, 4, 0, 149, 1, 1, 151, 3, 5, 153, 0, 0, 158, 0, 1, 160, 3, 2, 167, 2, 0, 168, 0, 3, 168, 3, 4, 170, 5, 2, 182, 1, 0, 183, 5, 5, 193, 2, 2, 197, 2, 3, 198, 3, 3, 203, 1, 1, 211, 3, 1, 213, 2, 3, 215, 4, 1, 216, 3, 3]);
