n_res = 4;
rc = [ 61, 45, 43, 69 ];
n_tasks = 92;
d = [0, 8, 4, 9, 10, 8, 10, 7, 9, 9, 2, 3, 6, 9, 2, 4, 2, 7, 4, 1, 10, 3, 1, 6, 10, 8, 6, 2, 4, 3, 7, 5, 1, 3, 3, 4, 5, 6, 7, 9, 8, 1, 6, 10, 6, 2, 5, 7, 7, 8, 8, 5, 6, 9, 5, 10, 4, 1, 9, 5, 4, 7, 2, 6, 6, 2, 6, 8, 2, 6, 8, 9, 6, 7, 7, 3, 8, 6, 7, 1, 8, 8, 2, 8, 2, 3, 3, 5, 8, 4, 8, 0];
rr = array2d(1..4, 1..92, [0, 0, 0, 0, 7, 1, 2, 3, 6, 0, 0, 10, 7, 0, 3, 1, 4, 4, 0, 2, 0, 0, 5, 3, 5, 0, 0, 10, 1, 0, 0, 0, 0, 7, 2, 0, 5, 10, 9, 0, 0, 0, 0, 0, 9, 0, 0, 0, 0, 10, 10, 1, 0, 7, 7, 9, 0, 5, 0, 0, 8, 0, 6, 4, 0, 9, 7, 6, 0, 7, 6, 9, 7, 8, 0, 2, 10, 0, 8, 0, 8, 0, 0, 1, 0, 10, 7, 0, 10, 0, 0, 0, 0, 0, 1, 5, 3, 0, 10, 0, 0, 0, 0, 0, 0, 5, 2, 4, 10, 0, 6, 0, 4, 5, 6, 5, 5, 0, 0, 0, 0, 5, 4, 0, 0, 4, 2, 0, 0, 0, 2, 6, 0, 0, 5, 2, 10, 0, 1, 0, 0, 0, 0, 2, 6, 0, 0, 8, 0, 10, 0, 0, 0, 5, 0, 0, 0, 10, 0, 4, 0, 4, 0, 5, 1, 2, 2, 5, 5, 9, 0, 0, 0, 8, 3, 0, 0, 7, 0, 4, 0, 0, 8, 0, 0, 10, 3, 8, 0, 10, 10, 0, 1, 0, 0, 0, 1, 5, 10, 0, 0, 0, 0, 9, 0, 0, 0, 1, 0, 0, 4, 7, 5, 0, 0, 5, 2, 0, 0, 3, 2, 2, 0, 0, 8, 8, 8, 0, 0, 3, 0, 0, 5, 5, 1, 0, 1, 5, 8, 1, 0, 3, 10, 9, 0, 0, 0, 0, 5, 9, 0, 10, 4, 0, 0, 3, 1, 0, 5, 0, 0, 1, 9, 3, 0, 0, 0, 0, 5, 0, 0, 0, 0, 5, 7, 0, 0, 0, 0, 1, 7, 2, 3, 0, 0, 4, 6, 0, 9, 0, 4, 1, 9, 5, 0, 8, 7, 4, 0, 7, 0, 7, 5, 4, 5, 0, 9, 0, 9, 0, 0, 0, 6, 0, 8, 9, 5, 0, 0, 0, 10, 3, 0, 9, 0, 0, 0, 0, 9, 6, 0, 0, 7, 0, 3, 0, 0, 0, 0, 3, 0, 10, 0, 0, 9, 0, 1, 0, 6, 0, 0, 0, 9, 0, 9, 0, 0, 0, 3, 0, 0, 0, 0, 0, 6, 10, 0, 0]);

suc = [
   {2, 3, 4},
   {12, 5, 22},
   {15, 14, 7},
   {50, 44, 54},
   {8, 68, 6},
   {43, 10, 11},
   {9, 29},
   {46, 17, 25},
   {20, 13, 87},
   {27, 19, 38},
   {16, 26, 62},
   {57, 21, 39},
   {23},
   {28, 45},
   {18, 53, 31},
   {65, 36, 30},
   {56},
   {72},
   {77, 37},
   {50},
   {34, 36},
   {24, 41, 32},
   {33, 63},
   {49, 42},
   {32},
   {37},
   {59, 35},
   {60},
   {48, 47},
   {75},
   {40, 70, 55},
   {86},
   {79},
   {47},
   {81},
   {66, 52},
   {60, 69},
   {50},
   {58},
   {59},
   {44},
   {71},
   {84, 85},
   {64, 51},
   {67},
   {54},
   {73},
   {91},
   {78},
   {73},
   {88},
   {91, 70},
   {78},
   {61},
   {76},
   {58},
   {62},
   {69},
   {76},
   {87},
   {86},
   {71},
   {79},
   {83},
   {80},
   {85},
   {74, 69},
   {82},
   {88, 76},
   {71},
   {80},
   {78},
   {80},
   {81, 90},
   {82},
   {83},
   {79},
   {87},
   {88},
   {81},
   {85},
   {91, 84},
   {90},
   {90},
   {86},
   {89},
   {89},
   {89},
   {92},
   {92},
   {92},
   {  } ];

deadline = array2d(1..92, 1..3, [2, 3, 1, 5, 4, 2, 5, 0, 5, 9, 0, 1, 10, 0, 2, 12, 2, 0, 12, 5, 0, 21, 1, 0, 21, 5, 1, 22, 2, 5, 23, 1, 3, 24, 5, 2, 27, 4, 5, 27, 2, 1, 31, 0, 3, 32, 3, 2, 34, 2, 3, 36, 0, 0, 37, 2, 5, 38, 0, 4, 40, 4, 3, 40, 5, 3, 41, 2, 1, 43, 4, 4, 44, 5, 3, 45, 3, 2, 45, 4, 0, 46, 3, 3, 47, 5, 1, 49, 1, 5, 49, 1, 0, 55, 1, 2, 57, 4, 0, 60, 1, 0, 64, 5, 2, 64, 3, 5, 68, 1, 4, 69, 1, 0, 71, 4, 1, 72, 3, 2, 76, 2, 5, 80, 2, 3, 83, 4, 3, 87, 0, 4, 92, 1, 3, 93, 5, 3, 93, 4, 3, 94, 2, 4, 94, 4, 3, 97, 3, 5, 101, 3, 4, 104, 1, 1, 105, 3, 5, 106, 5, 5, 109, 2, 2, 110, 4, 1, 112, 3, 1, 114, 0, 5, 115, 3, 5, 117, 4, 3, 121, 3, 2, 125, 5, 3, 127, 3, 5, 131, 0, 0, 144, 0, 3, 146, 0, 1, 147, 3, 0, 148, 5, 2, 150, 4, 0, 155, 4, 0, 156, 0, 4, 156, 0, 5, 157, 5, 3, 158, 5, 2, 159, 0, 0, 160, 3, 0, 162, 1, 5, 163, 2, 2, 163, 3, 1, 169, 3, 0, 170, 4, 3, 172, 5, 0, 174, 1, 5, 176, 0, 0, 177, 1, 4, 181, 4, 4, 184, 0, 2, 186, 3, 4, 186, 3, 5, 189, 4, 5, 191, 3, 3, 192, 3, 5]);
