n_res = 4;
rc = [ 32, 31, 32, 29 ];
n_tasks = 92;
d = [0, 5, 7, 3, 9, 9, 3, 6, 10, 10, 5, 9, 8, 3, 8, 7, 2, 3, 2, 2, 3, 7, 1, 5, 2, 9, 10, 8, 4, 7, 3, 6, 10, 3, 3, 3, 2, 6, 3, 7, 5, 8, 6, 7, 6, 9, 9, 8, 1, 1, 1, 5, 6, 10, 3, 7, 3, 8, 4, 1, 8, 10, 2, 8, 5, 6, 7, 1, 1, 8, 7, 1, 4, 3, 7, 1, 8, 2, 4, 6, 6, 5, 8, 6, 1, 6, 3, 4, 6, 8, 9, 0];
rr = array2d(1..4, 1..92, [0, 8, 0, 1, 4, 0, 0, 7, 10, 8, 4, 2, 6, 0, 3, 0, 1, 7, 1, 10, 3, 3, 0, 1, 7, 9, 6, 7, 1, 0, 5, 0, 3, 8, 0, 5, 10, 6, 7, 4, 0, 10, 10, 2, 10, 0, 6, 7, 5, 3, 6, 3, 6, 5, 5, 4, 6, 2, 0, 0, 0, 3, 0, 6, 3, 7, 0, 5, 10, 0, 0, 0, 4, 2, 0, 9, 2, 0, 4, 1, 10, 0, 10, 0, 2, 10, 0, 0, 8, 3, 0, 0, 0, 8, 7, 0, 0, 3, 6, 6, 2, 8, 9, 4, 0, 4, 1, 0, 8, 10, 2, 10, 0, 0, 7, 0, 6, 0, 8, 6, 4, 0, 9, 8, 10, 0, 10, 0, 10, 10, 1, 0, 0, 3, 6, 6, 10, 3, 0, 0, 0, 3, 6, 8, 4, 0, 3, 0, 10, 4, 7, 4, 0, 0, 0, 2, 10, 2, 0, 2, 7, 9, 0, 0, 0, 0, 9, 9, 0, 9, 1, 4, 4, 7, 6, 8, 7, 5, 9, 9, 1, 8, 5, 0, 0, 0, 9, 8, 2, 6, 0, 0, 7, 1, 0, 8, 8, 6, 8, 5, 2, 9, 10, 9, 5, 1, 0, 0, 10, 0, 6, 10, 5, 6, 0, 0, 3, 2, 5, 4, 5, 10, 7, 1, 4, 4, 3, 0, 6, 3, 1, 3, 8, 1, 8, 6, 9, 10, 10, 0, 0, 3, 1, 8, 1, 10, 10, 0, 7, 5, 8, 9, 0, 2, 7, 3, 6, 9, 0, 3, 0, 5, 10, 9, 2, 8, 6, 9, 8, 0, 0, 6, 1, 2, 9, 0, 0, 1, 3, 5, 1, 0, 6, 0, 0, 10, 1, 1, 6, 0, 0, 3, 8, 4, 0, 0, 1, 3, 1, 8, 4, 1, 5, 3, 3, 7, 8, 6, 9, 10, 0, 6, 3, 3, 9, 4, 3, 6, 0, 7, 9, 0, 8, 0, 7, 9, 3, 4, 6, 5, 0, 6, 3, 0, 8, 2, 0, 0, 3, 5, 4, 6, 7, 9, 3, 6, 5, 2, 4, 5, 2, 1, 5, 4, 0, 0, 0, 5, 1, 7, 2, 8, 10, 6, 8, 10, 7, 0]);

suc = [
   {2, 3, 4},
   {9, 6, 7},
   {8, 10, 5},
   {40, 57, 45},
   {11, 69, 21},
   {48, 18, 52},
   {78, 14, 31},
   {17, 74, 13},
   {12, 37, 62},
   {52, 29, 15},
   {24, 33, 26},
   {61, 14, 22},
   {16, 25, 43},
   {46, 63},
   {59, 19, 36},
   {56, 53, 21},
   {67, 28, 79},
   {60, 53, 22},
   {35, 20, 28},
   {58, 23},
   {31},
   {27, 54, 31},
   {70, 34, 38},
   {32, 80, 68},
   {41, 46, 70},
   {64, 42},
   {50, 51, 90},
   {30},
   {42},
   {33, 46},
   {89, 73, 44},
   {56, 53, 39},
   {80, 44, 60},
   {57, 44, 47},
   {48, 49, 73},
   {40, 65, 47},
   {58, 55},
   {48, 57, 47},
   {42, 70, 87},
   {74, 43, 68},
   {65, 75, 59},
   {63},
   {56, 88, 69},
   {66},
   {64, 49, 55},
   {76, 55},
   {64, 54},
   {50, 67, 61},
   {50, 58, 62},
   {63},
   {75, 86, 71},
   {81, 59},
   {54},
   {91},
   {60},
   {85},
   {81, 65, 62},
   {66, 61},
   {72, 77},
   {72, 77},
   {75},
   {68, 76},
   {71},
   {66, 67, 71},
   {73, 69, 79},
   {84},
   {80, 81},
   {72, 82},
   {82, 78},
   {79},
   {74, 76},
   {84, 86},
   {85, 77},
   {91},
   {78},
   {83},
   {83, 84},
   {83, 87},
   {85},
   {82},
   {88, 87},
   {86},
   {91},
   {88},
   {90},
   {89},
   {89},
   {90},
   {92},
   {92},
   {92},
   {  } ];

deadline = array2d(1..92, 1..3, [1, 1, 1, 2, 0, 2, 2, 1, 5, 3, 5, 4, 7, 0, 2, 8, 5, 3, 13, 4, 0, 15, 1, 2, 18, 3, 0, 20, 0, 3, 21, 4, 0, 22, 2, 3, 23, 2, 2, 25, 5, 5, 29, 4, 2, 30, 2, 0, 34, 2, 2, 38, 3, 0, 41, 1, 3, 41, 0, 0, 41, 2, 2, 44, 5, 2, 45, 2, 4, 48, 0, 3, 54, 2, 1, 54, 2, 5, 60, 1, 4, 62, 4, 4, 65, 1, 3, 71, 4, 0, 74, 4, 0, 75, 2, 2, 76, 2, 2, 78, 2, 2, 83, 2, 2, 84, 3, 3, 87, 4, 2, 88, 5, 4, 88, 5, 3, 89, 0, 4, 90, 1, 3, 97, 3, 1, 98, 5, 1, 103, 0, 1, 105, 2, 1, 108, 1, 1, 114, 2, 1, 114, 3, 0, 116, 4, 4, 117, 5, 3, 119, 5, 1, 121, 0, 1, 123, 0, 2, 125, 5, 4, 127, 1, 1, 128, 4, 2, 128, 4, 4, 130, 5, 3, 134, 4, 0, 141, 0, 2, 148, 5, 5, 157, 3, 5, 158, 3, 0, 161, 4, 0, 164, 4, 4, 164, 1, 1, 166, 1, 4, 166, 0, 0, 170, 1, 5, 171, 5, 1, 171, 0, 0, 172, 5, 4, 175, 5, 1, 176, 3, 0, 176, 2, 2, 177, 1, 3, 178, 2, 4, 178, 4, 5, 180, 3, 4, 182, 5, 3, 183, 4, 0, 185, 5, 3, 191, 2, 3, 192, 4, 5, 195, 4, 2, 197, 4, 4, 199, 1, 1, 200, 2, 3, 200, 1, 1, 203, 0, 4, 204, 3, 0, 206, 1, 3]);
