n_res = 4;
rc = [ 21, 18, 19, 21 ];
n_tasks = 92;
d = [0, 1, 8, 9, 2, 7, 4, 4, 10, 3, 7, 7, 10, 7, 4, 4, 6, 6, 3, 9, 9, 8, 8, 5, 1, 3, 1, 1, 8, 5, 4, 4, 1, 7, 5, 6, 6, 1, 3, 10, 2, 5, 8, 9, 3, 10, 7, 4, 1, 7, 8, 7, 8, 6, 3, 2, 6, 5, 2, 8, 4, 7, 1, 4, 8, 8, 5, 6, 6, 1, 7, 7, 6, 10, 8, 9, 1, 7, 9, 9, 9, 2, 3, 5, 7, 8, 3, 8, 5, 2, 8, 0];
rr = array2d(1..4, 1..92, [0, 5, 0, 0, 8, 3, 10, 9, 10, 0, 0, 0, 4, 0, 4, 5, 0, 0, 1, 8, 5, 2, 4, 7, 1, 0, 0, 7, 4, 4, 3, 0, 9, 0, 6, 6, 0, 0, 0, 4, 9, 0, 6, 6, 1, 3, 9, 7, 6, 0, 0, 5, 1, 9, 5, 3, 3, 4, 1, 0, 1, 6, 2, 6, 3, 2, 1, 2, 8, 3, 6, 10, 9, 10, 1, 8, 0, 8, 2, 7, 2, 4, 2, 4, 6, 0, 3, 8, 4, 10, 5, 0, 0, 0, 0, 5, 2, 6, 2, 0, 1, 9, 0, 2, 0, 5, 2, 3, 5, 10, 0, 4, 9, 2, 0, 5, 4, 0, 2, 10, 7, 0, 7, 1, 0, 4, 7, 6, 4, 10, 9, 5, 3, 0, 3, 0, 1, 2, 0, 6, 0, 1, 5, 8, 0, 7, 3, 10, 8, 1, 0, 6, 3, 2, 2, 5, 2, 10, 1, 0, 3, 0, 0, 4, 2, 8, 2, 10, 0, 0, 7, 7, 3, 9, 1, 2, 5, 5, 0, 7, 8, 4, 7, 0, 0, 3, 1, 0, 7, 1, 0, 2, 7, 3, 4, 9, 0, 6, 0, 0, 1, 7, 2, 1, 0, 4, 0, 0, 10, 3, 10, 7, 2, 6, 0, 3, 0, 0, 0, 10, 3, 3, 0, 6, 8, 4, 7, 6, 0, 1, 4, 0, 10, 2, 5, 0, 4, 5, 4, 6, 0, 7, 6, 0, 8, 4, 2, 1, 8, 3, 7, 0, 2, 7, 7, 3, 9, 0, 2, 0, 9, 3, 2, 7, 0, 9, 1, 5, 3, 2, 2, 9, 0, 6, 3, 0, 0, 0, 6, 0, 2, 9, 4, 0, 2, 8, 3, 5, 1, 6, 8, 1, 9, 10, 7, 4, 9, 3, 3, 2, 4, 10, 10, 4, 0, 6, 6, 3, 6, 5, 7, 10, 10, 4, 1, 0, 0, 2, 3, 0, 4, 0, 6, 10, 1, 8, 2, 8, 8, 5, 6, 7, 0, 0, 4, 5, 3, 1, 1, 9, 0, 0, 0, 9, 7, 0, 0, 6, 0, 0, 1, 7, 0, 0, 0, 10, 6, 2, 1, 0, 5, 1, 8, 1, 5, 0, 0, 0]);

suc = [
   {2, 3, 4},
   {10, 5, 15},
   {9, 13, 71},
   {8, 6, 7},
   {50, 12, 38},
   {31},
   {16, 23},
   {17},
   {43, 11, 29},
   {24, 40, 48},
   {67, 14},
   {68},
   {19},
   {65},
   {26, 42, 21},
   {45},
   {18, 20},
   {28, 22, 30},
   {65, 83},
   {27, 53},
   {31},
   {25, 68},
   {33},
   {64, 34},
   {80},
   {45},
   {32},
   {37},
   {65, 36, 39},
   {41, 54},
   {85},
   {72, 78},
   {73, 61},
   {35, 53},
   {51},
   {47},
   {68},
   {86},
   {60, 46},
   {58, 53},
   {55, 47},
   {75},
   {66, 44, 45},
   {81},
   {50},
   {47},
   {52, 63},
   {49},
   {57, 62},
   {58, 59},
   {66, 69, 70},
   {85},
   {75},
   {56},
   {76},
   {74},
   {91},
   {77, 78},
   {81},
   {82, 90},
   {77},
   {75, 87},
   {88, 67},
   {88},
   {73},
   {83},
   {82},
   {84},
   {79},
   {85},
   {81},
   {74},
   {86},
   {80},
   {89, 91},
   {83},
   {82, 79},
   {80},
   {90},
   {88},
   {86},
   {89},
   {84},
   {87},
   {89},
   {87},
   {90},
   {91},
   {92},
   {92},
   {92},
   {  } ];

deadline = array2d(1..92, 1..3, [7, 1, 0, 10, 2, 5, 11, 3, 4, 11, 0, 1, 16, 1, 2, 19, 3, 4, 20, 2, 4, 20, 3, 3, 20, 5, 3, 26, 3, 3, 28, 0, 2, 34, 2, 0, 36, 2, 0, 36, 1, 1, 40, 2, 5, 43, 4, 3, 44, 1, 0, 45, 4, 4, 45, 2, 2, 47, 0, 0, 50, 1, 2, 54, 3, 2, 57, 3, 1, 58, 3, 3, 61, 1, 4, 61, 4, 3, 61, 0, 3, 62, 4, 0, 63, 0, 5, 64, 3, 5, 69, 5, 4, 74, 5, 5, 74, 3, 5, 77, 5, 2, 78, 3, 0, 79, 5, 2, 79, 5, 3, 83, 4, 5, 84, 0, 0, 86, 2, 1, 88, 0, 2, 88, 4, 0, 88, 2, 1, 92, 0, 0, 93, 5, 5, 98, 1, 3, 99, 0, 3, 100, 4, 3, 103, 3, 0, 103, 4, 0, 103, 1, 3, 106, 0, 3, 107, 0, 0, 114, 5, 1, 116, 5, 4, 117, 3, 1, 118, 5, 0, 122, 3, 0, 122, 3, 0, 124, 4, 3, 125, 5, 5, 125, 3, 0, 128, 4, 3, 128, 2, 5, 128, 3, 3, 128, 5, 4, 130, 0, 2, 130, 0, 4, 135, 0, 0, 136, 5, 4, 136, 1, 0, 139, 5, 0, 144, 0, 3, 145, 3, 0, 147, 1, 1, 152, 4, 0, 154, 3, 0, 156, 1, 3, 162, 5, 2, 162, 3, 4, 167, 0, 5, 172, 0, 0, 172, 3, 3, 172, 5, 3, 174, 1, 0, 174, 4, 2, 178, 2, 0, 181, 4, 2, 181, 3, 4, 182, 4, 2, 183, 0, 2, 187, 1, 1]);
