n_res = 4;
rc = [ 40, 41, 48, 49 ];
n_tasks = 92;
d = [0, 5, 10, 1, 8, 5, 7, 9, 1, 8, 1, 5, 5, 2, 3, 5, 9, 4, 7, 4, 4, 8, 5, 4, 2, 5, 1, 7, 6, 6, 9, 2, 2, 9, 5, 6, 4, 2, 7, 7, 4, 7, 5, 9, 5, 3, 9, 5, 6, 4, 10, 6, 9, 3, 4, 6, 3, 9, 2, 9, 8, 3, 5, 5, 10, 2, 1, 8, 4, 1, 4, 6, 8, 1, 2, 6, 3, 10, 10, 6, 10, 9, 8, 6, 6, 3, 8, 6, 7, 6, 5, 0];
rr = array2d(1..4, 1..92, [0, 8, 2, 1, 3, 10, 1, 10, 7, 5, 4, 1, 10, 8, 6, 2, 4, 4, 3, 1, 7, 4, 3, 1, 7, 1, 1, 3, 7, 2, 4, 9, 6, 7, 5, 9, 5, 5, 4, 9, 4, 8, 7, 3, 6, 4, 6, 8, 2, 7, 4, 8, 3, 10, 2, 3, 6, 9, 6, 3, 7, 5, 9, 10, 9, 2, 5, 3, 1, 8, 10, 1, 6, 8, 9, 1, 2, 3, 6, 8, 9, 7, 3, 4, 6, 2, 5, 2, 5, 5, 8, 0, 0, 8, 1, 4, 2, 8, 4, 1, 2, 1, 3, 2, 5, 8, 6, 9, 2, 8, 7, 1, 2, 6, 1, 6, 6, 6, 5, 3, 5, 3, 3, 4, 3, 4, 5, 7, 10, 1, 7, 8, 3, 7, 9, 5, 3, 8, 9, 1, 7, 7, 3, 10, 10, 9, 9, 1, 10, 1, 5, 1, 10, 8, 7, 1, 3, 2, 4, 1, 10, 1, 9, 7, 4, 7, 6, 7, 8, 5, 5, 10, 6, 5, 4, 2, 3, 9, 8, 3, 3, 2, 8, 0, 0, 10, 1, 10, 7, 1, 3, 4, 6, 10, 1, 9, 6, 9, 8, 10, 6, 2, 5, 8, 1, 10, 3, 8, 8, 9, 10, 8, 2, 3, 9, 8, 10, 10, 4, 8, 10, 5, 5, 6, 5, 8, 4, 8, 7, 6, 6, 2, 7, 4, 10, 10, 6, 4, 2, 6, 4, 1, 6, 10, 9, 4, 1, 6, 8, 3, 10, 8, 7, 5, 3, 6, 3, 8, 5, 1, 5, 1, 2, 2, 8, 4, 7, 3, 6, 8, 8, 2, 6, 5, 8, 0, 0, 3, 3, 10, 2, 1, 8, 8, 8, 5, 5, 9, 4, 9, 7, 4, 9, 7, 1, 3, 9, 8, 8, 4, 6, 6, 5, 3, 6, 2, 5, 1, 3, 5, 9, 5, 5, 6, 2, 9, 6, 2, 3, 6, 6, 8, 2, 2, 10, 5, 2, 9, 2, 5, 1, 7, 9, 6, 3, 5, 2, 6, 7, 6, 3, 2, 9, 6, 10, 8, 4, 9, 5, 2, 7, 7, 9, 8, 5, 5, 10, 10, 1, 4, 6, 8, 7, 10, 2, 4, 3, 0]);

suc = [
   {2, 3, 4},
   {29, 44, 5},
   {9, 10, 6},
   {8, 27, 13},
   {15, 14, 7},
   {17},
   {56, 67, 43},
   {16, 18, 11},
   {28, 60, 63},
   {46, 25, 22},
   {26, 12, 20},
   {66, 43, 31},
   {24, 19, 39},
   {56, 41, 38},
   {72, 42, 77},
   {76, 47, 39},
   {40, 46, 23},
   {25, 35, 21},
   {82},
   {49, 29, 38},
   {32, 91, 23},
   {65, 42, 69},
   {37},
   {82, 59},
   {34, 76, 86},
   {49, 36, 52},
   {65, 44, 30},
   {65, 51, 68},
   {40, 73, 52},
   {79},
   {57, 83, 46},
   {88, 33, 37},
   {43},
   {58, 61, 53},
   {56, 55},
   {37, 62, 55},
   {57, 42, 58},
   {40, 68, 53},
   {61, 45, 70},
   {61, 54},
   {48, 58, 82},
   {64, 78},
   {51, 79},
   {72, 55},
   {48, 49, 52},
   {51, 54, 79},
   {50, 68, 63},
   {73, 50, 60},
   {57, 75, 71},
   {80, 66, 71},
   {74},
   {59, 85},
   {60, 54},
   {70, 62},
   {76},
   {64, 59},
   {80},
   {64, 67},
   {66, 77, 63},
   {62},
   {67, 71},
   {72, 69},
   {87},
   {75, 70},
   {80, 73},
   {69},
   {81},
   {74, 78, 87},
   {91},
   {90},
   {85},
   {88, 74, 78},
   {86},
   {75},
   {84},
   {91, 77},
   {81, 83},
   {81},
   {84, 86},
   {84},
   {89},
   {89, 83},
   {87},
   {85},
   {89},
   {90},
   {88},
   {90},
   {92},
   {92},
   {92},
   {  } ];

deadline = array2d(1..92, 1..3, [4, 4, 1, 5, 4, 1, 7, 0, 0, 9, 5, 0, 9, 5, 1, 10, 0, 4, 10, 5, 3, 12, 3, 5, 16, 2, 0, 19, 1, 2, 20, 0, 4, 20, 2, 0, 26, 0, 2, 30, 2, 5, 30, 2, 1, 31, 3, 3, 33, 0, 2, 37, 1, 0, 38, 1, 4, 38, 4, 4, 41, 2, 5, 41, 5, 3, 41, 4, 2, 54, 3, 3, 59, 1, 4, 59, 0, 4, 60, 2, 1, 64, 4, 5, 65, 2, 1, 65, 2, 0, 69, 0, 3, 73, 3, 5, 73, 2, 1, 74, 1, 3, 74, 3, 1, 79, 2, 3, 80, 0, 5, 82, 3, 2, 82, 0, 1, 83, 4, 4, 84, 4, 3, 88, 0, 1, 89, 5, 0, 94, 1, 4, 94, 2, 0, 95, 5, 3, 104, 4, 5, 106, 3, 0, 109, 1, 2, 110, 4, 3, 114, 3, 2, 116, 4, 2, 116, 1, 5, 123, 4, 2, 124, 0, 3, 126, 4, 5, 126, 0, 5, 127, 5, 5, 129, 4, 2, 135, 0, 5, 138, 3, 0, 139, 4, 1, 141, 1, 3, 142, 0, 5, 143, 3, 5, 144, 3, 3, 146, 3, 2, 148, 0, 2, 149, 2, 3, 149, 3, 4, 152, 4, 0, 153, 3, 5, 167, 5, 4, 167, 0, 4, 172, 3, 4, 172, 4, 0, 179, 1, 3, 184, 0, 2, 186, 4, 2, 186, 4, 5, 188, 2, 0, 190, 0, 1, 191, 4, 0, 193, 3, 5, 196, 2, 5, 196, 4, 1, 199, 4, 1, 200, 0, 0, 203, 0, 0, 203, 2, 2, 203, 5, 0, 205, 1, 3]);
