n_res = 4;
rc = [ 38, 54, 56, 47 ];
n_tasks = 92;
d = [0, 8, 7, 7, 2, 6, 5, 6, 10, 6, 3, 9, 1, 6, 10, 1, 5, 8, 1, 9, 5, 7, 9, 7, 6, 2, 3, 4, 1, 8, 5, 1, 6, 1, 7, 7, 6, 1, 10, 9, 8, 8, 10, 2, 10, 6, 10, 4, 7, 4, 5, 3, 5, 1, 1, 10, 5, 4, 10, 9, 2, 7, 7, 1, 7, 4, 5, 4, 10, 10, 1, 10, 1, 10, 9, 10, 5, 1, 7, 5, 7, 6, 8, 9, 4, 5, 7, 4, 5, 2, 2, 0];
rr = array2d(1..4, 1..92, [0, 4, 2, 10, 0, 6, 0, 0, 0, 4, 0, 1, 0, 3, 0, 0, 10, 0, 5, 5, 0, 0, 0, 0, 9, 7, 1, 4, 0, 0, 0, 0, 0, 9, 0, 3, 0, 0, 0, 0, 0, 10, 8, 0, 0, 0, 9, 7, 8, 0, 0, 0, 0, 4, 6, 7, 0, 5, 0, 8, 0, 0, 2, 0, 9, 0, 0, 5, 0, 7, 8, 0, 0, 5, 1, 1, 0, 4, 0, 10, 0, 0, 0, 3, 0, 2, 8, 3, 9, 0, 0, 0, 0, 3, 0, 3, 2, 5, 0, 0, 4, 0, 0, 0, 0, 0, 10, 8, 0, 0, 9, 0, 3, 0, 0, 6, 9, 0, 0, 3, 0, 0, 1, 4, 9, 0, 8, 3, 9, 1, 0, 0, 6, 0, 9, 0, 3, 7, 6, 3, 6, 6, 8, 0, 9, 0, 2, 1, 0, 0, 0, 10, 5, 4, 0, 0, 7, 0, 0, 0, 8, 5, 0, 10, 6, 0, 2, 0, 9, 0, 2, 0, 6, 10, 10, 0, 10, 0, 0, 0, 0, 8, 0, 0, 0, 0, 0, 0, 0, 3, 0, 0, 8, 7, 9, 0, 0, 5, 1, 0, 0, 6, 0, 0, 0, 3, 2, 3, 10, 10, 0, 0, 5, 1, 0, 0, 7, 5, 7, 0, 7, 6, 9, 3, 0, 6, 0, 1, 4, 8, 0, 0, 8, 1, 4, 0, 7, 0, 7, 3, 4, 9, 0, 0, 10, 0, 2, 5, 0, 4, 0, 0, 7, 0, 0, 0, 0, 2, 7, 0, 8, 4, 0, 0, 0, 0, 0, 0, 0, 0, 0, 0, 0, 0, 1, 0, 0, 0, 4, 1, 0, 6, 1, 5, 0, 0, 8, 2, 2, 0, 0, 8, 9, 2, 1, 7, 10, 0, 2, 0, 7, 3, 6, 6, 0, 0, 0, 8, 4, 2, 8, 0, 4, 8, 3, 7, 6, 0, 0, 0, 0, 0, 0, 9, 0, 0, 8, 8, 0, 3, 10, 0, 4, 0, 5, 5, 0, 5, 0, 0, 2, 8, 8, 0, 0, 0, 1, 8, 7, 0, 0, 0, 0, 7, 0, 6, 0, 6, 0, 0, 3, 1, 0, 2, 0, 0, 8, 0]);

suc = [
   {2, 3, 4},
   {17, 5, 79},
   {16, 19},
   {10, 6, 7},
   {65, 20, 13},
   {8, 9, 18},
   {11, 45, 71},
   {72, 80, 21},
   {12, 47, 15},
   {48, 41},
   {29, 14, 23},
   {73, 50, 52},
   {25, 36},
   {26, 44},
   {24, 56},
   {32, 30},
   {27, 22},
   {68, 30},
   {40, 28, 53},
   {24, 35, 22},
   {88, 41, 34},
   {44},
   {42},
   {37},
   {58, 27, 52},
   {90, 60},
   {49, 83, 31},
   {41, 39},
   {73, 36},
   {81, 58, 38},
   {64, 33, 43},
   {38},
   {81},
   {75},
   {77},
   {91, 62},
   {68, 77, 62},
   {63},
   {54},
   {51},
   {59, 60},
   {46},
   {48},
   {61},
   {74, 63},
   {81},
   {82, 69},
   {61},
   {51, 85, 69},
   {59},
   {67},
   {64, 55},
   {57, 58},
   {67},
   {66, 61, 70},
   {72},
   {83, 62},
   {82, 59, 78},
   {87, 71},
   {75, 70},
   {76, 85},
   {85},
   {65, 83, 79},
   {74, 67, 68},
   {66, 76},
   {84, 69, 86},
   {88, 76},
   {89, 71},
   {80, 87},
   {77},
   {90},
   {73, 75},
   {74},
   {82},
   {79},
   {80, 78},
   {78},
   {86},
   {86},
   {90},
   {84},
   {84},
   {88},
   {87},
   {89},
   {89},
   {91},
   {91},
   {92},
   {92},
   {92},
   {  } ];

deadline = array2d(1..92, 1..3, [2, 0, 2, 5, 5, 0, 5, 5, 3, 8, 2, 1, 9, 0, 4, 14, 5, 4, 14, 4, 5, 14, 4, 4, 16, 2, 2, 17, 1, 1, 26, 2, 1, 27, 2, 1, 29, 4, 2, 32, 5, 5, 34, 3, 2, 35, 5, 3, 35, 0, 5, 36, 4, 3, 39, 2, 0, 40, 2, 1, 40, 4, 1, 41, 1, 0, 42, 1, 5, 42, 3, 0, 49, 0, 3, 50, 1, 4, 54, 2, 4, 57, 0, 4, 61, 4, 5, 61, 2, 3, 63, 1, 1, 63, 2, 5, 63, 1, 4, 63, 2, 4, 64, 1, 3, 66, 4, 0, 66, 5, 1, 68, 4, 1, 68, 0, 4, 71, 3, 5, 71, 3, 0, 73, 0, 0, 73, 4, 5, 74, 0, 5, 81, 3, 4, 82, 1, 0, 92, 3, 0, 92, 4, 3, 95, 1, 5, 100, 1, 5, 103, 2, 4, 105, 2, 4, 107, 0, 1, 109, 5, 4, 112, 0, 1, 113, 5, 2, 121, 3, 5, 122, 4, 4, 128, 5, 4, 132, 4, 4, 134, 2, 2, 135, 0, 4, 147, 2, 3, 148, 2, 4, 149, 4, 1, 150, 1, 3, 150, 2, 2, 153, 0, 2, 157, 5, 2, 161, 1, 0, 165, 1, 0, 166, 3, 2, 167, 2, 5, 167, 5, 5, 171, 2, 0, 171, 4, 0, 172, 3, 5, 175, 5, 3, 180, 4, 4, 180, 3, 3, 181, 3, 4, 181, 3, 0, 183, 3, 5, 195, 4, 4, 196, 2, 4, 209, 1, 2, 210, 2, 2, 212, 1, 4, 214, 1, 2, 215, 3, 3, 215, 4, 3, 219, 4, 4]);
