n_res = 4;
rc = [ 11, 13, 16, 14 ];
n_tasks = 92;
d = [0, 7, 10, 6, 2, 2, 1, 6, 1, 6, 4, 9, 4, 3, 4, 4, 10, 9, 10, 8, 6, 9, 8, 2, 1, 4, 7, 1, 1, 4, 9, 2, 2, 5, 10, 2, 7, 1, 4, 6, 5, 8, 6, 6, 9, 1, 7, 7, 8, 9, 10, 6, 8, 4, 2, 6, 8, 3, 5, 4, 4, 7, 5, 8, 8, 8, 8, 3, 9, 6, 8, 2, 8, 6, 6, 1, 9, 7, 8, 5, 2, 4, 4, 7, 4, 2, 9, 6, 4, 1, 9, 0];
rr = array2d(1..4, 1..92, [0, 0, 0, 0, 1, 0, 0, 0, 0, 0, 0, 0, 10, 0, 0, 8, 0, 5, 0, 0, 0, 0, 0, 0, 0, 0, 0, 4, 0, 0, 0, 6, 0, 0, 0, 9, 0, 2, 0, 2, 0, 0, 0, 0, 0, 0, 6, 0, 0, 0, 0, 0, 0, 0, 3, 0, 0, 0, 0, 0, 0, 0, 0, 0, 0, 4, 0, 6, 0, 0, 0, 0, 0, 0, 0, 0, 0, 0, 0, 0, 0, 0, 0, 7, 0, 0, 0, 0, 0, 6, 5, 0, 0, 0, 5, 10, 0, 4, 0, 0, 0, 8, 0, 0, 0, 0, 0, 0, 0, 0, 0, 0, 2, 4, 0, 0, 0, 0, 0, 0, 7, 1, 4, 0, 8, 2, 0, 0, 0, 0, 0, 0, 4, 1, 2, 0, 0, 0, 0, 0, 3, 0, 0, 0, 4, 0, 0, 0, 6, 0, 0, 0, 5, 0, 0, 0, 0, 0, 0, 0, 7, 3, 7, 9, 0, 2, 0, 4, 0, 7, 0, 8, 0, 0, 6, 0, 0, 0, 2, 0, 0, 0, 0, 0, 0, 3, 0, 0, 0, 0, 3, 0, 3, 0, 0, 6, 0, 0, 0, 0, 0, 0, 7, 0, 0, 0, 0, 0, 9, 1, 3, 0, 0, 0, 0, 0, 0, 0, 7, 0, 0, 0, 4, 0, 0, 0, 0, 9, 0, 0, 0, 9, 0, 0, 0, 0, 0, 0, 0, 0, 0, 7, 5, 0, 0, 0, 6, 10, 0, 0, 4, 0, 0, 0, 0, 0, 1, 0, 2, 0, 0, 0, 0, 0, 9, 0, 0, 0, 0, 2, 0, 8, 1, 0, 0, 0, 0, 0, 0, 0, 0, 0, 0, 7, 0, 0, 2, 0, 0, 3, 9, 0, 7, 0, 0, 3, 0, 0, 4, 7, 0, 0, 0, 0, 0, 0, 0, 0, 0, 0, 0, 0, 2, 0, 0, 0, 0, 0, 0, 0, 2, 1, 0, 0, 0, 1, 6, 7, 0, 5, 0, 10, 0, 0, 0, 4, 0, 1, 0, 0, 4, 0, 0, 0, 0, 0, 0, 0, 0, 0, 0, 0, 1, 0, 3, 0, 0, 1, 0, 0, 1, 0, 0, 0, 0, 0, 0, 0]);

suc = [
   {2, 3, 4},
   {6, 7},
   {5, 14},
   {8, 10, 20},
   {9, 30, 31},
   {17, 21, 25},
   {11, 28, 13},
   {48, 66, 12},
   {43, 61, 15},
   {24, 19, 76},
   {32},
   {16, 62, 15},
   {27, 44},
   {18},
   {56},
   {33, 43},
   {22, 55},
   {57, 77, 23},
   {63, 37, 55},
   {74},
   {42, 59, 39},
   {26, 60},
   {58, 75},
   {34},
   {41},
   {73, 36},
   {29, 46},
   {53, 54},
   {57},
   {40},
   {72, 38},
   {52},
   {49, 35},
   {64},
   {65},
   {68},
   {65},
   {59},
   {69, 71},
   {79, 47},
   {45},
   {65},
   {50, 59, 90},
   {63},
   {83, 70},
   {51},
   {88},
   {87},
   {85},
   {76},
   {84},
   {56, 74},
   {84, 78},
   {86},
   {78},
   {84},
   {64},
   {62},
   {81},
   {86},
   {80},
   {67},
   {89},
   {71},
   {67},
   {69, 71},
   {89},
   {80, 70},
   {78},
   {74},
   {73, 75},
   {88},
   {89},
   {86},
   {91},
   {81},
   {87},
   {82, 85},
   {85},
   {83},
   {82},
   {83},
   {91},
   {91},
   {87},
   {88},
   {90},
   {90},
   {92},
   {92},
   {92},
   {  } ];

deadline = array2d(1..92, 1..3, [2, 1, 0, 2, 4, 4, 5, 2, 5, 5, 3, 2, 5, 1, 2, 6, 4, 4, 6, 3, 0, 7, 5, 5, 7, 5, 1, 8, 5, 2, 8, 2, 0, 11, 0, 5, 11, 0, 2, 14, 5, 2, 15, 4, 5, 17, 4, 0, 20, 4, 3, 21, 4, 5, 21, 4, 5, 25, 1, 1, 28, 5, 1, 29, 0, 2, 29, 4, 3, 29, 0, 5, 30, 0, 0, 35, 5, 2, 38, 1, 4, 40, 1, 1, 40, 4, 0, 41, 0, 1, 41, 5, 1, 42, 0, 0, 47, 0, 1, 49, 5, 3, 53, 4, 3, 53, 5, 3, 54, 4, 3, 54, 4, 3, 57, 3, 4, 61, 3, 0, 62, 1, 1, 62, 5, 2, 64, 3, 1, 70, 4, 3, 70, 3, 2, 71, 4, 5, 75, 1, 1, 75, 3, 5, 75, 4, 1, 76, 0, 3, 77, 5, 3, 78, 5, 0, 79, 5, 1, 82, 1, 0, 85, 3, 4, 86, 3, 4, 87, 3, 1, 88, 5, 2, 92, 2, 1, 93, 5, 4, 94, 2, 4, 94, 5, 4, 97, 5, 2, 97, 3, 1, 98, 5, 5, 98, 1, 2, 103, 2, 1, 105, 2, 4, 107, 1, 5, 111, 4, 5, 114, 4, 0, 119, 1, 3, 120, 0, 0, 121, 0, 1, 123, 3, 1, 123, 5, 4, 124, 2, 5, 127, 2, 1, 127, 5, 3, 128, 1, 1, 128, 1, 1, 129, 3, 5, 129, 1, 1, 130, 3, 5, 130, 2, 1, 136, 0, 0, 139, 0, 3, 141, 3, 1, 144, 5, 0, 147, 0, 2, 150, 3, 5, 151, 4, 1]);
