n_res = 4;
rc = [ 35, 24, 27, 27 ];
n_tasks = 92;
d = [0, 6, 3, 10, 7, 5, 1, 6, 6, 8, 10, 9, 1, 6, 2, 9, 8, 8, 4, 9, 5, 2, 4, 8, 5, 8, 10, 6, 5, 7, 5, 9, 9, 7, 2, 1, 9, 3, 8, 4, 3, 8, 3, 4, 1, 3, 4, 2, 7, 2, 10, 4, 4, 9, 6, 1, 10, 8, 8, 8, 4, 6, 10, 6, 8, 5, 3, 1, 7, 4, 5, 5, 6, 3, 9, 7, 1, 5, 8, 7, 10, 9, 1, 9, 3, 1, 5, 5, 6, 4, 4, 0];
rr = array2d(1..4, 1..92, [0, 9, 0, 2, 2, 10, 0, 7, 6, 9, 1, 2, 0, 8, 0, 0, 4, 0, 7, 10, 1, 3, 0, 0, 8, 0, 3, 6, 0, 7, 10, 4, 0, 9, 0, 0, 10, 5, 0, 0, 10, 10, 9, 0, 6, 2, 8, 0, 7, 0, 7, 0, 8, 0, 0, 8, 0, 4, 0, 7, 8, 9, 1, 0, 10, 0, 2, 1, 1, 5, 5, 0, 0, 1, 0, 4, 0, 0, 0, 8, 0, 4, 9, 3, 2, 0, 4, 0, 0, 0, 0, 0, 0, 2, 0, 0, 0, 0, 9, 0, 3, 2, 0, 2, 10, 0, 0, 0, 2, 0, 0, 0, 1, 0, 4, 5, 0, 0, 0, 0, 8, 7, 0, 0, 0, 8, 1, 10, 0, 0, 0, 2, 1, 0, 7, 8, 0, 0, 9, 0, 0, 0, 0, 0, 8, 8, 0, 5, 4, 0, 0, 2, 1, 1, 0, 0, 0, 8, 0, 7, 6, 1, 1, 2, 0, 0, 5, 4, 0, 4, 4, 3, 7, 0, 0, 0, 10, 0, 0, 0, 8, 0, 4, 0, 0, 1, 0, 0, 6, 10, 0, 0, 0, 4, 10, 0, 4, 0, 0, 0, 1, 0, 6, 0, 0, 0, 7, 1, 10, 4, 0, 8, 0, 0, 0, 0, 6, 0, 0, 8, 0, 2, 10, 0, 8, 8, 0, 9, 0, 0, 0, 0, 0, 9, 10, 1, 1, 0, 9, 1, 10, 6, 5, 10, 0, 0, 0, 7, 0, 10, 0, 0, 9, 0, 9, 0, 0, 0, 0, 6, 3, 0, 10, 0, 0, 0, 4, 0, 0, 0, 0, 4, 0, 1, 0, 0, 0, 1, 2, 0, 0, 0, 0, 10, 6, 5, 7, 0, 0, 2, 2, 2, 0, 2, 0, 0, 0, 4, 0, 9, 2, 0, 0, 9, 0, 3, 8, 1, 2, 0, 7, 6, 0, 4, 5, 0, 0, 6, 9, 0, 0, 4, 0, 4, 6, 0, 0, 4, 0, 3, 0, 2, 0, 7, 0, 8, 0, 7, 5, 1, 0, 0, 0, 0, 0, 5, 0, 0, 3, 0, 8, 0, 6, 0, 0, 7, 0, 9, 0, 10, 0, 6, 0, 2, 4, 1, 0, 0]);

suc = [
   {2, 3, 4},
   {46, 22, 23},
   {24, 9, 20},
   {10, 5, 7},
   {38, 6, 30},
   {12, 13, 14},
   {8, 25, 11},
   {64},
   {80, 21, 15},
   {32},
   {17, 39},
   {33},
   {35, 42, 19},
   {49, 59, 79},
   {16, 70, 63},
   {73, 30},
   {56, 18, 52},
   {27},
   {91, 77, 54},
   {28, 60, 31},
   {26, 37, 31},
   {65, 36},
   {41, 75, 27},
   {39},
   {64, 29, 47},
   {66, 53},
   {45},
   {48, 34, 50},
   {44, 78},
   {43},
   {89, 36},
   {40},
   {51},
   {72, 57, 82},
   {41, 62},
   {48, 44},
   {67},
   {77},
   {46},
   {57, 67, 60},
   {49, 55},
   {57, 83, 60},
   {74, 86},
   {68},
   {81, 51, 61},
   {48, 83, 84},
   {53},
   {59, 53, 62},
   {71},
   {73},
   {82, 54},
   {87},
   {69, 54},
   {90},
   {77},
   {65},
   {58},
   {81, 75},
   {66},
   {72, 63},
   {64, 66, 78},
   {75},
   {73, 69},
   {70},
   {67},
   {72},
   {81, 71},
   {83, 70},
   {76, 79},
   {74, 76},
   {74, 76, 86},
   {85},
   {82},
   {84, 85},
   {87},
   {87},
   {80, 88},
   {80, 86, 79},
   {85},
   {84},
   {89},
   {91},
   {91},
   {90},
   {88},
   {89},
   {88},
   {90},
   {92},
   {92},
   {92},
   {  } ];

deadline = array2d(1..92, 1..3, [3, 4, 1, 6, 2, 0, 7, 0, 4, 7, 5, 3, 9, 4, 1, 10, 2, 3, 14, 4, 0, 17, 2, 1, 19, 5, 5, 23, 5, 3, 32, 1, 4, 33, 3, 5, 36, 3, 1, 37, 3, 2, 39, 3, 0, 39, 1, 1, 41, 3, 0, 41, 0, 3, 41, 4, 1, 44, 0, 2, 46, 4, 0, 46, 2, 5, 50, 4, 5, 54, 3, 2, 55, 1, 2, 55, 4, 4, 56, 5, 4, 57, 2, 2, 57, 5, 1, 60, 5, 5, 61, 3, 1, 63, 1, 2, 64, 3, 5, 65, 0, 5, 65, 0, 4, 68, 2, 1, 70, 1, 2, 72, 4, 0, 78, 3, 1, 78, 5, 2, 83, 0, 5, 86, 0, 5, 88, 1, 4, 89, 2, 3, 89, 4, 4, 89, 0, 5, 91, 3, 0, 92, 3, 2, 95, 1, 5, 100, 4, 1, 100, 4, 2, 103, 3, 2, 103, 2, 0, 103, 3, 1, 112, 3, 1, 113, 0, 5, 113, 4, 0, 114, 5, 1, 117, 3, 1, 122, 1, 3, 128, 4, 3, 128, 1, 1, 128, 1, 3, 130, 2, 3, 131, 3, 0, 133, 0, 4, 139, 4, 2, 142, 1, 1, 148, 2, 3, 155, 2, 5, 155, 2, 0, 162, 1, 4, 163, 1, 1, 163, 5, 2, 164, 5, 2, 168, 3, 2, 169, 3, 0, 170, 2, 3, 170, 3, 4, 170, 3, 5, 172, 5, 4, 178, 5, 3, 178, 1, 5, 181, 4, 5, 189, 3, 5, 189, 1, 4, 191, 3, 3, 193, 4, 3, 193, 4, 0, 199, 3, 5, 200, 0, 5, 204, 3, 3]);
