n_res = 4;
rc = [ 17, 17, 14, 19 ];
n_tasks = 92;
d = [0, 8, 3, 4, 10, 8, 6, 8, 1, 4, 9, 1, 8, 7, 1, 3, 2, 4, 6, 1, 3, 3, 3, 2, 10, 2, 2, 5, 6, 10, 6, 5, 7, 9, 9, 10, 1, 8, 10, 9, 8, 1, 10, 8, 10, 3, 5, 4, 7, 2, 8, 7, 9, 1, 9, 3, 4, 3, 3, 1, 5, 4, 4, 7, 6, 7, 8, 5, 4, 1, 10, 1, 9, 3, 5, 4, 10, 1, 1, 1, 3, 9, 4, 6, 8, 3, 6, 6, 9, 4, 2, 0];
rr = array2d(1..4, 1..92, [0, 2, 3, 0, 0, 0, 7, 0, 7, 0, 0, 0, 8, 0, 0, 1, 0, 0, 0, 0, 0, 4, 0, 0, 0, 0, 2, 0, 5, 8, 0, 9, 0, 5, 6, 0, 2, 1, 4, 0, 5, 0, 8, 0, 7, 9, 6, 0, 3, 9, 9, 0, 7, 5, 9, 2, 0, 0, 0, 5, 9, 0, 9, 3, 3, 0, 0, 0, 3, 0, 6, 0, 0, 10, 0, 8, 7, 0, 0, 0, 0, 0, 0, 0, 0, 3, 4, 0, 0, 8, 5, 0, 0, 0, 7, 0, 9, 0, 0, 9, 0, 0, 4, 2, 7, 0, 0, 8, 6, 8, 5, 6, 0, 0, 0, 7, 0, 8, 4, 8, 6, 6, 0, 0, 6, 0, 0, 0, 8, 0, 6, 0, 0, 0, 3, 2, 0, 0, 0, 0, 0, 0, 0, 2, 0, 2, 0, 0, 0, 10, 5, 3, 10, 9, 10, 0, 8, 0, 7, 0, 10, 4, 3, 0, 0, 0, 4, 3, 5, 0, 7, 0, 0, 4, 0, 4, 0, 0, 0, 0, 0, 0, 0, 0, 0, 2, 0, 5, 0, 2, 2, 9, 0, 1, 0, 0, 0, 0, 0, 1, 2, 0, 0, 2, 3, 8, 7, 0, 0, 0, 8, 3, 0, 0, 6, 6, 10, 0, 3, 0, 0, 0, 0, 2, 0, 10, 4, 4, 0, 4, 0, 10, 0, 0, 0, 0, 3, 10, 0, 3, 0, 0, 0, 10, 0, 5, 1, 0, 0, 2, 8, 3, 0, 10, 0, 0, 5, 9, 1, 7, 2, 10, 10, 0, 10, 0, 0, 0, 0, 10, 0, 5, 0, 0, 0, 0, 0, 0, 10, 10, 9, 5, 1, 1, 6, 6, 5, 0, 0, 6, 2, 0, 10, 10, 0, 10, 0, 0, 0, 2, 4, 8, 0, 0, 2, 8, 10, 6, 7, 10, 0, 10, 0, 1, 0, 0, 0, 3, 4, 0, 0, 0, 5, 3, 7, 3, 0, 8, 6, 0, 0, 4, 9, 0, 7, 3, 5, 1, 0, 0, 0, 10, 0, 7, 1, 10, 0, 5, 0, 9, 0, 0, 1, 4, 0, 6, 0, 0, 6, 0, 6, 8, 0, 0, 4, 10, 9, 0]);

suc = [
   {2, 3, 4},
   {20, 13},
   {89, 27, 29},
   {53, 5, 6},
   {8, 25, 21},
   {9, 12, 7},
   {56, 10, 14},
   {24, 41, 28},
   {32, 19, 31},
   {16, 11},
   {70, 52, 22},
   {86, 15},
   {31},
   {18, 26, 54},
   {65, 59, 51},
   {17, 39, 23},
   {57, 47},
   {29, 70},
   {34, 61},
   {87},
   {50, 44, 55},
   {33, 58, 35},
   {75, 59, 30},
   {35},
   {85},
   {49},
   {42},
   {74, 36, 63},
   {80, 69},
   {54},
   {45},
   {58, 62},
   {37},
   {83, 62},
   {60},
   {46, 48, 38},
   {74, 77},
   {80},
   {40},
   {48, 41, 58},
   {64},
   {43},
   {82},
   {49, 79},
   {60},
   {67, 78},
   {68},
   {67, 79},
   {65, 63},
   {57, 75},
   {66, 52},
   {54},
   {70},
   {57, 63},
   {84},
   {60, 61},
   {72, 76},
   {64, 65},
   {81, 77, 61},
   {72, 66, 69},
   {66},
   {64},
   {73, 76, 78},
   {67, 68, 71},
   {75, 85},
   {88},
   {69},
   {74},
   {73, 82},
   {81},
   {72, 86},
   {91},
   {81},
   {76, 79},
   {88, 77, 78},
   {84, 85},
   {80, 83, 84},
   {83},
   {86},
   {82},
   {87},
   {90, 87},
   {90},
   {89},
   {88},
   {89, 91},
   {91},
   {90},
   {92},
   {92},
   {92},
   {  } ];

deadline = array2d(1..92, 1..3, [5, 3, 0, 6, 3, 4, 17, 3, 2, 21, 1, 4, 22, 2, 3, 23, 1, 0, 23, 0, 3, 23, 1, 1, 24, 3, 4, 32, 5, 5, 38, 2, 1, 43, 0, 4, 44, 0, 3, 50, 2, 5, 53, 2, 0, 58, 0, 4, 59, 1, 5, 59, 1, 5, 61, 1, 1, 62, 1, 3, 62, 3, 0, 65, 2, 1, 69, 4, 3, 69, 5, 5, 73, 2, 3, 77, 2, 1, 84, 2, 0, 87, 2, 3, 88, 0, 2, 90, 2, 2, 90, 4, 4, 92, 4, 1, 93, 1, 1, 95, 5, 1, 96, 1, 5, 97, 1, 1, 97, 3, 4, 98, 5, 3, 100, 3, 2, 101, 0, 4, 104, 5, 3, 107, 3, 5, 109, 5, 3, 112, 0, 0, 112, 3, 3, 113, 4, 0, 117, 0, 5, 118, 2, 2, 122, 0, 3, 122, 4, 1, 123, 3, 5, 125, 1, 5, 128, 4, 2, 128, 0, 3, 132, 3, 4, 132, 2, 2, 138, 3, 0, 139, 0, 4, 142, 5, 3, 142, 2, 1, 143, 2, 5, 145, 4, 4, 147, 1, 3, 152, 2, 4, 153, 2, 3, 155, 1, 0, 159, 4, 4, 161, 2, 1, 169, 2, 5, 176, 4, 3, 178, 2, 0, 179, 0, 3, 180, 4, 4, 183, 1, 1, 185, 4, 0, 187, 5, 0, 187, 0, 1, 188, 4, 1, 188, 0, 4, 189, 2, 3, 192, 2, 3, 195, 3, 2, 199, 1, 5, 209, 5, 4, 212, 1, 5, 213, 3, 2, 215, 3, 3, 215, 4, 0, 218, 4, 4, 221, 1, 4, 225, 0, 0, 226, 5, 0]);
