n_res = 4;
rc = [ 13, 14, 13, 14 ];
n_tasks = 92;
d = [0, 4, 9, 10, 3, 9, 1, 1, 1, 2, 2, 10, 2, 8, 4, 8, 4, 7, 5, 4, 1, 2, 1, 4, 3, 5, 6, 5, 2, 9, 9, 2, 9, 6, 3, 10, 5, 9, 9, 3, 10, 7, 6, 10, 9, 2, 1, 8, 4, 9, 4, 5, 6, 3, 4, 3, 1, 2, 9, 3, 3, 1, 10, 5, 6, 4, 5, 7, 5, 9, 3, 4, 8, 5, 9, 6, 2, 6, 6, 7, 2, 5, 1, 2, 10, 7, 2, 3, 7, 10, 5, 0];
rr = array2d(1..4, 1..92, [0, 0, 0, 0, 0, 0, 0, 0, 3, 0, 0, 0, 0, 0, 7, 6, 0, 0, 0, 2, 1, 0, 0, 0, 0, 0, 0, 7, 0, 6, 2, 0, 0, 5, 0, 0, 0, 0, 0, 0, 2, 0, 0, 2, 0, 9, 0, 4, 0, 10, 0, 0, 0, 0, 0, 0, 0, 0, 0, 0, 0, 0, 0, 0, 3, 0, 0, 0, 0, 5, 0, 6, 4, 0, 0, 0, 2, 0, 6, 0, 0, 0, 4, 0, 2, 0, 0, 0, 0, 6, 0, 0, 0, 0, 0, 0, 7, 0, 0, 0, 0, 8, 0, 0, 4, 0, 0, 0, 0, 0, 0, 0, 0, 0, 0, 0, 0, 0, 8, 0, 0, 0, 0, 0, 8, 0, 3, 0, 2, 0, 7, 0, 0, 9, 5, 0, 0, 0, 0, 0, 0, 0, 0, 4, 6, 0, 0, 2, 0, 0, 0, 0, 3, 0, 0, 0, 0, 2, 10, 0, 6, 0, 0, 0, 0, 9, 5, 0, 0, 0, 0, 0, 0, 0, 0, 0, 0, 0, 0, 0, 3, 0, 1, 0, 0, 8, 0, 0, 0, 0, 10, 0, 0, 0, 0, 4, 0, 4, 0, 0, 0, 0, 7, 0, 0, 0, 9, 0, 0, 0, 0, 0, 9, 0, 0, 1, 0, 0, 0, 0, 0, 0, 0, 0, 0, 0, 0, 0, 3, 0, 0, 0, 0, 0, 0, 0, 0, 0, 6, 0, 1, 0, 0, 0, 0, 4, 7, 6, 0, 0, 0, 0, 0, 0, 7, 0, 0, 0, 0, 6, 0, 0, 0, 9, 0, 10, 0, 3, 0, 4, 6, 0, 0, 0, 0, 0, 0, 0, 6, 4, 0, 9, 0, 8, 0, 0, 4, 0, 0, 0, 0, 0, 4, 7, 0, 0, 0, 10, 0, 3, 7, 4, 0, 0, 0, 0, 0, 0, 0, 0, 0, 10, 0, 2, 0, 1, 0, 0, 0, 0, 0, 0, 8, 0, 8, 0, 2, 0, 0, 2, 0, 0, 0, 2, 6, 9, 0, 0, 0, 0, 0, 0, 0, 7, 0, 0, 0, 0, 0, 0, 0, 0, 0, 1, 0, 0, 1, 0, 0, 0, 0, 0, 0, 10, 0, 0, 0, 0]);

suc = [
   {2, 3, 4},
   {10, 5, 31},
   {12, 29, 6},
   {9, 34, 30},
   {8, 41, 11},
   {45, 7},
   {83, 54},
   {73, 14, 15},
   {27},
   {72, 60},
   {17, 43, 49},
   {24, 13},
   {37, 19, 21},
   {16, 20, 23},
   {57, 66},
   {38, 18, 22},
   {67, 28},
   {36},
   {73},
   {58},
   {32, 56, 76},
   {25, 74},
   {69, 47},
   {72},
   {26, 35},
   {91},
   {33, 28},
   {85},
   {62},
   {42, 52},
   {39},
   {40},
   {65},
   {61},
   {44},
   {48, 63},
   {53},
   {80, 46},
   {64, 55},
   {51, 62},
   {57},
   {50, 91},
   {82},
   {54},
   {86},
   {63},
   {50},
   {69, 70},
   {56, 71},
   {59},
   {88, 61},
   {81},
   {90, 55},
   {79},
   {68},
   {90},
   {62},
   {83},
   {65, 75},
   {84, 79},
   {79},
   {80},
   {70},
   {70},
   {66, 67},
   {86},
   {81},
   {78},
   {75, 77},
   {89, 84},
   {73},
   {85},
   {81},
   {75},
   {89},
   {78},
   {88},
   {89},
   {80},
   {87},
   {86},
   {88},
   {84},
   {85},
   {87},
   {87},
   {90},
   {91},
   {92},
   {92},
   {92},
   {  } ];

deadline = array2d(1..92, 1..3, [5, 3, 0, 6, 5, 5, 7, 5, 0, 9, 3, 4, 10, 2, 4, 12, 5, 0, 15, 2, 3, 15, 0, 0, 19, 5, 2, 20, 4, 4, 25, 4, 2, 28, 1, 0, 28, 2, 5, 28, 3, 2, 29, 0, 2, 31, 2, 3, 37, 4, 3, 39, 4, 2, 50, 3, 2, 53, 0, 1, 53, 5, 0, 54, 4, 1, 54, 4, 3, 59, 5, 3, 62, 0, 0, 62, 5, 1, 65, 2, 3, 66, 0, 5, 69, 0, 3, 69, 3, 2, 73, 3, 3, 74, 3, 5, 74, 1, 1, 76, 3, 4, 80, 4, 3, 81, 5, 1, 84, 4, 4, 86, 1, 4, 87, 3, 0, 89, 3, 5, 91, 5, 4, 92, 0, 4, 96, 4, 1, 101, 3, 2, 108, 3, 1, 108, 0, 5, 111, 1, 4, 112, 1, 2, 112, 5, 4, 115, 1, 2, 117, 2, 1, 118, 3, 5, 119, 4, 2, 120, 1, 1, 121, 0, 3, 121, 0, 5, 122, 5, 5, 129, 3, 4, 129, 2, 5, 129, 4, 0, 131, 4, 0, 133, 2, 3, 134, 2, 4, 136, 4, 5, 141, 2, 2, 143, 4, 3, 144, 4, 5, 155, 5, 2, 164, 5, 4, 167, 5, 5, 169, 1, 5, 173, 1, 3, 176, 1, 0, 176, 1, 2, 178, 4, 5, 178, 2, 2, 182, 1, 4, 184, 4, 1, 187, 5, 1, 190, 0, 3, 190, 4, 2, 192, 3, 4, 197, 4, 0, 199, 0, 1, 201, 4, 2, 201, 1, 5, 202, 5, 0, 202, 2, 1, 203, 2, 0, 205, 1, 4, 206, 2, 1, 208, 4, 1]);
