n_res = 4;
rc = [ 16, 15, 15, 15 ];
n_tasks = 92;
d = [0, 2, 4, 3, 6, 10, 5, 2, 3, 1, 9, 4, 10, 8, 4, 7, 1, 5, 7, 10, 10, 7, 5, 1, 7, 6, 3, 10, 7, 3, 8, 8, 10, 7, 6, 4, 5, 4, 2, 10, 6, 3, 1, 2, 9, 3, 9, 2, 6, 3, 5, 6, 7, 1, 7, 7, 7, 4, 8, 9, 8, 10, 5, 1, 9, 6, 10, 9, 6, 5, 3, 2, 10, 2, 1, 10, 3, 8, 4, 6, 7, 5, 6, 8, 2, 6, 4, 1, 4, 2, 2, 0];
rr = array2d(1..4, 1..92, [0, 0, 2, 0, 0, 1, 0, 1, 6, 0, 7, 0, 0, 8, 0, 3, 1, 0, 10, 7, 1, 0, 0, 0, 5, 6, 0, 5, 3, 7, 0, 0, 0, 0, 0, 2, 7, 0, 0, 0, 9, 0, 0, 0, 0, 6, 0, 4, 10, 5, 8, 8, 1, 0, 0, 4, 8, 4, 8, 3, 0, 0, 0, 0, 9, 1, 0, 5, 3, 5, 2, 8, 0, 1, 0, 0, 10, 0, 9, 0, 1, 0, 0, 0, 6, 0, 0, 3, 6, 1, 0, 0, 0, 4, 0, 0, 0, 7, 4, 2, 0, 0, 7, 7, 0, 7, 3, 0, 0, 3, 0, 0, 0, 9, 7, 0, 10, 0, 4, 3, 5, 0, 2, 0, 6, 5, 0, 1, 2, 3, 3, 3, 9, 0, 0, 7, 2, 6, 3, 0, 7, 0, 0, 4, 0, 0, 0, 0, 0, 0, 5, 0, 5, 0, 0, 0, 0, 2, 4, 10, 8, 4, 8, 0, 0, 5, 1, 6, 9, 0, 0, 0, 0, 0, 5, 7, 0, 0, 4, 7, 0, 0, 5, 0, 0, 0, 0, 8, 2, 0, 0, 0, 0, 8, 0, 7, 0, 8, 2, 1, 0, 10, 0, 0, 8, 10, 0, 10, 3, 9, 0, 0, 9, 4, 6, 3, 0, 10, 0, 0, 0, 0, 0, 7, 0, 0, 0, 1, 0, 2, 0, 8, 10, 0, 0, 0, 0, 0, 10, 0, 0, 0, 0, 9, 0, 0, 8, 6, 4, 0, 1, 6, 0, 0, 6, 0, 0, 9, 0, 7, 0, 6, 10, 0, 0, 4, 0, 0, 3, 0, 8, 4, 0, 6, 7, 0, 0, 2, 5, 0, 8, 10, 0, 0, 6, 1, 0, 0, 7, 0, 0, 0, 0, 0, 10, 4, 1, 0, 0, 0, 0, 0, 6, 10, 0, 0, 0, 1, 0, 3, 4, 0, 0, 9, 3, 6, 4, 7, 5, 9, 10, 2, 1, 2, 0, 4, 1, 0, 0, 10, 4, 10, 0, 9, 0, 0, 0, 6, 0, 0, 0, 2, 0, 0, 7, 10, 9, 0, 4, 7, 0, 2, 0, 0, 1, 1, 0, 3, 0, 1, 0, 6, 10, 0, 10, 0, 0, 0]);

suc = [
   {2, 3, 4},
   {42, 21, 6},
   {10, 20, 5},
   {28, 29, 39},
   {7},
   {34, 36, 14},
   {8, 18, 27},
   {16, 9, 11},
   {19, 13, 22},
   {65, 12, 44},
   {72, 45},
   {52, 55, 31},
   {32, 37, 15},
   {17, 18, 70},
   {89, 28, 63},
   {64, 26, 75},
   {82, 45},
   {67, 35, 23},
   {24, 25, 43},
   {25, 58, 61},
   {78, 30},
   {56, 57, 71},
   {32, 51, 46},
   {62, 46},
   {41, 28},
   {60, 77},
   {33, 38, 57},
   {52, 62, 47},
   {91, 38},
   {33, 36, 45},
   {48, 59, 38},
   {81, 60, 85},
   {58, 59, 37},
   {41, 50, 62},
   {40, 49, 51},
   {41, 74, 43},
   {49, 79},
   {80},
   {40, 77, 54},
   {53, 55},
   {48, 46, 47},
   {73, 44, 53},
   {53},
   {66, 51, 55},
   {88, 52},
   {49, 66},
   {70},
   {64},
   {65, 76},
   {57, 69, 54},
   {56, 60, 68},
   {90},
   {59, 86},
   {58, 68, 61},
   {56, 72},
   {84},
   {80},
   {71, 63},
   {61, 63},
   {82, 78, 71},
   {66, 76},
   {65, 74, 69},
   {87},
   {89, 69},
   {73, 75},
   {87},
   {75, 68},
   {72, 74},
   {84, 70},
   {73, 79},
   {83},
   {81, 76, 78},
   {77},
   {85, 86},
   {81},
   {80},
   {83},
   {88, 79},
   {83},
   {89, 82, 84},
   {86},
   {88},
   {87},
   {85},
   {90},
   {91},
   {91},
   {90},
   {92},
   {92},
   {92},
   {  } ];

deadline = array2d(1..92, 1..3, [4, 3, 0, 6, 4, 2, 6, 1, 5, 8, 4, 3, 9, 3, 4, 17, 3, 2, 18, 3, 5, 21, 2, 3, 22, 4, 0, 28, 0, 2, 29, 0, 0, 31, 5, 2, 31, 0, 3, 36, 4, 4, 39, 0, 0, 49, 1, 3, 49, 4, 0, 52, 4, 1, 55, 3, 2, 58, 1, 5, 61, 4, 4, 65, 1, 5, 66, 3, 3, 69, 0, 4, 69, 5, 5, 75, 1, 1, 75, 4, 3, 75, 5, 4, 78, 1, 1, 78, 1, 0, 79, 2, 3, 79, 2, 0, 84, 4, 4, 89, 5, 1, 90, 1, 0, 99, 4, 4, 104, 1, 3, 105, 0, 3, 111, 0, 3, 115, 4, 2, 115, 0, 4, 120, 5, 0, 122, 5, 0, 122, 4, 1, 125, 3, 2, 126, 2, 2, 127, 3, 1, 127, 2, 3, 130, 1, 3, 132, 2, 4, 132, 5, 1, 135, 4, 2, 148, 2, 2, 148, 5, 2, 148, 3, 2, 151, 1, 3, 151, 1, 2, 154, 3, 3, 155, 4, 0, 155, 4, 4, 155, 0, 5, 158, 2, 3, 161, 3, 2, 165, 2, 4, 167, 4, 5, 168, 5, 2, 170, 0, 1, 170, 5, 2, 171, 3, 5, 175, 1, 5, 175, 2, 3, 175, 2, 4, 180, 3, 1, 181, 4, 2, 181, 0, 0, 182, 4, 0, 184, 1, 3, 187, 1, 3, 188, 1, 0, 191, 5, 1, 192, 3, 3, 206, 0, 5, 206, 5, 5, 210, 5, 0, 213, 2, 3, 213, 1, 5, 218, 0, 2, 221, 2, 3, 223, 0, 0, 225, 1, 1, 228, 5, 5, 230, 0, 5]);
