n_res = 4;
rc = [ 23, 24, 20, 19 ];
n_tasks = 92;
d = [0, 5, 8, 10, 4, 8, 2, 10, 8, 4, 3, 5, 7, 4, 5, 9, 9, 8, 7, 5, 4, 4, 9, 4, 10, 9, 3, 8, 1, 3, 1, 4, 7, 6, 3, 7, 10, 4, 10, 1, 7, 4, 9, 5, 7, 8, 5, 4, 2, 5, 1, 2, 7, 8, 5, 6, 2, 9, 8, 3, 10, 10, 3, 5, 8, 9, 4, 8, 7, 1, 5, 7, 1, 9, 10, 5, 8, 6, 2, 9, 1, 6, 8, 9, 10, 10, 8, 2, 2, 7, 4, 0];
rr = array2d(1..4, 1..92, [0, 5, 0, 0, 4, 0, 0, 0, 9, 0, 3, 0, 4, 6, 10, 0, 0, 0, 0, 3, 0, 0, 0, 0, 0, 0, 7, 8, 0, 0, 0, 0, 0, 0, 0, 0, 0, 4, 0, 0, 0, 1, 4, 0, 0, 0, 0, 0, 0, 1, 0, 0, 5, 0, 0, 8, 0, 0, 0, 5, 0, 0, 0, 6, 0, 0, 9, 0, 0, 0, 0, 10, 7, 8, 0, 6, 0, 0, 0, 0, 0, 4, 0, 4, 0, 0, 0, 0, 0, 0, 0, 0, 0, 0, 7, 0, 0, 0, 7, 0, 0, 0, 0, 0, 0, 0, 0, 0, 5, 0, 3, 0, 0, 0, 0, 0, 8, 0, 0, 0, 8, 7, 0, 4, 0, 5, 9, 0, 5, 0, 0, 0, 0, 0, 0, 0, 5, 0, 0, 0, 0, 0, 0, 0, 0, 10, 0, 0, 0, 4, 0, 0, 0, 0, 0, 0, 0, 2, 0, 2, 2, 0, 0, 0, 0, 0, 0, 0, 4, 0, 0, 0, 8, 0, 0, 0, 5, 0, 3, 0, 6, 5, 0, 0, 0, 0, 0, 7, 0, 0, 0, 5, 0, 0, 0, 4, 0, 0, 0, 4, 0, 7, 0, 0, 0, 0, 2, 0, 0, 0, 0, 0, 0, 0, 0, 0, 10, 0, 0, 5, 0, 0, 6, 3, 0, 0, 0, 0, 0, 9, 10, 0, 0, 0, 9, 0, 0, 0, 9, 0, 0, 0, 0, 0, 2, 0, 0, 0, 4, 0, 0, 0, 0, 0, 7, 0, 0, 0, 0, 0, 0, 0, 0, 0, 0, 0, 1, 0, 0, 0, 0, 7, 0, 0, 9, 0, 0, 0, 0, 0, 0, 7, 0, 0, 0, 8, 0, 0, 0, 0, 0, 0, 0, 0, 0, 0, 5, 9, 0, 1, 0, 5, 0, 0, 0, 0, 4, 0, 0, 0, 0, 0, 0, 0, 0, 0, 8, 0, 0, 10, 0, 0, 0, 10, 5, 0, 0, 9, 0, 0, 0, 0, 1, 0, 10, 0, 0, 4, 9, 0, 0, 0, 0, 0, 0, 1, 0, 0, 0, 0, 10, 0, 0, 8, 7, 3, 0, 0, 0, 0, 0, 10, 0, 0, 0, 0, 0, 0]);

suc = [
   {2, 3, 4},
   {12, 70, 7},
   {5, 30, 47},
   {8, 18, 36},
   {74, 6},
   {16, 9, 26},
   {32, 10, 15},
   {11, 21, 23},
   {56},
   {53, 13, 54},
   {24, 20, 38},
   {38, 19, 14},
   {33, 27, 41},
   {20},
   {42, 50, 37},
   {17, 45, 25},
   {34, 58, 61},
   {57, 29},
   {63},
   {28, 54},
   {22},
   {26, 53, 31},
   {88},
   {35, 52},
   {44},
   {43, 69, 62},
   {76, 46},
   {49, 46},
   {48, 59},
   {60, 77, 55},
   {34, 60},
   {40, 42},
   {58, 67, 78},
   {64, 78},
   {82, 69, 63},
   {51},
   {89},
   {39},
   {47},
   {48},
   {59, 71},
   {45},
   {44},
   {66},
   {72, 67, 53},
   {50},
   {49, 84, 85},
   {74, 83},
   {57, 62},
   {73},
   {90, 78},
   {57, 74, 69},
   {65},
   {64, 82, 80},
   {64, 65, 61},
   {61, 87},
   {58},
   {65, 76},
   {83},
   {81, 79},
   {75, 71},
   {86},
   {72, 67},
   {75},
   {68},
   {81, 70},
   {80, 84},
   {88, 91, 75},
   {87, 70, 79},
   {86, 71},
   {90},
   {73},
   {84},
   {76},
   {86},
   {81, 79},
   {83},
   {82},
   {80},
   {89},
   {91},
   {85},
   {85},
   {87},
   {88},
   {90},
   {91},
   {89},
   {92},
   {92},
   {92},
   {  } ];

deadline = array2d(1..92, 1..3, [7, 0, 4, 10, 0, 3, 11, 4, 2, 12, 3, 0, 12, 4, 5, 13, 3, 3, 14, 5, 1, 15, 5, 4, 31, 1, 2, 32, 5, 0, 39, 2, 2, 39, 0, 5, 42, 1, 3, 43, 4, 0, 44, 1, 1, 45, 5, 3, 47, 4, 0, 51, 0, 4, 53, 4, 5, 55, 2, 0, 57, 4, 5, 58, 3, 0, 59, 0, 3, 59, 0, 0, 60, 4, 1, 63, 5, 0, 72, 1, 5, 72, 5, 4, 82, 5, 2, 84, 3, 1, 85, 1, 1, 85, 0, 3, 100, 4, 2, 104, 4, 1, 104, 5, 0, 105, 4, 3, 109, 5, 1, 112, 5, 1, 115, 4, 4, 118, 1, 4, 123, 2, 2, 130, 4, 5, 130, 0, 4, 135, 3, 3, 136, 1, 3, 136, 1, 5, 137, 4, 5, 137, 4, 5, 138, 4, 1, 139, 2, 4, 140, 1, 3, 148, 5, 4, 148, 1, 1, 149, 0, 3, 151, 3, 4, 153, 3, 1, 154, 5, 5, 155, 0, 5, 158, 4, 4, 159, 1, 5, 163, 1, 5, 163, 2, 5, 163, 3, 0, 169, 2, 2, 173, 2, 4, 177, 0, 1, 184, 3, 5, 185, 2, 2, 185, 2, 1, 186, 5, 4, 190, 2, 0, 191, 2, 0, 195, 2, 2, 195, 4, 0, 197, 1, 3, 198, 1, 2, 199, 3, 0, 201, 2, 0, 202, 4, 0, 205, 5, 1, 205, 2, 2, 208, 2, 5, 212, 4, 3, 213, 0, 2, 215, 0, 3, 219, 1, 5, 223, 4, 1, 232, 5, 0, 233, 4, 0, 240, 4, 5, 240, 0, 3, 242, 0, 0]);
