n_res = 4;
rc = [ 21, 44, 35, 20 ];
n_tasks = 92;
d = [0, 4, 2, 2, 8, 2, 1, 10, 2, 6, 2, 3, 2, 2, 7, 2, 10, 7, 8, 2, 6, 5, 7, 4, 1, 6, 3, 10, 6, 7, 8, 5, 2, 4, 5, 8, 4, 10, 2, 1, 9, 6, 3, 2, 6, 10, 7, 5, 4, 3, 2, 3, 10, 8, 10, 8, 4, 4, 7, 10, 6, 4, 7, 8, 8, 7, 9, 9, 2, 4, 7, 8, 9, 2, 6, 8, 1, 5, 5, 7, 8, 4, 9, 10, 10, 9, 6, 7, 8, 6, 3, 0];
rr = array2d(1..4, 1..92, [0, 0, 0, 8, 0, 0, 0, 0, 0, 0, 2, 0, 0, 4, 5, 0, 6, 0, 3, 0, 0, 0, 0, 8, 7, 0, 0, 0, 0, 0, 10, 0, 0, 5, 0, 3, 0, 0, 0, 0, 0, 3, 0, 7, 0, 0, 0, 0, 0, 7, 0, 0, 0, 0, 0, 5, 0, 0, 0, 4, 0, 0, 0, 0, 0, 7, 0, 0, 0, 0, 0, 0, 9, 0, 0, 0, 2, 0, 0, 0, 0, 0, 0, 0, 0, 0, 0, 0, 0, 0, 0, 0, 0, 10, 0, 0, 0, 0, 2, 0, 0, 0, 0, 0, 0, 0, 0, 0, 0, 8, 0, 10, 0, 0, 7, 0, 0, 0, 0, 6, 0, 0, 0, 10, 0, 0, 1, 0, 3, 6, 5, 9, 2, 0, 4, 0, 0, 10, 7, 1, 0, 0, 0, 3, 0, 1, 10, 0, 9, 7, 0, 0, 9, 0, 1, 5, 7, 0, 0, 2, 3, 0, 0, 0, 0, 0, 1, 5, 0, 0, 0, 0, 0, 0, 9, 10, 3, 0, 0, 0, 0, 0, 0, 0, 0, 0, 0, 0, 3, 0, 0, 0, 0, 0, 0, 5, 8, 0, 0, 9, 0, 0, 0, 0, 9, 0, 0, 0, 0, 1, 0, 0, 4, 7, 0, 0, 2, 0, 0, 0, 0, 0, 0, 0, 0, 0, 0, 0, 0, 0, 0, 0, 0, 0, 7, 0, 7, 0, 0, 0, 0, 0, 5, 0, 0, 8, 0, 0, 0, 0, 10, 0, 0, 10, 7, 8, 0, 5, 0, 0, 0, 0, 0, 0, 8, 10, 0, 0, 0, 6, 0, 0, 6, 2, 0, 0, 0, 0, 2, 0, 0, 9, 0, 7, 1, 4, 0, 0, 0, 0, 0, 0, 0, 0, 0, 0, 0, 4, 0, 0, 0, 0, 10, 0, 0, 0, 0, 0, 0, 0, 0, 0, 0, 0, 0, 0, 0, 0, 0, 0, 1, 0, 0, 0, 3, 0, 0, 0, 0, 0, 0, 0, 0, 0, 0, 0, 0, 0, 0, 0, 0, 0, 0, 0, 0, 0, 0, 0, 0, 0, 0, 0, 0, 9, 10, 2, 0, 0, 0, 0, 0, 0, 6, 9, 0, 0, 4, 0]);

suc = [
   {2, 3, 4},
   {74, 27, 14},
   {10, 12, 23},
   {8, 5, 7},
   {10, 6, 30},
   {9, 13, 17},
   {34, 11},
   {9, 18, 51},
   {24, 19, 20},
   {80, 59, 21},
   {33, 22, 15},
   {68, 85, 62},
   {89, 42, 61},
   {16, 33, 61},
   {43, 19, 54},
   {51, 31},
   {28, 21},
   {64, 22, 39},
   {83, 29, 31},
   {26, 44, 21},
   {38, 87},
   {40, 45, 46},
   {65, 50, 44},
   {32, 25, 49},
   {34, 71, 47},
   {40, 57},
   {35, 52, 53},
   {62, 75, 54},
   {78, 38, 39},
   {41, 42, 38},
   {63, 47},
   {42, 76, 74},
   {51, 36},
   {82, 60, 86},
   {39},
   {45, 60, 37},
   {49},
   {91, 76, 53},
   {48, 65, 44},
   {43, 69, 53},
   {83, 59, 54},
   {57, 66, 78},
   {48, 49, 70},
   {70, 45, 46},
   {73, 57, 69},
   {56, 47},
   {66},
   {75},
   {80, 66},
   {64, 81, 52},
   {58, 55},
   {83, 61},
   {67, 71},
   {86, 67, 78},
   {72, 65, 68},
   {71},
   {82, 59, 68},
   {67, 60},
   {81, 63},
   {64},
   {79, 63},
   {72, 74, 88},
   {84},
   {70},
   {73, 85, 69},
   {82},
   {77},
   {87},
   {80},
   {73, 85},
   {72},
   {77},
   {75, 76},
   {84, 77},
   {79},
   {90},
   {89},
   {79},
   {84},
   {81, 90},
   {88},
   {88},
   {86},
   {87},
   {89},
   {90},
   {91},
   {91},
   {92},
   {92},
   {92},
   {  } ];

deadline = array2d(1..92, 1..3, [4, 4, 2, 6, 3, 2, 11, 0, 1, 13, 3, 1, 13, 4, 1, 14, 3, 1, 19, 3, 3, 20, 2, 0, 20, 0, 4, 24, 1, 4, 24, 0, 3, 25, 2, 5, 26, 3, 3, 27, 3, 0, 29, 5, 4, 30, 5, 1, 33, 1, 4, 33, 2, 3, 38, 2, 1, 38, 2, 2, 42, 1, 4, 42, 1, 4, 52, 5, 0, 52, 4, 4, 58, 2, 2, 62, 2, 4, 64, 1, 0, 68, 3, 3, 69, 5, 1, 70, 2, 1, 74, 1, 0, 78, 4, 5, 80, 4, 4, 84, 1, 4, 84, 3, 2, 85, 2, 5, 85, 5, 4, 88, 2, 1, 89, 3, 3, 89, 5, 4, 97, 4, 4, 98, 3, 3, 100, 3, 1, 100, 0, 2, 102, 1, 5, 104, 0, 2, 105, 0, 5, 109, 3, 1, 112, 0, 0, 115, 3, 4, 116, 0, 2, 117, 2, 2, 122, 5, 3, 126, 4, 5, 127, 1, 0, 131, 0, 1, 132, 3, 2, 134, 0, 5, 136, 3, 0, 140, 0, 2, 140, 5, 1, 143, 2, 0, 144, 0, 0, 144, 1, 0, 147, 4, 4, 149, 5, 1, 154, 2, 1, 159, 5, 1, 160, 2, 0, 161, 3, 2, 163, 2, 4, 164, 2, 2, 165, 0, 0, 165, 4, 0, 169, 1, 3, 171, 4, 4, 174, 0, 0, 174, 1, 5, 176, 2, 3, 178, 0, 1, 190, 2, 3, 190, 4, 1, 194, 5, 1, 197, 4, 4, 198, 0, 4, 199, 5, 2, 200, 4, 0, 204, 4, 2, 206, 5, 0, 207, 0, 4, 210, 5, 1, 210, 0, 0]);
