n_res = 4;
rc = [ 27, 24, 29, 24 ];
n_tasks = 92;
d = [0, 3, 6, 2, 1, 1, 9, 7, 3, 3, 5, 8, 6, 6, 5, 6, 4, 4, 9, 1, 10, 1, 5, 4, 9, 5, 9, 9, 9, 5, 5, 2, 9, 2, 5, 5, 5, 5, 9, 3, 10, 4, 10, 7, 7, 9, 3, 4, 5, 7, 4, 7, 7, 2, 8, 4, 5, 4, 3, 8, 7, 6, 4, 6, 4, 1, 8, 6, 1, 4, 9, 2, 2, 4, 9, 9, 4, 10, 10, 10, 5, 10, 9, 5, 8, 10, 10, 10, 6, 10, 2, 0];
rr = array2d(1..4, 1..92, [0, 1, 10, 3, 6, 5, 9, 10, 3, 7, 6, 3, 1, 3, 5, 6, 6, 9, 5, 5, 10, 8, 2, 7, 1, 5, 10, 6, 3, 10, 10, 9, 6, 5, 9, 5, 3, 1, 4, 6, 2, 2, 2, 10, 10, 8, 6, 4, 2, 5, 1, 6, 2, 7, 3, 10, 10, 2, 9, 8, 6, 5, 10, 8, 4, 1, 9, 6, 1, 4, 6, 10, 9, 2, 5, 3, 8, 6, 4, 9, 4, 9, 5, 10, 2, 10, 5, 1, 5, 2, 9, 0, 0, 6, 8, 2, 9, 9, 6, 6, 9, 8, 2, 8, 5, 3, 10, 4, 8, 8, 3, 8, 5, 9, 7, 10, 7, 1, 1, 1, 9, 5, 3, 8, 2, 5, 5, 1, 8, 1, 8, 9, 1, 8, 6, 3, 3, 2, 8, 7, 10, 2, 1, 10, 2, 8, 10, 9, 4, 7, 7, 10, 9, 3, 6, 6, 10, 10, 5, 5, 6, 2, 4, 2, 5, 7, 4, 3, 3, 3, 4, 6, 7, 6, 3, 9, 7, 1, 1, 5, 9, 1, 6, 0, 0, 4, 10, 4, 4, 3, 8, 5, 10, 2, 3, 2, 5, 10, 5, 5, 5, 2, 3, 1, 5, 7, 8, 5, 5, 9, 3, 9, 3, 10, 3, 9, 2, 4, 3, 7, 3, 2, 2, 7, 10, 3, 7, 3, 2, 7, 4, 9, 7, 10, 3, 2, 4, 9, 10, 10, 6, 4, 3, 8, 2, 10, 6, 8, 8, 5, 1, 1, 9, 10, 5, 3, 6, 4, 4, 9, 9, 5, 10, 1, 8, 7, 4, 5, 4, 10, 7, 8, 5, 9, 3, 0, 0, 1, 3, 9, 4, 5, 9, 2, 3, 1, 8, 6, 3, 10, 10, 2, 4, 2, 6, 3, 5, 4, 4, 10, 7, 7, 7, 2, 9, 1, 9, 8, 3, 8, 6, 1, 10, 5, 3, 2, 2, 6, 3, 8, 9, 3, 8, 7, 6, 8, 3, 7, 6, 2, 4, 5, 7, 8, 2, 7, 6, 5, 6, 9, 3, 4, 10, 1, 8, 5, 1, 2, 6, 5, 4, 9, 10, 1, 1, 4, 3, 4, 2, 2, 5, 1, 4, 9, 5, 8, 1, 0]);

suc = [
   {2, 3, 4},
   {8, 10, 11},
   {77, 23},
   {5, 6, 7},
   {24},
   {33, 18, 35},
   {41},
   {16, 9, 14},
   {58, 30},
   {80, 12, 13},
   {39},
   {56, 17, 26},
   {42},
   {43, 19, 15},
   {20, 86},
   {28, 21, 38},
   {55, 46, 31},
   {50, 51, 20},
   {37, 23},
   {22},
   {87, 71},
   {41, 27},
   {25},
   {40, 29, 54},
   {68},
   {32, 38},
   {34, 75},
   {67},
   {37},
   {54},
   {64, 36, 47},
   {75},
   {70},
   {59},
   {56, 52},
   {37},
   {87},
   {44},
   {49, 82},
   {83},
   {67},
   {55},
   {81, 45},
   {66, 59, 53},
   {57},
   {48, 69},
   {69},
   {76},
   {80},
   {83},
   {69},
   {72, 77},
   {77},
   {57, 67, 60},
   {90},
   {70},
   {63},
   {62, 79},
   {74},
   {61},
   {81},
   {64},
   {65},
   {83},
   {71},
   {71},
   {73},
   {91},
   {88},
   {76},
   {73},
   {79},
   {74},
   {88, 91},
   {82},
   {89},
   {78},
   {86},
   {91},
   {87},
   {82, 84, 85},
   {88},
   {84},
   {86},
   {89},
   {90},
   {90},
   {89},
   {92},
   {92},
   {92},
   {  } ];

deadline = array2d(1..92, 1..3, [2, 0, 5, 3, 3, 5, 4, 3, 2, 5, 2, 1, 7, 4, 3, 9, 1, 4, 14, 4, 5, 15, 2, 0, 16, 1, 3, 18, 0, 1, 19, 0, 2, 20, 4, 2, 22, 0, 5, 26, 2, 2, 28, 0, 0, 29, 1, 0, 30, 3, 3, 34, 5, 2, 39, 2, 4, 39, 1, 3, 41, 0, 1, 41, 4, 2, 42, 4, 0, 43, 4, 5, 45, 5, 4, 47, 0, 2, 50, 3, 1, 51, 0, 4, 51, 5, 0, 52, 1, 3, 53, 1, 3, 54, 5, 4, 55, 2, 3, 55, 0, 2, 69, 5, 4, 71, 4, 0, 74, 4, 1, 85, 1, 0, 87, 4, 5, 87, 3, 5, 90, 3, 5, 93, 4, 4, 95, 3, 0, 98, 3, 1, 100, 1, 1, 102, 5, 2, 106, 3, 1, 107, 0, 5, 109, 4, 1, 109, 2, 2, 111, 4, 0, 113, 5, 2, 115, 0, 5, 118, 0, 4, 119, 0, 1, 124, 1, 5, 125, 4, 3, 126, 5, 0, 127, 2, 3, 128, 3, 2, 128, 3, 2, 132, 0, 4, 134, 0, 4, 134, 1, 1, 137, 4, 2, 138, 1, 4, 142, 3, 2, 143, 3, 0, 145, 5, 3, 146, 2, 1, 150, 3, 0, 150, 2, 0, 151, 3, 3, 156, 0, 3, 157, 2, 3, 158, 0, 5, 161, 3, 1, 162, 0, 5, 164, 0, 4, 167, 4, 1, 171, 3, 5, 171, 2, 3, 172, 5, 0, 173, 3, 3, 173, 1, 5, 173, 3, 4, 174, 4, 2, 174, 2, 1, 177, 5, 4, 180, 3, 1, 182, 1, 5, 184, 2, 0]);
