n_res = 4;
rc = [ 25, 30, 21, 29 ];
n_tasks = 92;
d = [0, 7, 8, 10, 1, 10, 3, 3, 6, 10, 3, 8, 5, 4, 10, 3, 2, 6, 6, 5, 6, 1, 9, 8, 4, 9, 6, 7, 9, 1, 7, 9, 3, 10, 6, 6, 2, 2, 5, 10, 10, 3, 3, 2, 7, 8, 5, 4, 1, 10, 2, 1, 8, 9, 1, 1, 1, 3, 5, 6, 3, 1, 7, 4, 3, 9, 9, 4, 7, 10, 9, 9, 2, 1, 1, 3, 2, 1, 7, 3, 1, 3, 2, 2, 6, 10, 5, 10, 2, 7, 10, 0];
rr = array2d(1..4, 1..92, [0, 0, 0, 1, 8, 0, 0, 0, 0, 0, 0, 0, 6, 0, 0, 0, 0, 0, 0, 0, 0, 0, 0, 0, 1, 0, 10, 0, 0, 0, 9, 7, 2, 0, 0, 0, 0, 5, 10, 7, 0, 0, 10, 1, 1, 0, 0, 0, 0, 0, 0, 0, 0, 0, 0, 0, 2, 4, 2, 0, 8, 0, 0, 0, 0, 0, 8, 0, 1, 9, 8, 0, 0, 0, 0, 3, 0, 0, 0, 8, 0, 9, 6, 0, 0, 0, 1, 5, 0, 0, 0, 0, 0, 0, 0, 0, 0, 3, 0, 7, 0, 0, 0, 0, 0, 9, 3, 0, 0, 0, 0, 9, 5, 0, 0, 0, 0, 0, 0, 0, 10, 6, 0, 0, 0, 9, 0, 0, 0, 0, 0, 0, 1, 0, 0, 0, 0, 0, 3, 0, 0, 0, 10, 4, 1, 0, 5, 0, 0, 0, 0, 0, 0, 4, 0, 0, 0, 0, 0, 2, 0, 0, 0, 0, 9, 0, 0, 0, 0, 0, 0, 0, 0, 0, 0, 9, 10, 2, 0, 0, 0, 0, 0, 0, 0, 9, 6, 0, 0, 0, 0, 0, 0, 0, 10, 0, 0, 0, 0, 7, 0, 0, 1, 0, 0, 0, 0, 6, 0, 0, 0, 3, 0, 0, 0, 0, 0, 0, 1, 0, 7, 0, 0, 0, 0, 9, 0, 0, 0, 1, 0, 8, 0, 8, 0, 0, 0, 0, 0, 5, 0, 0, 0, 0, 0, 0, 0, 9, 0, 6, 0, 0, 0, 0, 0, 6, 0, 2, 3, 0, 5, 2, 9, 0, 0, 0, 0, 0, 0, 0, 0, 0, 0, 0, 0, 0, 0, 0, 0, 0, 0, 0, 10, 0, 1, 10, 0, 7, 0, 0, 0, 0, 8, 3, 0, 0, 0, 1, 9, 0, 0, 3, 0, 0, 0, 0, 0, 0, 0, 0, 0, 8, 0, 0, 0, 0, 0, 0, 0, 0, 0, 0, 0, 0, 6, 0, 0, 0, 0, 2, 0, 0, 0, 0, 0, 2, 0, 0, 8, 0, 2, 0, 0, 0, 0, 0, 0, 0, 0, 0, 0, 0, 0, 0, 0, 0, 6, 0, 0, 0, 0, 0, 0, 0, 1, 3, 4, 0]);

suc = [
   {2, 3, 4},
   {10, 20, 7},
   {9, 5, 6},
   {16, 11, 15},
   {62, 14, 30},
   {33, 42, 91},
   {8, 27, 12},
   {62, 80, 54},
   {64, 13, 23},
   {25, 22, 41},
   {40, 19, 14},
   {85, 53, 55},
   {36, 63},
   {37, 38, 39},
   {57, 61, 71},
   {17, 18, 34},
   {29, 21, 31},
   {88, 33, 68},
   {24, 25, 50},
   {61, 21, 39},
   {35, 36, 45},
   {51},
   {41, 30},
   {26, 42, 60},
   {78, 47},
   {58, 82, 69},
   {28},
   {50, 43, 38},
   {32, 89},
   {81, 45, 46},
   {49},
   {73, 57, 39},
   {56, 52, 46},
   {48, 41, 38},
   {58, 51, 47},
   {75, 67, 77},
   {83, 67, 55},
   {42, 66},
   {85},
   {43, 54},
   {49, 74, 59},
   {44, 69, 70},
   {48, 53, 63},
   {56, 57},
   {49, 60, 76},
   {53},
   {82, 52, 68},
   {60, 86, 84},
   {68},
   {64, 51, 69},
   {66, 52, 77},
   {62, 79},
   {59},
   {59, 55},
   {56, 73},
   {72},
   {58},
   {64, 65},
   {65, 67},
   {65, 83, 71},
   {81, 76, 78},
   {83, 70},
   {73, 66},
   {74},
   {72},
   {74, 76},
   {70},
   {72, 80, 71},
   {84},
   {89},
   {89},
   {79},
   {75, 77},
   {75, 87},
   {90},
   {80, 84},
   {81, 78},
   {82, 79},
   {87},
   {91},
   {91, 86},
   {86},
   {87},
   {85},
   {88},
   {88},
   {90},
   {90},
   {92},
   {92},
   {92},
   {  } ];

deadline = array2d(1..92, 1..3, [3, 0, 5, 6, 4, 5, 7, 2, 1, 8, 0, 4, 9, 2, 3, 13, 0, 3, 16, 1, 2, 17, 0, 3, 21, 3, 4, 23, 0, 2, 24, 4, 2, 25, 5, 0, 25, 5, 0, 26, 0, 0, 27, 5, 4, 27, 0, 1, 27, 2, 0, 27, 4, 3, 28, 3, 3, 29, 2, 0, 31, 5, 2, 33, 1, 3, 33, 3, 0, 38, 3, 1, 39, 4, 2, 40, 2, 0, 41, 1, 5, 45, 3, 4, 48, 0, 4, 48, 4, 5, 49, 1, 2, 53, 5, 5, 54, 0, 3, 59, 4, 0, 60, 2, 5, 60, 0, 2, 61, 4, 5, 62, 3, 0, 63, 3, 2, 67, 1, 1, 68, 4, 1, 72, 3, 4, 73, 3, 5, 78, 3, 4, 79, 3, 5, 81, 1, 3, 81, 3, 2, 93, 0, 1, 94, 4, 1, 96, 3, 3, 96, 4, 1, 96, 1, 0, 96, 1, 0, 104, 4, 1, 105, 3, 4, 105, 1, 1, 106, 2, 5, 109, 0, 3, 109, 1, 4, 110, 1, 1, 112, 5, 1, 113, 5, 5, 118, 4, 3, 122, 4, 0, 122, 3, 0, 123, 0, 3, 124, 4, 3, 124, 2, 5, 125, 1, 0, 125, 0, 4, 127, 0, 3, 128, 4, 4, 132, 4, 2, 135, 1, 5, 145, 0, 1, 149, 4, 4, 154, 3, 2, 157, 4, 2, 157, 4, 5, 158, 3, 2, 164, 2, 0, 164, 5, 5, 165, 0, 4, 169, 2, 2, 171, 3, 5, 173, 3, 1, 175, 3, 5, 176, 1, 5, 183, 3, 3, 183, 3, 1, 187, 2, 0, 190, 3, 4]);
