n_res = 4;
rc = [ 23, 23, 24, 21 ];
n_tasks = 92;
d = [0, 10, 2, 3, 8, 4, 1, 5, 1, 1, 2, 7, 4, 6, 3, 2, 4, 3, 9, 7, 6, 2, 4, 2, 10, 10, 7, 1, 2, 8, 1, 6, 4, 8, 6, 6, 5, 7, 1, 6, 3, 6, 5, 8, 2, 9, 4, 1, 3, 5, 2, 5, 1, 4, 2, 5, 5, 9, 10, 1, 3, 2, 10, 8, 6, 10, 7, 9, 5, 9, 6, 7, 6, 7, 1, 10, 10, 8, 8, 4, 6, 8, 1, 4, 7, 2, 8, 10, 7, 5, 4, 0];
rr = array2d(1..4, 1..92, [0, 2, 0, 7, 10, 4, 4, 2, 6, 0, 9, 5, 8, 0, 9, 0, 8, 2, 8, 10, 0, 4, 8, 0, 5, 9, 2, 4, 0, 0, 5, 0, 8, 7, 0, 6, 9, 3, 0, 2, 10, 5, 0, 0, 1, 8, 10, 4, 0, 2, 10, 5, 7, 1, 9, 5, 2, 2, 10, 0, 3, 3, 2, 4, 8, 2, 0, 0, 6, 10, 1, 4, 10, 6, 10, 0, 10, 8, 0, 8, 2, 4, 0, 5, 5, 6, 0, 8, 5, 6, 2, 0, 0, 5, 0, 0, 1, 0, 6, 9, 0, 4, 9, 10, 3, 3, 0, 4, 8, 8, 6, 2, 0, 9, 1, 1, 8, 1, 1, 1, 0, 4, 0, 10, 8, 3, 10, 0, 0, 1, 4, 4, 4, 6, 0, 1, 5, 8, 5, 0, 7, 3, 0, 10, 8, 3, 10, 9, 9, 1, 0, 6, 0, 6, 0, 7, 1, 5, 7, 0, 1, 1, 4, 7, 3, 7, 6, 0, 7, 3, 0, 9, 7, 0, 0, 0, 1, 0, 0, 1, 0, 2, 7, 0, 0, 1, 6, 5, 10, 1, 0, 8, 8, 0, 5, 2, 0, 5, 5, 10, 0, 0, 4, 5, 3, 4, 10, 0, 7, 0, 10, 8, 7, 7, 0, 5, 0, 1, 5, 2, 3, 0, 1, 5, 6, 10, 3, 0, 3, 0, 6, 0, 9, 5, 7, 5, 0, 0, 0, 5, 0, 0, 1, 10, 10, 0, 1, 7, 3, 1, 8, 4, 10, 10, 0, 0, 3, 10, 4, 8, 5, 1, 10, 2, 0, 1, 1, 1, 0, 0, 4, 4, 6, 1, 7, 0, 0, 3, 8, 3, 9, 10, 7, 0, 8, 8, 0, 6, 7, 9, 1, 6, 2, 0, 8, 2, 9, 0, 3, 0, 3, 0, 0, 7, 5, 8, 7, 5, 2, 0, 2, 3, 4, 8, 4, 0, 4, 1, 5, 4, 0, 2, 0, 0, 7, 10, 0, 7, 8, 3, 0, 0, 6, 3, 7, 5, 6, 0, 0, 8, 1, 5, 10, 4, 6, 2, 3, 7, 7, 4, 1, 3, 0, 1, 6, 10, 7, 5, 7, 4, 1, 8, 8, 3, 10, 6, 0, 0]);

suc = [
   {2, 3, 4},
   {34, 20, 6},
   {24, 33, 5},
   {48, 12, 36},
   {40, 9, 39},
   {19, 14, 7},
   {8, 11, 13},
   {10, 15},
   {26, 53, 29},
   {51},
   {25, 18, 57},
   {58, 23},
   {17, 22},
   {47},
   {16, 56, 28},
   {21},
   {89},
   {73, 37, 30},
   {64, 83, 27},
   {89, 41, 31},
   {70},
   {45},
   {38},
   {34, 54, 63},
   {60, 76, 47},
   {32, 74, 62},
   {68, 46},
   {55},
   {77},
   {61},
   {56, 44},
   {35},
   {73},
   {66},
   {86},
   {67},
   {42, 43},
   {88},
   {50, 79},
   {55},
   {52, 76},
   {68},
   {75},
   {80},
   {83, 59},
   {88},
   {49},
   {72, 90},
   {58},
   {59},
   {86},
   {57, 77},
   {78},
   {57},
   {65},
   {59},
   {80},
   {69, 79},
   {66},
   {85},
   {78},
   {69},
   {76},
   {85},
   {87},
   {81},
   {72, 80},
   {69, 71},
   {82},
   {74, 84},
   {87},
   {84},
   {78},
   {83},
   {91},
   {86},
   {79},
   {82},
   {85},
   {81},
   {87},
   {84},
   {88},
   {89},
   {90},
   {91},
   {91},
   {90},
   {92},
   {92},
   {92},
   {  } ];

deadline = array2d(1..92, 1..3, [1, 3, 5, 4, 5, 2, 7, 0, 4, 7, 3, 4, 8, 1, 3, 8, 5, 3, 9, 3, 2, 11, 5, 2, 14, 2, 3, 18, 3, 5, 19, 4, 1, 19, 5, 1, 25, 0, 1, 33, 4, 0, 33, 5, 5, 34, 1, 4, 34, 2, 5, 35, 5, 3, 38, 3, 5, 38, 5, 4, 39, 4, 2, 40, 5, 0, 47, 0, 4, 49, 2, 2, 51, 5, 0, 53, 2, 1, 53, 2, 3, 56, 1, 2, 56, 3, 2, 60, 1, 4, 63, 1, 1, 63, 2, 5, 69, 1, 3, 70, 2, 2, 72, 2, 0, 73, 3, 5, 76, 3, 3, 77, 5, 2, 79, 3, 4, 80, 5, 0, 84, 2, 5, 85, 2, 0, 86, 2, 5, 86, 2, 1, 86, 0, 0, 90, 2, 5, 91, 5, 1, 92, 1, 5, 94, 1, 1, 97, 3, 1, 98, 1, 0, 99, 5, 1, 99, 4, 0, 104, 5, 2, 110, 2, 1, 111, 1, 3, 111, 1, 2, 112, 4, 4, 112, 1, 2, 114, 1, 2, 117, 5, 2, 118, 4, 1, 121, 0, 1, 122, 2, 3, 123, 1, 1, 124, 1, 3, 124, 2, 0, 124, 5, 3, 124, 1, 0, 125, 0, 0, 125, 2, 3, 127, 2, 1, 134, 4, 5, 134, 5, 1, 135, 1, 4, 136, 4, 0, 138, 1, 3, 140, 4, 0, 145, 2, 2, 147, 0, 4, 150, 2, 0, 151, 4, 5, 152, 4, 2, 152, 5, 2, 153, 3, 2, 156, 5, 3, 158, 3, 1, 161, 3, 5, 164, 3, 4, 164, 5, 0, 165, 3, 3, 166, 3, 3]);
