n_res = 4;
rc = [ 23, 23, 22, 23 ];
n_tasks = 92;
d = [0, 8, 10, 9, 9, 7, 1, 1, 7, 9, 3, 2, 3, 9, 1, 1, 10, 2, 3, 8, 1, 9, 9, 3, 3, 4, 4, 2, 6, 2, 8, 8, 7, 2, 7, 4, 10, 8, 5, 7, 2, 9, 7, 8, 1, 2, 1, 9, 10, 8, 1, 1, 1, 6, 9, 4, 8, 10, 9, 1, 1, 7, 5, 4, 2, 2, 9, 7, 2, 7, 5, 5, 3, 7, 6, 5, 6, 3, 1, 2, 10, 1, 7, 4, 3, 7, 4, 3, 1, 5, 3, 0];
rr = array2d(1..4, 1..92, [0, 8, 5, 4, 3, 10, 3, 3, 9, 7, 5, 4, 6, 9, 8, 6, 1, 3, 10, 7, 8, 9, 2, 7, 6, 10, 7, 8, 5, 8, 4, 6, 4, 4, 2, 4, 2, 2, 4, 6, 1, 8, 7, 4, 5, 1, 3, 9, 6, 6, 9, 5, 9, 7, 10, 8, 10, 7, 4, 3, 4, 7, 5, 5, 5, 7, 1, 7, 5, 5, 4, 10, 7, 3, 1, 9, 3, 7, 5, 10, 8, 9, 9, 1, 10, 7, 5, 6, 2, 10, 6, 0, 0, 6, 6, 3, 6, 5, 6, 7, 1, 4, 6, 10, 4, 6, 3, 3, 9, 9, 2, 10, 7, 2, 7, 5, 9, 1, 6, 4, 10, 6, 9, 6, 7, 10, 1, 7, 8, 2, 9, 5, 7, 1, 1, 9, 4, 8, 1, 8, 5, 10, 10, 6, 2, 9, 10, 6, 3, 6, 5, 6, 1, 7, 7, 8, 8, 2, 6, 4, 8, 6, 9, 5, 6, 6, 3, 10, 1, 3, 3, 6, 8, 10, 9, 1, 5, 10, 4, 8, 2, 1, 4, 0, 0, 4, 2, 7, 8, 3, 2, 1, 1, 7, 7, 7, 9, 8, 7, 7, 3, 3, 5, 10, 6, 1, 7, 5, 9, 1, 5, 3, 5, 2, 4, 10, 2, 1, 9, 3, 3, 6, 10, 4, 8, 3, 8, 3, 5, 2, 5, 7, 1, 6, 10, 9, 8, 8, 10, 8, 5, 3, 10, 4, 10, 5, 1, 2, 9, 7, 7, 9, 8, 10, 10, 10, 8, 6, 6, 8, 2, 2, 9, 7, 2, 1, 7, 1, 7, 8, 10, 6, 8, 3, 1, 0, 0, 9, 8, 5, 2, 6, 7, 2, 4, 6, 10, 3, 5, 4, 9, 10, 10, 7, 5, 1, 9, 7, 4, 6, 3, 5, 8, 4, 1, 7, 6, 2, 3, 1, 6, 10, 9, 8, 4, 10, 9, 9, 2, 10, 8, 6, 1, 3, 3, 5, 4, 7, 3, 10, 4, 6, 6, 2, 7, 7, 3, 1, 1, 1, 1, 9, 5, 7, 5, 5, 1, 7, 6, 7, 8, 5, 10, 7, 10, 4, 7, 7, 9, 4, 4, 4, 6, 6, 8, 7, 4, 0]);

suc = [
   {2, 3, 4},
   {10, 5, 14},
   {8, 21, 7},
   {48, 19, 6},
   {9, 19, 12},
   {11, 28, 15},
   {16, 47, 31},
   {40, 10, 30},
   {24, 60, 29},
   {16, 24, 23},
   {54, 38, 55},
   {16, 27, 13},
   {35, 20, 68},
   {17, 46, 33},
   {59, 18, 26},
   {41, 51, 45},
   {42, 52, 71},
   {34, 23},
   {22},
   {32, 79, 47},
   {62, 46},
   {25, 42},
   {50, 52},
   {67, 76, 37},
   {43},
   {49, 35, 60},
   {49, 46},
   {90, 29, 55},
   {72, 66, 38},
   {48, 34, 39},
   {56, 69, 63},
   {56, 36},
   {81, 75, 36},
   {52, 38},
   {82, 51, 54},
   {44},
   {48, 53},
   {64, 75},
   {56, 41, 61},
   {57, 59, 69},
   {44, 70, 63},
   {73, 65, 59},
   {64, 83, 45},
   {80, 65, 86},
   {61, 85, 53},
   {50, 70},
   {50, 58, 84},
   {58},
   {72, 57, 83},
   {66, 85, 63},
   {57, 83, 55},
   {53},
   {77, 69, 78},
   {77, 62},
   {67},
   {60},
   {58, 67, 66},
   {88, 61},
   {68},
   {71},
   {77, 62},
   {80},
   {65, 87, 71},
   {81, 76, 70},
   {88},
   {73},
   {73, 84},
   {75, 79},
   {88, 74, 82},
   {91, 78},
   {74},
   {74, 76},
   {89},
   {89, 81},
   {85},
   {78, 79},
   {80},
   {82},
   {91},
   {87},
   {86},
   {84},
   {87},
   {89},
   {86},
   {91},
   {90},
   {90},
   {92},
   {92},
   {92},
   {  } ];

deadline = array2d(1..92, 1..3, [1, 3, 4, 10, 3, 2, 10, 2, 0, 10, 4, 1, 12, 5, 3, 12, 4, 3, 13, 4, 3, 18, 2, 3, 20, 1, 5, 23, 0, 4, 26, 5, 2, 27, 1, 4, 29, 0, 4, 30, 0, 0, 31, 4, 3, 32, 5, 4, 34, 1, 2, 34, 2, 4, 34, 1, 5, 39, 1, 5, 40, 2, 3, 40, 2, 2, 44, 5, 0, 45, 4, 4, 45, 3, 5, 46, 0, 5, 52, 1, 5, 54, 4, 5, 54, 2, 2, 58, 5, 3, 59, 5, 1, 62, 0, 0, 62, 3, 0, 66, 5, 2, 66, 5, 5, 69, 4, 2, 71, 1, 2, 75, 4, 2, 76, 2, 4, 76, 0, 0, 77, 1, 4, 77, 5, 3, 80, 4, 0, 81, 1, 4, 83, 5, 3, 84, 2, 1, 91, 1, 3, 93, 5, 0, 99, 1, 0, 101, 1, 5, 102, 4, 1, 103, 0, 2, 104, 1, 1, 104, 0, 5, 106, 5, 0, 107, 4, 3, 108, 5, 4, 109, 1, 0, 111, 1, 4, 112, 4, 4, 112, 3, 5, 113, 5, 0, 117, 5, 1, 117, 3, 0, 118, 4, 4, 120, 1, 5, 122, 0, 1, 123, 5, 4, 123, 3, 1, 128, 4, 5, 135, 0, 1, 136, 2, 2, 136, 4, 2, 137, 0, 4, 142, 1, 4, 143, 0, 1, 144, 2, 4, 145, 1, 5, 147, 4, 4, 150, 0, 2, 151, 2, 0, 156, 5, 2, 157, 1, 1, 170, 5, 0, 173, 5, 2, 173, 5, 1, 179, 0, 0, 182, 1, 0, 186, 2, 0, 188, 3, 0, 188, 1, 3, 188, 5, 4]);
