n_res = 4;
rc = [ 66, 64, 58, 62 ];
n_tasks = 92;
d = [0, 1, 8, 1, 7, 3, 8, 2, 1, 7, 6, 8, 7, 10, 1, 9, 8, 3, 9, 9, 5, 8, 2, 7, 10, 5, 4, 2, 2, 8, 10, 4, 4, 4, 6, 7, 7, 1, 4, 6, 8, 9, 2, 8, 6, 7, 6, 3, 9, 7, 6, 3, 6, 1, 5, 2, 2, 5, 6, 6, 9, 3, 7, 8, 1, 7, 7, 3, 10, 5, 8, 10, 3, 9, 1, 5, 4, 3, 4, 2, 4, 2, 1, 3, 10, 8, 3, 2, 4, 10, 9, 0];
rr = array2d(1..4, 1..92, [0, 4, 6, 9, 3, 8, 1, 5, 6, 4, 2, 4, 2, 3, 7, 7, 2, 6, 6, 9, 5, 7, 3, 4, 2, 7, 7, 4, 4, 9, 9, 9, 1, 3, 6, 9, 8, 10, 3, 7, 10, 6, 4, 5, 5, 4, 9, 9, 6, 10, 8, 7, 9, 4, 10, 4, 6, 4, 3, 2, 1, 10, 7, 5, 3, 8, 7, 4, 1, 3, 1, 5, 8, 5, 2, 7, 5, 5, 10, 4, 7, 9, 8, 6, 7, 8, 7, 3, 9, 7, 7, 0, 0, 1, 8, 9, 3, 8, 9, 6, 5, 4, 7, 9, 1, 5, 9, 3, 1, 4, 1, 2, 2, 7, 3, 10, 1, 3, 1, 7, 4, 10, 9, 3, 8, 2, 7, 8, 8, 3, 9, 3, 2, 2, 2, 1, 10, 5, 10, 3, 7, 9, 9, 8, 10, 4, 10, 10, 2, 5, 9, 6, 7, 5, 9, 8, 4, 2, 2, 8, 5, 4, 6, 5, 1, 4, 2, 1, 1, 4, 4, 3, 7, 2, 7, 9, 7, 1, 7, 10, 1, 10, 2, 0, 0, 8, 6, 9, 6, 4, 7, 1, 9, 4, 9, 9, 3, 2, 5, 7, 5, 3, 8, 4, 1, 7, 8, 7, 6, 4, 8, 6, 10, 4, 8, 1, 5, 8, 10, 4, 8, 10, 7, 6, 6, 3, 2, 9, 10, 6, 3, 9, 9, 6, 5, 7, 5, 6, 5, 4, 4, 3, 1, 1, 7, 3, 5, 8, 9, 2, 10, 8, 3, 5, 4, 1, 2, 9, 5, 5, 5, 4, 10, 8, 8, 8, 7, 9, 1, 8, 9, 5, 1, 7, 6, 0, 0, 2, 4, 5, 7, 7, 5, 10, 5, 2, 6, 9, 5, 8, 4, 8, 10, 6, 6, 10, 8, 2, 9, 1, 3, 4, 5, 2, 1, 9, 9, 7, 5, 1, 3, 3, 4, 9, 7, 10, 10, 10, 5, 8, 9, 10, 10, 2, 10, 5, 10, 2, 5, 5, 10, 1, 5, 3, 8, 3, 2, 3, 2, 5, 8, 5, 3, 8, 6, 10, 4, 2, 4, 3, 6, 6, 9, 7, 1, 2, 6, 4, 3, 10, 8, 5, 8, 8, 6, 2, 4, 0]);

suc = [
   {2, 3, 4},
   {9, 18, 41},
   {72, 37, 5},
   {12, 6, 7},
   {8, 49, 50},
   {17},
   {23, 55, 15},
   {27, 10, 11},
   {40, 46},
   {24, 13, 23},
   {34, 36},
   {32, 19, 14},
   {26, 45, 47},
   {41},
   {16, 25, 20},
   {82, 85, 29},
   {51, 54},
   {57, 51, 21},
   {41, 31},
   {26, 43, 53},
   {59, 22},
   {28, 36, 63},
   {31},
   {38},
   {58, 30},
   {56, 62},
   {64, 59, 68},
   {33, 75, 55},
   {77},
   {44},
   {35},
   {34, 85, 87},
   {50, 67},
   {60},
   {65, 74},
   {75, 61, 87},
   {42},
   {73, 60, 39},
   {48, 80},
   {48, 52, 77},
   {64, 69},
   {78},
   {64, 71},
   {62},
   {65, 86},
   {51},
   {56, 76},
   {67, 78},
   {56, 80},
   {66, 84},
   {83, 62},
   {58},
   {57, 60, 54},
   {81, 74},
   {81, 83},
   {69},
   {76},
   {61},
   {69},
   {68, 79},
   {90, 84},
   {65, 66},
   {73, 68, 70},
   {86},
   {70},
   {73, 82},
   {91},
   {83},
   {77, 71},
   {76, 71},
   {85},
   {79},
   {74},
   {79},
   {89},
   {80, 81, 78},
   {90},
   {82},
   {88, 86},
   {90},
   {88},
   {87},
   {84},
   {88},
   {89},
   {91},
   {89},
   {91},
   {92},
   {92},
   {92},
   {  } ];

deadline = array2d(1..92, 1..3, [1, 2, 3, 2, 1, 5, 2, 2, 4, 3, 3, 4, 4, 5, 4, 4, 3, 3, 6, 1, 4, 9, 2, 2, 9, 2, 4, 10, 5, 1, 10, 5, 1, 17, 2, 5, 20, 1, 3, 20, 3, 5, 21, 1, 4, 21, 0, 4, 26, 3, 1, 26, 4, 2, 27, 5, 1, 29, 0, 2, 31, 5, 5, 32, 4, 1, 36, 4, 0, 36, 5, 2, 41, 0, 5, 42, 5, 1, 44, 5, 1, 46, 1, 5, 46, 5, 0, 46, 1, 1, 48, 2, 1, 48, 3, 4, 49, 0, 1, 49, 5, 5, 58, 0, 3, 60, 0, 2, 61, 3, 4, 61, 3, 3, 64, 4, 3, 65, 2, 0, 67, 1, 5, 68, 1, 2, 72, 4, 4, 78, 2, 2, 81, 2, 0, 82, 4, 0, 84, 2, 2, 87, 5, 2, 88, 3, 1, 91, 0, 4, 91, 0, 4, 93, 1, 4, 93, 5, 1, 96, 2, 5, 99, 3, 3, 100, 1, 2, 101, 2, 5, 104, 2, 3, 110, 2, 1, 111, 3, 5, 117, 4, 3, 129, 5, 1, 135, 4, 3, 137, 4, 2, 137, 3, 3, 139, 2, 1, 139, 1, 2, 140, 1, 0, 141, 2, 2, 142, 2, 2, 142, 5, 1, 145, 0, 0, 145, 0, 5, 146, 5, 4, 147, 5, 1, 147, 2, 1, 149, 2, 3, 149, 1, 1, 155, 3, 3, 158, 2, 4, 161, 3, 2, 166, 5, 1, 166, 2, 1, 169, 3, 0, 170, 1, 3, 170, 0, 4, 172, 0, 1, 172, 1, 4, 181, 0, 1, 192, 5, 3, 195, 1, 4, 197, 5, 5]);
