n_res = 4;
rc = [ 18, 21, 26, 16 ];
n_tasks = 92;
d = [0, 8, 3, 5, 6, 9, 4, 4, 10, 1, 4, 4, 4, 1, 6, 5, 4, 2, 2, 5, 2, 8, 3, 5, 7, 7, 8, 5, 2, 2, 9, 1, 10, 2, 7, 2, 4, 2, 9, 3, 6, 3, 7, 5, 2, 8, 6, 10, 8, 8, 10, 4, 8, 3, 10, 5, 6, 1, 8, 5, 1, 2, 4, 8, 10, 9, 5, 3, 9, 10, 7, 2, 2, 8, 7, 5, 8, 1, 3, 8, 6, 9, 4, 3, 5, 2, 2, 1, 1, 1, 1, 0];
rr = array2d(1..4, 1..92, [0, 0, 5, 8, 4, 0, 1, 0, 0, 0, 0, 9, 1, 1, 0, 2, 0, 4, 0, 0, 2, 0, 0, 2, 0, 0, 0, 0, 10, 0, 8, 9, 0, 6, 3, 0, 10, 5, 8, 0, 0, 5, 0, 0, 0, 0, 0, 2, 4, 0, 8, 2, 2, 0, 2, 1, 6, 4, 9, 5, 0, 0, 7, 4, 0, 4, 0, 0, 0, 0, 0, 0, 9, 0, 2, 0, 6, 0, 0, 0, 8, 5, 0, 0, 0, 0, 0, 0, 1, 3, 0, 0, 0, 5, 0, 10, 5, 8, 0, 0, 4, 9, 0, 10, 0, 4, 0, 1, 0, 4, 2, 0, 8, 3, 0, 7, 8, 0, 7, 0, 0, 0, 0, 0, 9, 0, 0, 9, 0, 6, 6, 8, 0, 0, 0, 2, 0, 0, 1, 0, 4, 10, 7, 0, 2, 0, 0, 0, 0, 0, 0, 0, 0, 0, 8, 5, 9, 0, 0, 0, 8, 0, 1, 1, 0, 0, 9, 0, 7, 5, 1, 9, 1, 6, 2, 0, 5, 10, 9, 0, 0, 0, 7, 0, 0, 9, 0, 0, 2, 10, 0, 4, 0, 10, 2, 8, 6, 4, 5, 9, 10, 0, 10, 4, 0, 0, 0, 8, 8, 5, 1, 2, 0, 9, 0, 7, 1, 0, 7, 0, 1, 0, 0, 10, 2, 1, 0, 2, 0, 8, 10, 0, 0, 0, 0, 10, 1, 1, 0, 0, 0, 0, 10, 0, 9, 9, 3, 6, 0, 0, 7, 3, 1, 0, 3, 7, 0, 0, 5, 4, 0, 10, 3, 3, 0, 2, 0, 5, 3, 5, 0, 7, 2, 0, 9, 0, 0, 0, 3, 0, 3, 8, 0, 0, 5, 1, 0, 0, 1, 0, 0, 2, 0, 0, 0, 0, 4, 0, 9, 0, 0, 0, 5, 6, 4, 2, 3, 0, 3, 0, 8, 0, 0, 10, 0, 0, 5, 0, 3, 0, 2, 6, 0, 0, 9, 0, 0, 0, 0, 3, 0, 0, 0, 2, 0, 0, 0, 8, 0, 0, 0, 3, 0, 3, 0, 10, 5, 4, 0, 7, 2, 1, 8, 0, 1, 0, 2, 0, 10, 6, 1, 0, 2, 0, 0, 0, 0, 0]);

suc = [
   {2, 3, 4},
   {9, 11, 7},
   {42, 6, 23},
   {8, 5, 14},
   {32, 10},
   {16, 53, 21},
   {12},
   {29, 13, 15},
   {33, 49},
   {50},
   {17, 20, 22},
   {19, 62, 31},
   {64, 25},
   {81, 18, 63},
   {26, 44},
   {40, 78},
   {24, 72, 59},
   {54},
   {89, 28, 85},
   {76},
   {34},
   {35},
   {41, 27, 38},
   {36, 30, 47},
   {37},
   {87},
   {86, 74, 54},
   {82},
   {83},
   {55},
   {57, 77},
   {52, 46},
   {56, 68},
   {67},
   {90},
   {50, 43, 52},
   {40, 48, 39},
   {58, 85, 74},
   {73},
   {45},
   {73, 51},
   {65},
   {71},
   {90},
   {60},
   {61},
   {88},
   {66},
   {84},
   {54},
   {75},
   {70},
   {58},
   {65},
   {79},
   {79},
   {66},
   {65},
   {79},
   {90},
   {75},
   {74},
   {80, 66},
   {77},
   {75},
   {67},
   {87},
   {73, 69},
   {70},
   {89},
   {82},
   {76},
   {83},
   {78},
   {76},
   {83, 77, 78},
   {89},
   {84},
   {82},
   {86},
   {85},
   {91},
   {84},
   {87},
   {86},
   {88},
   {91},
   {91},
   {92},
   {92},
   {92},
   {  } ];

deadline = array2d(1..92, 1..3, [3, 0, 1, 8, 0, 1, 9, 4, 4, 10, 0, 5, 11, 4, 0, 11, 4, 4, 12, 5, 0, 12, 2, 4, 13, 2, 5, 13, 3, 3, 16, 2, 0, 17, 5, 4, 20, 2, 4, 27, 4, 2, 28, 0, 2, 29, 3, 0, 32, 4, 1, 32, 4, 2, 34, 3, 4, 36, 4, 3, 40, 4, 4, 42, 2, 5, 42, 1, 3, 43, 2, 1, 43, 3, 4, 43, 4, 5, 45, 4, 0, 46, 5, 2, 47, 0, 4, 47, 3, 2, 53, 3, 4, 57, 0, 1, 57, 2, 2, 57, 4, 5, 58, 0, 3, 60, 1, 2, 62, 0, 4, 63, 2, 2, 65, 2, 3, 66, 2, 5, 66, 5, 3, 69, 1, 5, 69, 0, 4, 73, 5, 1, 74, 4, 1, 75, 3, 5, 75, 0, 0, 77, 0, 3, 78, 4, 5, 78, 2, 3, 80, 3, 5, 82, 4, 3, 88, 1, 0, 89, 5, 1, 89, 3, 0, 92, 4, 0, 95, 2, 1, 96, 4, 4, 97, 3, 5, 101, 4, 2, 101, 3, 5, 105, 4, 0, 105, 2, 5, 107, 0, 0, 108, 1, 1, 110, 2, 2, 112, 1, 4, 112, 2, 5, 117, 3, 1, 118, 4, 2, 119, 3, 3, 122, 0, 4, 122, 2, 3, 123, 4, 2, 125, 1, 2, 129, 5, 1, 129, 5, 0, 133, 1, 2, 134, 3, 0, 136, 4, 0, 139, 4, 1, 140, 2, 2, 143, 3, 2, 144, 4, 3, 144, 1, 3, 145, 1, 5, 148, 2, 5, 154, 5, 5, 158, 5, 4, 159, 4, 1, 163, 2, 4, 164, 0, 3]);
