n_res = 4;
rc = [ 57, 56, 50, 64 ];
n_tasks = 92;
d = [0, 8, 3, 3, 9, 5, 6, 2, 1, 7, 9, 3, 3, 1, 8, 2, 4, 3, 5, 6, 2, 8, 4, 1, 8, 8, 1, 7, 9, 7, 7, 10, 8, 8, 9, 1, 1, 10, 3, 2, 10, 4, 4, 3, 8, 4, 5, 10, 1, 8, 7, 6, 5, 1, 10, 10, 2, 6, 6, 10, 2, 8, 1, 9, 3, 9, 6, 9, 3, 3, 4, 5, 1, 8, 3, 6, 9, 3, 4, 6, 2, 3, 5, 2, 1, 6, 5, 3, 10, 3, 6, 0];
rr = array2d(1..4, 1..92, [0, 9, 5, 3, 3, 3, 7, 3, 9, 5, 2, 2, 2, 6, 10, 8, 10, 4, 7, 9, 5, 3, 7, 2, 4, 10, 1, 2, 3, 1, 1, 1, 4, 6, 6, 9, 5, 2, 10, 7, 3, 2, 10, 7, 10, 10, 4, 9, 7, 4, 8, 5, 5, 6, 8, 4, 5, 9, 6, 9, 6, 3, 4, 9, 5, 10, 7, 3, 10, 8, 4, 6, 7, 10, 1, 10, 4, 9, 10, 3, 8, 4, 4, 6, 1, 3, 8, 4, 2, 6, 7, 0, 0, 3, 6, 6, 10, 3, 5, 1, 5, 8, 10, 4, 6, 6, 3, 3, 6, 9, 3, 4, 8, 4, 9, 6, 5, 10, 5, 2, 3, 9, 8, 2, 6, 1, 6, 4, 3, 8, 5, 9, 9, 10, 8, 6, 6, 3, 3, 6, 3, 6, 3, 8, 10, 6, 10, 9, 4, 1, 8, 5, 5, 2, 2, 9, 5, 7, 2, 6, 2, 1, 6, 9, 8, 4, 10, 6, 1, 8, 10, 1, 6, 1, 2, 4, 6, 3, 9, 6, 1, 10, 7, 0, 0, 8, 6, 4, 7, 1, 9, 7, 10, 10, 10, 2, 10, 10, 10, 9, 8, 10, 8, 2, 7, 1, 3, 6, 7, 2, 1, 4, 1, 9, 3, 6, 5, 9, 4, 7, 8, 8, 2, 9, 6, 10, 2, 4, 9, 6, 6, 4, 2, 2, 4, 4, 7, 10, 2, 2, 1, 3, 3, 9, 7, 7, 1, 10, 9, 5, 7, 1, 4, 2, 7, 8, 9, 2, 7, 1, 4, 3, 2, 3, 4, 9, 4, 1, 1, 9, 7, 1, 8, 8, 9, 0, 0, 9, 10, 5, 10, 7, 9, 4, 8, 6, 2, 9, 5, 3, 7, 8, 1, 1, 1, 4, 2, 6, 10, 9, 8, 8, 1, 4, 7, 2, 10, 10, 10, 3, 8, 7, 1, 7, 7, 1, 6, 3, 4, 1, 2, 8, 9, 1, 3, 5, 6, 8, 4, 6, 6, 6, 8, 4, 3, 2, 5, 1, 9, 10, 3, 5, 5, 4, 10, 4, 8, 6, 1, 3, 2, 2, 10, 5, 5, 5, 5, 5, 5, 1, 4, 6, 3, 7, 1, 1, 4, 0]);

suc = [
   {2, 3, 4},
   {8, 25, 11},
   {9, 13},
   {24, 5, 6},
   {16, 12, 15},
   {48, 39, 7},
   {50, 19, 58},
   {26, 84, 29},
   {10, 82, 21},
   {18, 27, 77},
   {42, 14},
   {17, 20, 28},
   {64, 49, 71},
   {59},
   {52, 45, 30},
   {73, 53, 23},
   {72, 36, 63},
   {69},
   {46, 22, 55},
   {32, 61},
   {85, 38, 31},
   {37},
   {87},
   {40, 39},
   {64, 74, 54},
   {49, 34},
   {44},
   {43},
   {51, 60},
   {33, 35, 39},
   {65, 57, 60},
   {41},
   {91},
   {62, 38},
   {42, 44, 47},
   {57, 53},
   {53, 47},
   {51},
   {76},
   {60, 79},
   {72, 80, 44},
   {58, 51, 66},
   {77, 79},
   {59},
   {56, 57, 70},
   {61},
   {61, 54},
   {81},
   {68},
   {65, 52, 70},
   {67},
   {82, 55},
   {68},
   {83, 68},
   {78},
   {73, 62},
   {83, 69},
   {76},
   {69},
   {86},
   {74, 71},
   {65, 71},
   {64, 91, 70},
   {88, 67},
   {79},
   {91},
   {76},
   {80},
   {90},
   {73, 78},
   {77},
   {74, 85},
   {75},
   {81},
   {83, 84},
   {81, 78},
   {85},
   {80},
   {89, 86},
   {87},
   {87},
   {84},
   {88},
   {89, 86},
   {88},
   {90},
   {89},
   {90},
   {92},
   {92},
   {92},
   {  } ];

deadline = array2d(1..92, 1..3, [7, 3, 1, 8, 4, 5, 8, 4, 3, 10, 0, 4, 12, 5, 2, 21, 0, 0, 21, 5, 4, 23, 4, 0, 25, 1, 4, 31, 4, 3, 38, 0, 4, 41, 2, 4, 42, 3, 0, 42, 5, 2, 42, 4, 0, 43, 5, 3, 50, 2, 2, 56, 4, 3, 57, 5, 5, 63, 3, 1, 67, 2, 0, 74, 1, 4, 75, 5, 1, 76, 1, 0, 77, 1, 2, 79, 4, 5, 82, 3, 4, 82, 3, 0, 82, 1, 0, 86, 4, 1, 87, 4, 4, 94, 1, 3, 95, 1, 4, 96, 2, 4, 98, 3, 5, 101, 5, 4, 105, 0, 4, 105, 5, 5, 106, 1, 5, 110, 4, 0, 111, 3, 1, 112, 0, 3, 114, 2, 1, 114, 1, 3, 118, 1, 3, 119, 4, 4, 121, 2, 2, 122, 1, 1, 125, 1, 5, 127, 2, 2, 130, 3, 0, 132, 5, 5, 132, 4, 5, 138, 4, 4, 138, 0, 0, 141, 2, 5, 143, 4, 2, 144, 5, 4, 146, 1, 5, 146, 4, 2, 147, 0, 5, 148, 0, 1, 148, 0, 1, 149, 3, 4, 154, 3, 1, 157, 5, 2, 157, 2, 4, 162, 3, 0, 163, 2, 3, 164, 5, 4, 164, 4, 4, 170, 1, 4, 171, 3, 1, 173, 5, 4, 175, 2, 3, 175, 4, 0, 176, 1, 2, 178, 0, 3, 181, 5, 4, 181, 3, 1, 183, 1, 0, 184, 0, 2, 188, 3, 3, 190, 1, 4, 193, 3, 5, 195, 4, 2, 196, 1, 1, 197, 2, 0, 198, 1, 3, 199, 2, 2, 199, 0, 0, 204, 1, 2]);
