n_res = 4;
rc = [ 16, 18, 15, 13 ];
n_tasks = 92;
d = [0, 2, 10, 10, 10, 4, 5, 4, 10, 3, 5, 5, 9, 3, 7, 8, 2, 10, 1, 1, 6, 2, 4, 7, 3, 1, 8, 9, 5, 9, 3, 4, 3, 5, 10, 7, 2, 6, 5, 1, 5, 4, 5, 5, 2, 2, 9, 10, 7, 1, 3, 8, 5, 2, 5, 7, 6, 6, 8, 1, 2, 8, 4, 4, 2, 2, 6, 9, 4, 3, 6, 7, 3, 1, 8, 7, 6, 4, 7, 7, 4, 10, 2, 2, 10, 7, 6, 10, 10, 8, 6, 0];
rr = array2d(1..4, 1..92, [0, 3, 1, 6, 0, 0, 5, 4, 10, 0, 9, 0, 0, 1, 7, 0, 0, 0, 0, 8, 0, 0, 2, 1, 6, 3, 6, 9, 5, 9, 7, 7, 0, 2, 8, 0, 1, 0, 0, 3, 0, 0, 3, 7, 10, 0, 5, 0, 3, 3, 6, 0, 0, 9, 2, 0, 0, 3, 10, 2, 2, 6, 5, 9, 9, 0, 0, 0, 10, 0, 6, 7, 0, 5, 0, 0, 0, 8, 0, 7, 7, 0, 3, 2, 9, 0, 7, 6, 1, 7, 0, 0, 0, 0, 0, 3, 4, 10, 0, 0, 4, 0, 7, 0, 0, 0, 0, 0, 0, 0, 0, 7, 0, 0, 0, 0, 6, 0, 7, 0, 0, 10, 0, 8, 0, 10, 1, 9, 6, 3, 6, 0, 2, 3, 6, 0, 0, 0, 4, 2, 0, 0, 0, 10, 2, 5, 0, 2, 0, 5, 0, 5, 2, 2, 0, 0, 7, 0, 0, 7, 8, 10, 0, 2, 7, 7, 6, 1, 2, 1, 9, 0, 0, 0, 0, 0, 0, 8, 6, 0, 0, 0, 9, 0, 0, 9, 0, 0, 7, 5, 0, 0, 0, 0, 0, 6, 6, 9, 6, 4, 8, 3, 0, 0, 0, 3, 0, 0, 6, 0, 0, 7, 0, 0, 5, 5, 9, 0, 2, 0, 0, 2, 0, 2, 0, 7, 0, 0, 9, 0, 0, 3, 0, 0, 2, 0, 0, 1, 0, 0, 0, 9, 0, 0, 0, 10, 7, 5, 0, 7, 6, 9, 9, 0, 0, 1, 10, 10, 0, 0, 2, 0, 7, 0, 1, 8, 0, 1, 0, 0, 0, 9, 1, 0, 6, 0, 0, 0, 0, 0, 0, 1, 0, 0, 0, 1, 0, 0, 5, 0, 3, 0, 0, 5, 6, 0, 1, 0, 0, 0, 1, 0, 3, 0, 0, 9, 1, 0, 10, 3, 0, 8, 8, 0, 0, 0, 0, 0, 0, 0, 0, 1, 5, 5, 0, 0, 10, 0, 4, 0, 8, 3, 2, 0, 0, 0, 1, 0, 0, 2, 0, 2, 9, 0, 7, 6, 0, 10, 4, 0, 0, 3, 0, 7, 0, 1, 0, 1, 0, 4, 8, 0, 0, 3, 0, 1, 0, 0]);

suc = [
   {2, 3, 4},
   {5, 6, 7},
   {91, 45, 63},
   {16, 12, 20},
   {8, 19, 29},
   {26, 14, 30},
   {10},
   {9, 17, 23},
   {72, 28},
   {19, 33, 11},
   {24, 76, 13},
   {75, 59},
   {16, 22, 55},
   {25, 29, 15},
   {37, 21, 31},
   {28, 54},
   {64, 18, 20},
   {67, 28, 63},
   {48, 49, 51},
   {43},
   {42},
   {56, 64, 59},
   {40, 43, 27},
   {58, 27},
   {32, 49},
   {42, 51},
   {41, 35, 47},
   {40, 57, 69},
   {33, 52, 69},
   {74, 31},
   {34},
   {79, 46, 55},
   {36, 38, 39},
   {86, 44, 60},
   {55},
   {44, 37},
   {81, 84, 45},
   {67, 68, 70},
   {44, 45},
   {58, 78},
   {48, 50, 53},
   {48},
   {51},
   {67, 46},
   {50, 54},
   {88, 81, 76},
   {49, 53},
   {56, 60, 79},
   {56, 52, 60},
   {90, 61},
   {53, 62, 71},
   {64, 62, 79},
   {72, 57, 54},
   {61},
   {57, 62},
   {65, 66, 69},
   {80, 61, 86},
   {73, 74, 59},
   {65},
   {65, 68, 63},
   {82},
   {73, 75},
   {72, 85},
   {66, 82, 70},
   {80, 91},
   {83, 68},
   {76, 78},
   {85, 78},
   {73, 70},
   {80, 75, 71},
   {74},
   {82},
   {85, 77},
   {77},
   {89, 77},
   {84},
   {83},
   {87},
   {88, 83},
   {89, 81},
   {90},
   {89},
   {84, 86},
   {87},
   {88},
   {87},
   {91},
   {90},
   {92},
   {92},
   {92},
   {  } ];

deadline = array2d(1..92, 1..3, [2, 3, 0, 6, 4, 1, 7, 0, 1, 11, 4, 4, 15, 0, 0, 17, 0, 5, 17, 5, 5, 20, 4, 2, 25, 3, 1, 25, 4, 1, 32, 1, 3, 34, 1, 1, 34, 2, 2, 35, 5, 2, 38, 3, 3, 39, 5, 3, 39, 2, 1, 40, 3, 5, 42, 1, 2, 53, 4, 0, 53, 3, 1, 61, 5, 5, 63, 4, 3, 64, 5, 4, 66, 0, 5, 67, 2, 2, 74, 0, 0, 76, 1, 3, 82, 1, 2, 85, 1, 3, 89, 0, 1, 92, 1, 2, 94, 2, 4, 95, 1, 0, 95, 3, 0, 97, 1, 1, 97, 4, 0, 98, 5, 1, 100, 2, 0, 102, 2, 4, 107, 5, 2, 108, 3, 4, 111, 4, 0, 113, 1, 4, 114, 1, 5, 114, 0, 0, 116, 0, 2, 120, 2, 4, 122, 2, 4, 122, 2, 5, 125, 0, 4, 127, 2, 1, 127, 4, 1, 128, 3, 0, 129, 2, 0, 129, 2, 1, 130, 2, 3, 140, 0, 1, 144, 5, 5, 144, 2, 4, 147, 2, 4, 149, 0, 0, 154, 3, 5, 155, 4, 0, 163, 3, 5, 163, 3, 4, 170, 5, 5, 171, 3, 1, 174, 2, 3, 177, 5, 4, 177, 5, 1, 181, 5, 4, 184, 2, 2, 186, 4, 4, 188, 5, 1, 192, 4, 4, 198, 5, 5, 200, 5, 5, 205, 3, 2, 210, 5, 5, 217, 2, 2, 218, 1, 4, 219, 5, 3, 220, 1, 5, 222, 4, 3, 224, 5, 2, 228, 5, 1, 229, 0, 2, 230, 4, 0, 239, 5, 4, 239, 1, 4, 239, 1, 3]);
