n_res = 4;
rc = [ 23, 20, 22, 19 ];
n_tasks = 92;
d = [0, 7, 8, 7, 6, 5, 7, 9, 5, 2, 10, 8, 4, 8, 7, 2, 10, 10, 2, 6, 4, 8, 1, 9, 2, 9, 9, 8, 5, 4, 8, 9, 4, 7, 8, 10, 1, 3, 3, 3, 6, 8, 4, 2, 9, 1, 4, 2, 2, 3, 4, 10, 7, 2, 6, 7, 3, 4, 9, 6, 1, 7, 2, 6, 1, 1, 10, 5, 2, 4, 9, 9, 10, 5, 8, 6, 5, 2, 3, 9, 6, 10, 1, 5, 9, 2, 7, 5, 5, 7, 8, 0];
rr = array2d(1..4, 1..92, [0, 3, 3, 6, 0, 7, 8, 7, 6, 0, 1, 5, 7, 1, 9, 3, 7, 0, 6, 7, 10, 10, 4, 2, 9, 2, 9, 0, 2, 0, 0, 1, 10, 8, 3, 6, 3, 3, 3, 2, 10, 0, 1, 7, 9, 0, 0, 2, 4, 0, 9, 1, 0, 0, 0, 6, 10, 6, 6, 0, 1, 5, 5, 1, 10, 1, 7, 0, 4, 0, 6, 5, 9, 9, 0, 2, 3, 4, 8, 4, 2, 6, 0, 3, 3, 10, 5, 9, 10, 2, 8, 0, 0, 9, 6, 5, 2, 8, 0, 1, 6, 8, 7, 1, 6, 0, 10, 6, 1, 1, 4, 3, 5, 0, 2, 9, 2, 0, 4, 0, 0, 4, 4, 3, 2, 7, 8, 10, 10, 0, 1, 0, 9, 6, 0, 3, 3, 0, 4, 2, 6, 0, 0, 4, 5, 0, 7, 9, 0, 0, 0, 7, 7, 6, 1, 4, 10, 5, 8, 4, 3, 6, 0, 0, 9, 10, 0, 8, 3, 7, 0, 6, 0, 3, 8, 7, 9, 1, 0, 8, 0, 6, 3, 0, 0, 1, 0, 9, 5, 0, 5, 8, 0, 0, 6, 1, 0, 0, 0, 6, 4, 10, 0, 4, 7, 6, 0, 1, 0, 10, 0, 3, 1, 5, 0, 0, 9, 3, 0, 6, 3, 4, 1, 0, 1, 7, 9, 2, 6, 7, 5, 5, 8, 0, 3, 0, 2, 1, 0, 4, 8, 0, 6, 0, 3, 8, 1, 0, 4, 0, 8, 0, 1, 3, 0, 8, 5, 0, 4, 8, 0, 1, 8, 2, 4, 8, 0, 6, 4, 10, 1, 7, 6, 1, 5, 0, 0, 0, 1, 0, 6, 2, 10, 0, 0, 1, 0, 4, 0, 10, 0, 3, 4, 5, 2, 3, 0, 0, 9, 0, 6, 0, 9, 8, 0, 1, 0, 6, 8, 3, 0, 5, 6, 0, 0, 2, 8, 1, 4, 1, 3, 4, 1, 0, 7, 8, 1, 10, 3, 5, 8, 2, 3, 5, 1, 0, 9, 2, 10, 6, 6, 10, 7, 8, 7, 3, 6, 6, 0, 1, 6, 8, 0, 7, 5, 3, 4, 6, 6, 1, 10, 2, 3, 0, 8, 10, 7, 0]);

suc = [
   {2, 3, 4},
   {69, 5},
   {9, 12},
   {25, 34, 21},
   {8, 17, 6},
   {41, 10, 7},
   {16, 26, 22},
   {44, 13, 38},
   {74, 11, 28},
   {18, 19, 42},
   {61},
   {60, 14, 84},
   {58, 30, 31},
   {56, 15},
   {33, 47},
   {29},
   {23},
   {49, 20, 79},
   {82, 39},
   {24},
   {29},
   {89, 51, 46},
   {27, 44},
   {83, 61},
   {73, 37},
   {35},
   {64, 57, 88},
   {48, 90, 86},
   {30},
   {32, 40, 50},
   {32},
   {36},
   {81},
   {75},
   {44},
   {45},
   {59, 76, 54},
   {43, 71},
   {55},
   {78},
   {79},
   {59},
   {66, 70},
   {52},
   {87},
   {68},
   {53, 63},
   {69},
   {85},
   {85},
   {83},
   {72},
   {68},
   {68},
   {73, 65, 80},
   {64},
   {70},
   {82},
   {72},
   {67, 62},
   {66, 62},
   {65},
   {67},
   {78},
   {70},
   {72},
   {85},
   {79},
   {80},
   {77},
   {82},
   {77},
   {83},
   {75},
   {86},
   {80},
   {81},
   {91},
   {87},
   {88},
   {87},
   {91},
   {88},
   {86},
   {90},
   {89},
   {90},
   {91},
   {92},
   {92},
   {92},
   {  } ];

deadline = array2d(1..92, 1..3, [3, 2, 5, 3, 5, 4, 6, 1, 2, 13, 1, 3, 14, 2, 1, 17, 5, 2, 18, 0, 1, 18, 5, 3, 22, 5, 3, 24, 5, 1, 26, 5, 5, 32, 1, 5, 33, 1, 2, 34, 1, 1, 37, 4, 0, 37, 3, 3, 40, 3, 3, 40, 1, 2, 43, 3, 3, 51, 4, 2, 58, 4, 0, 59, 5, 1, 66, 5, 4, 66, 4, 3, 67, 2, 3, 69, 0, 5, 73, 0, 2, 76, 0, 3, 76, 1, 4, 77, 5, 1, 80, 4, 2, 86, 4, 2, 89, 4, 5, 92, 2, 0, 92, 3, 4, 101, 1, 2, 104, 4, 5, 106, 3, 5, 107, 5, 5, 112, 5, 2, 119, 5, 1, 120, 3, 1, 121, 4, 3, 123, 3, 0, 126, 5, 3, 127, 3, 3, 129, 1, 0, 129, 0, 1, 131, 2, 5, 131, 1, 2, 134, 4, 2, 135, 1, 0, 140, 1, 2, 143, 3, 1, 143, 3, 0, 143, 0, 4, 146, 4, 3, 150, 3, 4, 153, 5, 3, 154, 3, 1, 161, 2, 2, 161, 1, 0, 163, 1, 0, 168, 1, 5, 169, 3, 0, 169, 2, 5, 172, 1, 1, 175, 5, 1, 175, 1, 2, 176, 0, 2, 179, 5, 5, 180, 1, 4, 182, 0, 4, 183, 0, 4, 186, 0, 5, 190, 0, 1, 192, 2, 4, 195, 1, 3, 197, 5, 0, 198, 3, 3, 198, 2, 2, 202, 2, 4, 203, 1, 5, 204, 3, 0, 205, 2, 1, 205, 1, 2, 210, 0, 2, 215, 0, 4, 215, 4, 1, 215, 0, 3, 218, 2, 5, 220, 2, 3]);
