n_res = 4;
rc = [ 51, 45, 46, 56 ];
n_tasks = 92;
d = [0, 9, 8, 10, 2, 3, 9, 3, 8, 4, 9, 2, 9, 5, 4, 7, 10, 6, 7, 8, 8, 7, 7, 2, 9, 6, 8, 1, 6, 8, 1, 6, 3, 9, 4, 8, 5, 9, 8, 4, 2, 2, 2, 1, 6, 9, 6, 8, 10, 3, 9, 8, 1, 4, 9, 2, 3, 1, 9, 5, 9, 9, 7, 8, 9, 5, 2, 10, 4, 6, 10, 9, 10, 5, 3, 6, 7, 10, 7, 8, 4, 9, 9, 7, 7, 1, 10, 4, 6, 6, 5, 0];
rr = array2d(1..4, 1..92, [0, 6, 4, 10, 7, 7, 5, 3, 6, 9, 2, 3, 10, 9, 4, 8, 1, 8, 8, 1, 2, 3, 7, 4, 10, 8, 10, 6, 5, 10, 7, 9, 8, 7, 7, 9, 9, 7, 3, 4, 7, 6, 4, 7, 7, 2, 1, 2, 7, 8, 6, 7, 4, 3, 5, 8, 8, 5, 9, 10, 7, 9, 4, 7, 10, 7, 5, 6, 2, 7, 4, 2, 1, 6, 7, 5, 9, 7, 6, 10, 6, 1, 5, 7, 10, 8, 7, 7, 6, 2, 5, 0, 0, 2, 9, 6, 3, 8, 8, 4, 2, 9, 10, 4, 3, 3, 1, 5, 10, 10, 5, 1, 9, 4, 10, 10, 6, 9, 5, 9, 3, 1, 1, 7, 7, 9, 5, 4, 2, 10, 10, 10, 1, 10, 7, 9, 8, 7, 1, 2, 5, 8, 7, 9, 2, 1, 9, 9, 5, 7, 8, 10, 4, 4, 3, 7, 1, 7, 10, 8, 3, 1, 9, 5, 7, 5, 2, 7, 8, 9, 5, 7, 4, 4, 8, 3, 10, 4, 4, 8, 4, 3, 7, 0, 0, 1, 9, 10, 2, 5, 6, 1, 3, 1, 8, 7, 1, 7, 5, 9, 7, 8, 5, 2, 9, 3, 4, 1, 7, 9, 10, 9, 5, 10, 6, 3, 4, 5, 4, 2, 4, 7, 5, 1, 10, 9, 2, 6, 7, 2, 8, 3, 1, 4, 5, 8, 9, 4, 4, 3, 9, 6, 5, 8, 6, 3, 9, 9, 1, 6, 6, 7, 10, 6, 5, 10, 2, 8, 8, 6, 10, 3, 1, 10, 1, 5, 2, 10, 8, 7, 2, 8, 10, 3, 5, 0, 0, 6, 3, 6, 6, 8, 2, 6, 9, 3, 5, 4, 2, 6, 1, 7, 10, 8, 9, 7, 3, 6, 1, 7, 4, 6, 6, 4, 10, 6, 1, 2, 7, 5, 6, 2, 10, 10, 4, 6, 6, 4, 7, 5, 10, 4, 7, 2, 7, 8, 8, 5, 2, 10, 7, 9, 4, 7, 9, 8, 10, 4, 7, 5, 3, 5, 10, 1, 10, 2, 5, 3, 6, 1, 4, 4, 9, 2, 4, 3, 1, 7, 9, 6, 7, 6, 5, 7, 6, 7, 4, 0]);

suc = [
   {2, 3, 4},
   {8, 15, 7},
   {32, 44, 60},
   {16, 10, 5},
   {66, 6},
   {17, 28, 21},
   {41, 74, 71},
   {9, 11, 12},
   {35, 10, 19},
   {18, 51, 50},
   {25, 46, 49},
   {16, 13, 14},
   {33, 21, 41},
   {58, 20, 29},
   {24, 32, 23},
   {28, 29},
   {24, 73, 84},
   {48, 76, 55},
   {36, 47, 39},
   {81, 22, 31},
   {80, 57, 30},
   {40, 33, 27},
   {29, 62},
   {43, 35, 38},
   {26, 83},
   {56, 34, 47},
   {32, 65, 51},
   {37},
   {44, 84},
   {48, 36, 53},
   {72, 45, 70},
   {88, 34},
   {34, 53, 70},
   {72, 43},
   {41, 42, 45},
   {67, 43},
   {42, 75},
   {64, 82, 54},
   {40, 77, 46},
   {48, 42, 44},
   {61},
   {59},
   {86, 62},
   {78, 51, 54},
   {64, 60},
   {78, 71},
   {59, 68, 53},
   {52},
   {81, 57, 54},
   {65, 57, 59},
   {68, 55},
   {56, 60},
   {77},
   {69, 55},
   {56, 75},
   {90, 63},
   {64, 61},
   {63},
   {74, 87},
   {83, 61},
   {75, 62, 63},
   {91},
   {79},
   {69},
   {72, 66},
   {73, 90},
   {68, 69, 71},
   {79},
   {76},
   {73, 90},
   {81},
   {80, 84, 85},
   {74, 76, 77},
   {80, 82},
   {79},
   {83, 85},
   {78},
   {88},
   {86, 87},
   {89},
   {82, 85},
   {86},
   {87},
   {89},
   {89},
   {91},
   {88},
   {91},
   {92},
   {92},
   {92},
   {  } ];

deadline = array2d(1..92, 1..3, [9, 5, 4, 10, 4, 2, 13, 2, 5, 16, 2, 2, 16, 1, 3, 16, 3, 4, 18, 1, 0, 21, 3, 3, 21, 0, 5, 25, 5, 5, 26, 0, 3, 29, 4, 0, 33, 1, 3, 34, 1, 3, 35, 5, 0, 38, 5, 1, 40, 5, 5, 50, 4, 4, 58, 1, 0, 58, 5, 2, 59, 3, 2, 64, 4, 0, 73, 1, 0, 76, 2, 3, 77, 5, 5, 80, 3, 3, 81, 1, 0, 85, 1, 5, 88, 5, 3, 89, 2, 0, 94, 3, 0, 95, 5, 5, 96, 0, 5, 96, 2, 3, 97, 2, 1, 97, 3, 3, 99, 1, 0, 102, 1, 0, 103, 2, 3, 104, 2, 3, 106, 4, 5, 108, 0, 1, 108, 3, 0, 110, 4, 1, 112, 3, 4, 118, 1, 2, 119, 0, 1, 133, 3, 5, 133, 3, 2, 134, 1, 0, 136, 3, 0, 139, 4, 1, 143, 5, 1, 146, 2, 5, 155, 1, 4, 157, 0, 3, 161, 1, 1, 166, 5, 2, 167, 5, 0, 173, 5, 4, 179, 4, 2, 181, 2, 5, 185, 0, 5, 185, 3, 1, 186, 2, 0, 187, 1, 3, 189, 3, 0, 191, 2, 5, 192, 5, 3, 195, 1, 3, 195, 3, 2, 196, 4, 1, 196, 4, 2, 197, 1, 3, 198, 3, 4, 198, 1, 5, 200, 0, 5, 207, 2, 0, 208, 4, 0, 210, 1, 5, 215, 0, 1, 217, 1, 2, 230, 3, 3, 233, 0, 5, 233, 0, 5, 242, 4, 1, 243, 1, 3, 244, 2, 3, 246, 5, 1, 247, 3, 2, 252, 5, 5, 253, 5, 1]);
