n_res = 4;
rc = [ 42, 47, 43, 32 ];
n_tasks = 92;
d = [0, 10, 1, 9, 8, 4, 2, 8, 4, 10, 8, 2, 1, 1, 3, 1, 8, 7, 1, 8, 8, 6, 6, 1, 6, 3, 4, 9, 10, 1, 5, 8, 3, 5, 9, 5, 8, 8, 5, 4, 10, 6, 4, 9, 4, 9, 8, 6, 4, 5, 2, 6, 6, 6, 8, 1, 1, 3, 5, 7, 10, 9, 4, 8, 8, 6, 9, 6, 7, 1, 7, 2, 8, 1, 3, 1, 3, 4, 9, 4, 6, 9, 8, 10, 10, 4, 3, 6, 8, 8, 1, 0];
rr = array2d(1..4, 1..92, [0, 0, 0, 2, 7, 1, 4, 10, 0, 2, 8, 3, 0, 0, 9, 0, 0, 3, 0, 6, 5, 3, 5, 7, 6, 7, 0, 3, 5, 8, 8, 1, 8, 4, 7, 0, 0, 2, 5, 5, 7, 8, 5, 2, 3, 5, 2, 0, 1, 9, 0, 7, 4, 6, 2, 4, 8, 3, 2, 1, 8, 0, 10, 9, 0, 3, 9, 0, 2, 4, 10, 6, 4, 0, 5, 0, 1, 1, 6, 7, 2, 2, 7, 10, 0, 8, 1, 9, 1, 8, 1, 0, 0, 9, 3, 7, 4, 10, 6, 0, 4, 6, 2, 1, 0, 10, 1, 3, 8, 8, 7, 5, 0, 7, 8, 4, 10, 6, 4, 0, 0, 0, 5, 10, 9, 10, 6, 5, 7, 0, 2, 8, 8, 10, 3, 0, 5, 0, 4, 3, 0, 6, 3, 9, 5, 4, 1, 7, 5, 1, 9, 1, 10, 8, 0, 0, 0, 0, 4, 3, 2, 3, 10, 5, 1, 9, 4, 1, 4, 0, 0, 3, 10, 3, 0, 0, 10, 2, 0, 2, 10, 7, 1, 0, 0, 6, 6, 3, 0, 9, 0, 10, 5, 4, 0, 2, 2, 4, 4, 0, 9, 4, 6, 9, 7, 6, 5, 8, 0, 0, 0, 0, 7, 8, 1, 8, 10, 0, 0, 8, 1, 5, 6, 0, 2, 0, 0, 3, 5, 2, 0, 4, 9, 4, 7, 3, 2, 0, 2, 0, 0, 7, 9, 6, 0, 5, 4, 4, 7, 9, 9, 0, 0, 0, 4, 0, 7, 4, 0, 6, 0, 7, 10, 4, 8, 2, 1, 0, 0, 5, 4, 9, 0, 9, 5, 0, 0, 7, 0, 10, 0, 5, 0, 0, 1, 4, 7, 1, 1, 9, 1, 4, 7, 7, 1, 7, 0, 7, 3, 1, 10, 6, 6, 9, 0, 8, 0, 2, 2, 0, 2, 4, 0, 6, 4, 0, 0, 0, 3, 0, 8, 10, 3, 0, 1, 2, 9, 0, 2, 2, 5, 3, 3, 8, 5, 1, 6, 6, 7, 6, 8, 10, 10, 0, 6, 8, 0, 2, 10, 0, 0, 0, 0, 10, 10, 1, 10, 5, 1, 4, 4, 5, 0, 0, 6, 0, 2, 0]);

suc = [
   {2, 3, 4},
   {5},
   {18, 11, 66},
   {8, 47, 7},
   {9, 13, 6},
   {20},
   {89, 26},
   {10, 19},
   {12, 84},
   {48, 14},
   {24},
   {38},
   {16, 22, 15},
   {17, 27, 39},
   {25, 35},
   {32, 21, 23},
   {34, 36, 29},
   {81, 61},
   {43},
   {82, 30},
   {64},
   {70, 45, 30},
   {59},
   {40, 28},
   {65},
   {74, 44, 79},
   {67},
   {33, 51, 52},
   {42, 31},
   {59, 37},
   {67},
   {57},
   {41, 87},
   {69},
   {56, 60, 71},
   {72, 80},
   {83, 67, 87},
   {49, 53, 46},
   {75},
   {43},
   {48},
   {45},
   {50},
   {57},
   {82, 53, 63},
   {65, 54},
   {60},
   {69},
   {81, 78, 54},
   {85},
   {63},
   {53},
   {76, 55},
   {77},
   {58},
   {64},
   {69},
   {88},
   {73},
   {91},
   {62, 79},
   {90},
   {68},
   {86},
   {75},
   {77},
   {79},
   {83},
   {72},
   {81},
   {73},
   {90},
   {78},
   {75},
   {78},
   {80},
   {86},
   {80},
   {91},
   {85},
   {85},
   {83},
   {86},
   {89},
   {87},
   {91},
   {90},
   {89},
   {92},
   {92},
   {92},
   {  } ];

deadline = array2d(1..92, 1..3, [2, 2, 1, 4, 4, 1, 4, 0, 5, 4, 5, 3, 4, 1, 5, 9, 5, 5, 11, 2, 2, 13, 0, 3, 16, 0, 2, 18, 3, 3, 18, 3, 4, 18, 4, 1, 20, 3, 1, 24, 0, 4, 27, 4, 5, 27, 2, 2, 34, 5, 2, 38, 4, 4, 39, 1, 0, 39, 4, 0, 41, 5, 0, 51, 5, 1, 52, 4, 5, 52, 4, 2, 54, 2, 2, 54, 3, 1, 56, 2, 3, 58, 5, 5, 59, 5, 2, 60, 5, 3, 60, 0, 4, 64, 2, 3, 67, 0, 0, 80, 5, 3, 81, 2, 5, 82, 4, 1, 83, 5, 2, 86, 4, 4, 88, 1, 4, 91, 2, 4, 92, 4, 0, 97, 1, 1, 98, 4, 0, 101, 0, 4, 101, 3, 5, 103, 1, 2, 103, 5, 5, 103, 0, 4, 104, 1, 2, 106, 2, 0, 107, 0, 2, 108, 3, 5, 108, 5, 1, 110, 3, 3, 112, 3, 5, 113, 5, 3, 113, 3, 4, 122, 2, 2, 122, 0, 2, 126, 0, 5, 126, 4, 4, 130, 2, 0, 136, 1, 0, 136, 2, 0, 148, 0, 5, 148, 1, 0, 153, 2, 3, 154, 4, 0, 154, 5, 4, 158, 4, 4, 158, 1, 1, 161, 0, 0, 162, 2, 2, 162, 2, 2, 163, 3, 0, 163, 5, 5, 169, 4, 0, 169, 1, 3, 171, 5, 5, 177, 1, 5, 182, 0, 0, 186, 4, 3, 187, 1, 2, 189, 4, 4, 192, 0, 4, 200, 5, 1, 207, 5, 1, 209, 5, 2, 209, 2, 3, 209, 3, 4, 215, 5, 2, 217, 1, 1]);
