n_res = 4;
rc = [ 65, 62, 66, 60 ];
n_tasks = 92;
d = [0, 5, 2, 4, 6, 10, 7, 9, 6, 6, 4, 1, 7, 3, 3, 4, 4, 6, 6, 1, 6, 7, 4, 2, 6, 3, 1, 7, 7, 4, 8, 1, 3, 4, 1, 9, 10, 5, 5, 1, 9, 4, 6, 7, 4, 3, 7, 3, 4, 1, 5, 6, 6, 5, 1, 4, 9, 1, 7, 4, 5, 5, 3, 4, 7, 5, 1, 4, 8, 6, 4, 10, 10, 8, 10, 10, 9, 7, 3, 3, 7, 6, 5, 7, 8, 8, 10, 4, 9, 2, 10, 0];
rr = array2d(1..4, 1..92, [0, 0, 6, 10, 0, 7, 5, 7, 8, 8, 0, 8, 0, 4, 4, 0, 10, 2, 8, 0, 0, 0, 1, 9, 9, 5, 8, 3, 0, 1, 4, 0, 8, 3, 6, 0, 7, 5, 0, 3, 5, 1, 9, 4, 0, 4, 6, 0, 9, 2, 9, 10, 5, 0, 0, 5, 5, 2, 4, 9, 0, 3, 6, 0, 6, 9, 1, 9, 1, 0, 5, 5, 9, 7, 6, 0, 1, 0, 6, 4, 2, 5, 3, 4, 4, 7, 10, 8, 0, 8, 0, 0, 0, 5, 2, 6, 1, 1, 0, 3, 1, 0, 4, 0, 9, 3, 8, 3, 9, 0, 7, 0, 0, 10, 10, 5, 8, 4, 3, 1, 3, 0, 0, 1, 6, 1, 4, 8, 1, 6, 2, 7, 10, 5, 2, 0, 4, 6, 3, 10, 7, 10, 8, 2, 2, 0, 2, 0, 3, 3, 1, 10, 3, 6, 10, 5, 4, 2, 8, 2, 8, 0, 1, 7, 2, 3, 0, 8, 5, 0, 7, 0, 0, 4, 3, 10, 7, 0, 10, 2, 0, 0, 8, 0, 0, 0, 3, 0, 2, 6, 4, 2, 5, 2, 9, 0, 8, 0, 3, 0, 10, 5, 1, 9, 4, 0, 7, 7, 0, 5, 0, 9, 9, 7, 10, 4, 8, 0, 2, 7, 6, 1, 0, 0, 1, 3, 4, 1, 0, 6, 0, 3, 0, 1, 10, 0, 10, 10, 9, 5, 5, 9, 4, 0, 10, 7, 0, 6, 2, 0, 6, 0, 0, 8, 0, 5, 6, 2, 6, 7, 10, 4, 9, 10, 4, 9, 0, 1, 1, 1, 6, 0, 7, 0, 0, 0, 0, 7, 0, 0, 6, 0, 0, 1, 0, 8, 4, 0, 7, 0, 8, 4, 10, 5, 10, 3, 3, 0, 6, 0, 0, 6, 0, 3, 10, 5, 2, 0, 1, 0, 10, 6, 6, 10, 1, 0, 3, 1, 0, 3, 3, 0, 7, 5, 1, 1, 5, 2, 6, 6, 3, 9, 1, 4, 4, 0, 3, 0, 2, 5, 1, 2, 1, 8, 0, 10, 3, 0, 9, 6, 0, 1, 1, 6, 8, 7, 7, 0, 8, 9, 2, 4, 8, 4, 3, 9, 2, 0]);

suc = [
   {2, 3, 4},
   {8, 10, 6},
   {59, 45, 13},
   {5, 70},
   {16, 33, 7},
   {12},
   {23},
   {9, 74, 44},
   {18, 11},
   {52},
   {32, 36, 14},
   {56},
   {21, 15},
   {17, 28},
   {24, 57, 19},
   {61},
   {43},
   {20, 22, 47},
   {75},
   {25, 26, 34},
   {84, 30},
   {72, 41, 58},
   {54},
   {40, 38},
   {49, 27, 29},
   {42},
   {41, 39},
   {51, 82, 35},
   {90},
   {88, 37, 31},
   {48, 65, 64},
   {42, 53, 54},
   {80},
   {51},
   {66},
   {52},
   {71},
   {69, 55},
   {57},
   {77, 86},
   {46},
   {50},
   {84},
   {72},
   {54},
   {80},
   {81},
   {87},
   {85, 63},
   {65},
   {78},
   {84},
   {83},
   {77},
   {66},
   {60},
   {73},
   {65, 70},
   {61},
   {83},
   {62},
   {78, 71},
   {68},
   {73},
   {73, 67},
   {67},
   {78},
   {75},
   {82, 86},
   {81},
   {83},
   {76},
   {85, 87},
   {80},
   {77},
   {79},
   {79},
   {81},
   {82, 87},
   {86},
   {91},
   {88},
   {89},
   {89},
   {90, 91},
   {90},
   {91},
   {89},
   {92},
   {92},
   {92},
   {  } ];

deadline = array2d(1..92, 1..3, [9, 3, 0, 9, 5, 2, 12, 5, 0, 12, 4, 1, 13, 3, 5, 17, 4, 1, 17, 2, 5, 19, 4, 2, 23, 0, 0, 24, 4, 0, 25, 0, 4, 26, 4, 3, 31, 0, 1, 38, 1, 5, 38, 3, 3, 44, 2, 1, 46, 5, 1, 47, 0, 1, 48, 4, 1, 48, 0, 1, 54, 4, 2, 54, 4, 3, 57, 4, 3, 58, 0, 4, 60, 2, 3, 60, 1, 3, 68, 0, 1, 69, 0, 3, 71, 1, 5, 75, 4, 0, 87, 4, 4, 91, 5, 5, 95, 5, 2, 96, 3, 3, 98, 1, 0, 98, 4, 2, 98, 2, 5, 107, 0, 5, 107, 3, 1, 114, 3, 5, 114, 5, 0, 114, 3, 3, 115, 2, 4, 115, 2, 5, 115, 2, 1, 115, 4, 2, 116, 4, 5, 117, 1, 0, 119, 4, 4, 120, 2, 0, 120, 5, 1, 121, 0, 3, 122, 3, 3, 122, 5, 5, 124, 5, 4, 126, 0, 3, 128, 1, 1, 129, 4, 2, 132, 3, 4, 132, 4, 3, 135, 4, 3, 136, 2, 1, 137, 0, 1, 138, 0, 4, 141, 5, 1, 142, 5, 3, 148, 5, 5, 150, 3, 2, 153, 1, 3, 155, 3, 4, 157, 3, 4, 162, 3, 2, 164, 2, 2, 166, 5, 5, 168, 0, 5, 171, 2, 2, 173, 2, 5, 185, 5, 4, 186, 5, 1, 188, 0, 1, 190, 2, 0, 191, 1, 4, 192, 1, 2, 193, 0, 3, 197, 3, 2, 199, 2, 2, 199, 3, 0, 201, 4, 2, 203, 5, 3, 207, 2, 3, 212, 3, 0, 214, 3, 4]);
