n_res = 4;
rc = [ 24, 35, 31, 28 ];
n_tasks = 92;
d = [0, 7, 3, 1, 3, 6, 5, 5, 9, 5, 3, 8, 10, 5, 9, 8, 1, 3, 4, 9, 4, 5, 4, 10, 7, 1, 3, 10, 8, 10, 2, 4, 2, 7, 5, 7, 5, 9, 5, 10, 7, 10, 1, 6, 8, 2, 6, 7, 1, 4, 2, 8, 8, 10, 6, 2, 2, 9, 8, 4, 9, 3, 1, 8, 3, 3, 4, 8, 7, 8, 4, 4, 4, 1, 5, 8, 1, 6, 3, 9, 2, 2, 2, 7, 6, 8, 8, 3, 10, 2, 8, 0];
rr = array2d(1..4, 1..92, [0, 0, 7, 6, 4, 1, 1, 6, 6, 1, 0, 0, 0, 4, 0, 0, 5, 5, 3, 2, 3, 3, 2, 1, 3, 1, 3, 4, 4, 2, 3, 1, 3, 0, 6, 0, 0, 2, 2, 0, 0, 7, 10, 3, 0, 1, 0, 0, 0, 4, 9, 7, 5, 8, 1, 0, 4, 4, 0, 9, 0, 4, 0, 6, 0, 4, 1, 5, 5, 2, 0, 4, 0, 6, 6, 5, 4, 1, 9, 2, 2, 6, 2, 10, 10, 10, 0, 0, 2, 9, 0, 0, 0, 2, 0, 10, 8, 3, 0, 2, 5, 5, 7, 5, 2, 4, 0, 2, 0, 8, 7, 1, 0, 2, 7, 3, 6, 6, 3, 10, 5, 7, 2, 5, 9, 9, 8, 5, 9, 4, 6, 7, 7, 2, 0, 8, 1, 10, 3, 0, 1, 0, 4, 9, 0, 8, 0, 0, 0, 10, 0, 0, 5, 2, 6, 2, 9, 7, 0, 0, 7, 7, 1, 0, 8, 6, 10, 7, 7, 6, 9, 0, 7, 0, 0, 3, 7, 7, 1, 0, 0, 3, 5, 0, 0, 1, 0, 9, 6, 1, 3, 7, 10, 4, 7, 8, 0, 1, 5, 0, 0, 0, 1, 6, 0, 0, 10, 10, 4, 4, 8, 10, 7, 10, 1, 2, 3, 0, 3, 2, 1, 2, 5, 3, 2, 3, 0, 7, 7, 0, 9, 7, 5, 1, 9, 1, 5, 4, 2, 5, 3, 6, 7, 1, 4, 0, 6, 5, 0, 0, 1, 4, 2, 2, 8, 6, 6, 5, 6, 5, 6, 3, 1, 10, 0, 6, 4, 7, 0, 6, 1, 10, 2, 4, 4, 0, 0, 10, 0, 8, 0, 7, 4, 7, 0, 10, 4, 2, 1, 10, 0, 0, 4, 3, 0, 3, 4, 9, 9, 5, 2, 0, 5, 0, 5, 6, 7, 9, 0, 3, 6, 8, 0, 4, 4, 4, 3, 10, 5, 0, 1, 0, 9, 7, 0, 2, 8, 0, 3, 0, 3, 4, 0, 0, 1, 2, 10, 0, 3, 5, 0, 0, 2, 2, 5, 10, 10, 8, 2, 5, 0, 0, 1, 1, 0, 7, 5, 0, 8, 7, 0, 7, 0, 2, 6, 6, 0, 0]);

suc = [
   {2, 3, 4},
   {21, 12, 5},
   {29, 13, 38},
   {8, 43, 36},
   {87, 6, 14},
   {20, 38, 7},
   {9, 41, 31},
   {52, 37},
   {10, 11, 15},
   {26, 77, 45},
   {66, 19},
   {71},
   {16, 40, 30},
   {24, 43, 39},
   {49},
   {56, 17, 60},
   {32, 18, 23},
   {49, 19, 46},
   {51, 35, 59},
   {54, 22, 63},
   {42, 28, 29},
   {67, 29},
   {48, 80, 70},
   {25, 27, 52},
   {37, 31},
   {40, 67, 69},
   {81, 61, 55},
   {32, 34, 44},
   {33, 50, 59},
   {43, 60, 69},
   {48, 33, 45},
   {72, 50, 87},
   {77, 47},
   {53, 87},
   {74, 55},
   {61, 60, 45},
   {40, 58, 55},
   {49, 57, 39},
   {73, 50, 63},
   {81, 44, 54},
   {57, 66, 46},
   {57},
   {91, 52},
   {48, 56},
   {64, 58},
   {74, 67, 47},
   {82, 75, 53},
   {53, 62, 63},
   {65, 58},
   {75},
   {64, 88, 69},
   {64},
   {76, 61},
   {76},
   {68, 77},
   {65, 83, 75},
   {86},
   {70, 62},
   {62},
   {72, 79},
   {68, 71},
   {68, 78},
   {65, 66},
   {80, 70},
   {74, 82},
   {89},
   {81},
   {88, 73, 84},
   {82},
   {78, 71},
   {72, 84},
   {73},
   {89, 83},
   {76},
   {88, 79},
   {85},
   {80, 78},
   {84, 79},
   {86},
   {90, 85},
   {83},
   {85},
   {90},
   {86},
   {89},
   {90},
   {91},
   {91},
   {92},
   {92},
   {92},
   {  } ];

deadline = array2d(1..92, 1..3, [5, 2, 4, 5, 1, 5, 7, 5, 2, 11, 2, 0, 15, 1, 1, 18, 3, 4, 21, 5, 5, 24, 2, 4, 25, 0, 2, 26, 3, 4, 28, 2, 4, 33, 4, 1, 39, 4, 4, 50, 0, 0, 52, 1, 2, 53, 0, 1, 58, 3, 1, 58, 3, 0, 60, 1, 0, 64, 3, 2, 68, 0, 2, 71, 3, 2, 72, 3, 2, 74, 3, 4, 93, 4, 2, 95, 3, 4, 97, 2, 1, 100, 5, 5, 102, 0, 4, 104, 3, 5, 105, 4, 5, 105, 5, 1, 106, 4, 5, 107, 2, 1, 109, 3, 1, 109, 0, 3, 110, 1, 1, 112, 5, 5, 113, 0, 3, 115, 0, 4, 116, 3, 1, 117, 3, 2, 117, 0, 2, 119, 1, 3, 119, 0, 3, 121, 2, 0, 124, 2, 3, 124, 1, 3, 126, 1, 5, 126, 3, 2, 126, 0, 5, 127, 1, 3, 128, 2, 0, 128, 3, 2, 128, 4, 3, 131, 4, 1, 136, 3, 1, 139, 4, 1, 149, 0, 4, 150, 4, 1, 151, 1, 5, 157, 2, 2, 158, 0, 2, 159, 1, 3, 163, 1, 4, 166, 4, 1, 168, 0, 1, 176, 1, 5, 178, 2, 3, 186, 5, 1, 189, 4, 2, 195, 2, 1, 196, 1, 2, 202, 1, 4, 209, 4, 1, 210, 5, 4, 212, 5, 4, 215, 5, 4, 217, 0, 2, 222, 2, 4, 222, 0, 5, 223, 0, 5, 228, 3, 1, 228, 0, 2, 232, 5, 3, 235, 1, 1, 235, 4, 4, 239, 1, 5, 241, 5, 1, 242, 0, 4, 246, 1, 5, 247, 5, 0]);
