n_res = 4;
rc = [ 14, 14, 14, 11 ];
n_tasks = 92;
d = [0, 3, 5, 3, 9, 2, 4, 5, 3, 9, 10, 9, 8, 5, 6, 1, 1, 1, 3, 6, 3, 9, 8, 10, 6, 1, 1, 10, 8, 3, 7, 10, 1, 2, 1, 10, 5, 3, 4, 4, 3, 1, 2, 1, 9, 4, 10, 3, 10, 8, 7, 2, 4, 3, 3, 4, 4, 6, 10, 1, 9, 3, 8, 3, 10, 1, 5, 10, 5, 7, 9, 2, 1, 10, 8, 10, 6, 9, 2, 10, 6, 5, 8, 8, 1, 1, 8, 7, 6, 3, 2, 0];
rr = array2d(1..4, 1..92, [0, 0, 0, 0, 0, 0, 0, 0, 0, 6, 0, 0, 0, 0, 0, 5, 7, 0, 3, 0, 0, 0, 0, 0, 0, 0, 0, 0, 0, 5, 6, 0, 0, 0, 0, 0, 0, 0, 7, 6, 0, 0, 0, 0, 0, 7, 5, 0, 0, 9, 0, 0, 0, 0, 0, 2, 0, 0, 0, 0, 8, 0, 0, 1, 0, 0, 0, 9, 0, 7, 0, 9, 0, 7, 5, 8, 0, 0, 0, 0, 0, 1, 0, 0, 0, 8, 0, 0, 0, 0, 0, 0, 0, 0, 8, 0, 0, 0, 9, 7, 3, 0, 0, 0, 0, 10, 0, 0, 0, 0, 0, 0, 0, 0, 2, 0, 0, 1, 0, 0, 0, 0, 0, 0, 0, 0, 0, 6, 0, 1, 0, 0, 5, 0, 0, 7, 0, 0, 0, 0, 0, 0, 4, 4, 0, 6, 9, 0, 10, 10, 0, 0, 0, 0, 6, 0, 9, 0, 0, 0, 5, 0, 0, 0, 7, 0, 0, 0, 0, 4, 0, 0, 9, 0, 0, 0, 2, 0, 10, 0, 8, 9, 1, 0, 0, 0, 0, 0, 0, 0, 0, 0, 0, 0, 2, 0, 4, 0, 3, 0, 0, 4, 0, 4, 10, 5, 0, 7, 9, 0, 8, 3, 1, 0, 0, 1, 0, 0, 3, 0, 1, 0, 0, 0, 0, 9, 6, 0, 6, 0, 0, 0, 0, 0, 0, 0, 0, 0, 0, 0, 0, 0, 7, 8, 0, 2, 0, 0, 0, 0, 8, 0, 0, 0, 2, 0, 0, 0, 0, 0, 0, 0, 9, 0, 0, 0, 1, 8, 0, 0, 0, 5, 0, 0, 0, 0, 0, 6, 0, 10, 3, 7, 0, 0, 0, 0, 0, 4, 0, 0, 0, 0, 0, 0, 0, 0, 0, 0, 0, 0, 0, 0, 0, 0, 0, 0, 0, 0, 5, 3, 0, 0, 0, 0, 0, 0, 0, 0, 0, 0, 0, 0, 0, 1, 1, 0, 0, 0, 1, 0, 0, 0, 0, 0, 0, 0, 0, 0, 0, 0, 0, 3, 0, 0, 0, 0, 0, 0, 0, 0, 0, 0, 1, 0, 0, 3, 0, 0, 0, 0, 0, 0, 0, 0, 0, 0, 0, 0]);

suc = [
   {2, 3, 4},
   {19, 5, 7},
   {10, 12, 6},
   {16, 27, 11},
   {9, 13, 49},
   {88, 17, 14},
   {8, 34, 54},
   {74, 35, 21},
   {24, 27, 31},
   {81, 53, 54},
   {73, 38, 15},
   {46, 38},
   {21, 86, 31},
   {60, 45, 47},
   {51, 18, 19},
   {64, 51, 20},
   {32, 65, 47},
   {41, 22, 23},
   {48, 91, 61},
   {26, 44, 38},
   {25, 43, 33},
   {45, 37, 30},
   {35, 46, 55},
   {40, 43, 29},
   {32, 28, 79},
   {50, 36, 84},
   {67},
   {40, 56},
   {73, 87},
   {33, 75, 49},
   {43, 85},
   {69},
   {78},
   {53, 45, 70},
   {42, 58, 76},
   {57, 52, 62},
   {74, 44},
   {72, 63, 39},
   {42, 58, 53},
   {64, 68},
   {48, 42, 79},
   {50, 52, 68},
   {66},
   {67, 60},
   {58, 66, 71},
   {64, 59, 60},
   {72, 73, 52},
   {78, 54, 63},
   {50, 76, 63},
   {82},
   {57, 66, 55},
   {59},
   {56, 68, 79},
   {88, 82},
   {56, 61, 62},
   {69, 71},
   {75, 61, 71},
   {83, 59},
   {67},
   {65, 84, 77},
   {65, 70},
   {74, 69},
   {90, 70},
   {81},
   {72, 82},
   {89},
   {77},
   {75},
   {76, 85},
   {80},
   {80},
   {83},
   {86},
   {77},
   {80, 78},
   {91},
   {81},
   {88},
   {84},
   {85},
   {87},
   {83},
   {86},
   {87},
   {89},
   {89},
   {90, 91},
   {90},
   {92},
   {92},
   {92},
   {  } ];

deadline = array2d(1..92, 1..3, [1, 5, 1, 1, 2, 5, 4, 0, 1, 5, 3, 1, 8, 3, 2, 11, 0, 4, 12, 4, 0, 14, 1, 4, 15, 3, 2, 18, 5, 1, 18, 0, 1, 20, 1, 1, 22, 0, 3, 22, 5, 1, 24, 5, 3, 25, 0, 0, 26, 3, 5, 28, 4, 1, 29, 3, 0, 32, 2, 1, 32, 4, 3, 34, 4, 0, 36, 2, 3, 37, 2, 4, 39, 5, 2, 41, 0, 0, 45, 0, 3, 45, 0, 4, 46, 3, 3, 50, 2, 0, 50, 4, 0, 56, 1, 1, 56, 4, 3, 58, 4, 5, 58, 2, 4, 59, 0, 5, 59, 4, 3, 60, 5, 4, 70, 2, 3, 70, 3, 0, 75, 1, 0, 78, 0, 3, 80, 5, 4, 81, 5, 5, 82, 1, 3, 82, 2, 0, 84, 3, 3, 91, 4, 1, 91, 0, 4, 92, 2, 1, 93, 2, 1, 97, 1, 4, 97, 5, 4, 97, 4, 4, 104, 5, 1, 104, 5, 1, 106, 4, 1, 110, 2, 4, 112, 4, 5, 114, 4, 4, 119, 3, 0, 128, 3, 1, 129, 5, 2, 131, 2, 0, 131, 3, 3, 132, 1, 1, 139, 4, 3, 140, 0, 3, 142, 5, 5, 142, 2, 2, 152, 0, 5, 155, 1, 3, 156, 2, 2, 156, 5, 1, 157, 3, 0, 157, 1, 0, 161, 0, 1, 165, 3, 3, 168, 2, 4, 177, 0, 5, 179, 2, 5, 181, 2, 1, 184, 5, 5, 186, 5, 0, 189, 1, 3, 194, 2, 2, 196, 3, 2, 196, 0, 4, 197, 5, 2, 197, 4, 3, 200, 3, 4, 204, 4, 1]);
