n_res = 4;
rc = [ 20, 23, 23, 18 ];
n_tasks = 92;
d = [0, 3, 7, 8, 3, 9, 8, 7, 1, 5, 1, 6, 1, 4, 2, 1, 10, 7, 3, 8, 1, 5, 10, 9, 2, 2, 5, 10, 8, 7, 7, 2, 4, 3, 6, 6, 1, 1, 6, 2, 8, 9, 2, 3, 7, 1, 8, 2, 8, 6, 9, 4, 6, 2, 5, 9, 10, 2, 2, 2, 6, 9, 2, 2, 6, 6, 4, 3, 7, 2, 8, 1, 5, 2, 2, 6, 8, 8, 1, 8, 1, 2, 3, 5, 10, 7, 5, 3, 10, 1, 6, 0];
rr = array2d(1..4, 1..92, [0, 6, 1, 6, 3, 4, 9, 6, 6, 2, 7, 1, 2, 4, 9, 10, 2, 8, 2, 1, 3, 2, 5, 6, 5, 6, 2, 9, 4, 3, 10, 1, 10, 4, 6, 5, 10, 7, 1, 1, 5, 5, 2, 8, 3, 2, 5, 4, 7, 5, 1, 1, 9, 6, 10, 6, 9, 10, 1, 1, 4, 3, 7, 3, 10, 8, 4, 5, 6, 5, 2, 10, 7, 1, 2, 3, 7, 1, 6, 9, 6, 7, 6, 3, 9, 4, 10, 8, 8, 8, 3, 0, 0, 9, 5, 5, 7, 2, 6, 3, 8, 4, 10, 8, 3, 4, 6, 3, 1, 1, 2, 9, 1, 9, 10, 4, 3, 9, 6, 6, 8, 10, 4, 8, 8, 4, 6, 4, 8, 8, 1, 6, 5, 6, 5, 8, 2, 2, 7, 3, 7, 5, 9, 2, 2, 4, 4, 4, 7, 10, 5, 8, 3, 1, 1, 2, 2, 5, 9, 3, 5, 10, 7, 6, 5, 7, 2, 3, 1, 4, 4, 9, 9, 6, 8, 2, 3, 5, 5, 10, 4, 1, 1, 0, 0, 2, 6, 4, 2, 2, 4, 10, 8, 9, 8, 10, 6, 4, 8, 9, 7, 4, 10, 3, 8, 5, 4, 3, 2, 3, 6, 3, 4, 8, 5, 10, 3, 9, 8, 7, 9, 4, 8, 3, 8, 6, 9, 10, 10, 3, 2, 2, 4, 8, 4, 10, 5, 2, 10, 7, 6, 2, 2, 8, 6, 6, 3, 9, 4, 6, 5, 3, 5, 9, 3, 6, 3, 8, 5, 1, 7, 6, 1, 8, 10, 2, 4, 7, 7, 6, 5, 1, 1, 5, 4, 0, 0, 2, 10, 4, 9, 4, 3, 8, 10, 3, 3, 6, 2, 2, 4, 1, 3, 8, 3, 9, 4, 6, 4, 8, 2, 8, 3, 1, 1, 9, 3, 10, 1, 6, 5, 1, 2, 6, 3, 1, 7, 4, 10, 1, 6, 4, 1, 3, 7, 2, 1, 3, 7, 10, 8, 3, 5, 9, 10, 5, 2, 2, 8, 1, 5, 7, 10, 9, 2, 7, 2, 1, 10, 2, 2, 4, 10, 4, 3, 7, 2, 6, 1, 2, 4, 4, 6, 5, 8, 7, 8, 0]);

suc = [
   {2, 3, 4},
   {40, 20, 5},
   {10, 6, 14},
   {50, 7},
   {17, 52, 15},
   {8},
   {9, 11, 13},
   {33, 12, 22},
   {86},
   {12, 79},
   {37},
   {81},
   {38, 18, 30},
   {16, 34, 55},
   {60, 29, 31},
   {51, 36},
   {58, 19, 47},
   {32, 51, 23},
   {59, 54},
   {25, 28, 21},
   {24, 57, 36},
   {26, 74, 45},
   {90, 27, 60},
   {85, 29},
   {42, 63},
   {81, 54},
   {69, 63, 31},
   {50},
   {35, 68, 47},
   {71},
   {41, 76},
   {42, 37},
   {51, 43, 57},
   {48, 70},
   {88},
   {65, 61, 39},
   {64, 67, 45},
   {49},
   {50},
   {46},
   {80},
   {58, 46},
   {44},
   {65, 60},
   {82, 75},
   {53, 71},
   {79},
   {57},
   {59, 87, 79},
   {74},
   {53},
   {70},
   {73},
   {61, 86},
   {56, 75},
   {74},
   {88, 77},
   {69, 78},
   {62},
   {62, 63},
   {72, 66, 91},
   {81},
   {67, 77, 78},
   {72, 71},
   {73, 66, 76},
   {90, 67},
   {83},
   {72, 76, 69},
   {83, 70},
   {87},
   {73, 77},
   {75},
   {80, 88},
   {80},
   {78},
   {83},
   {84},
   {87},
   {90},
   {82},
   {82},
   {84},
   {89},
   {85},
   {91, 86},
   {89},
   {89},
   {91},
   {92},
   {92},
   {92},
   {  } ];

deadline = array2d(1..92, 1..3, [2, 5, 3, 3, 4, 1, 3, 3, 1, 6, 4, 2, 11, 0, 2, 15, 1, 2, 16, 3, 3, 17, 2, 2, 28, 4, 3, 37, 5, 0, 38, 4, 2, 40, 0, 0, 40, 1, 2, 42, 2, 5, 45, 2, 3, 45, 4, 2, 47, 5, 4, 48, 2, 5, 50, 2, 5, 55, 3, 0, 56, 1, 1, 58, 3, 3, 60, 5, 0, 61, 1, 5, 66, 0, 4, 67, 5, 4, 78, 1, 5, 78, 3, 0, 79, 2, 2, 85, 5, 3, 86, 2, 1, 87, 1, 5, 88, 3, 3, 88, 0, 2, 93, 4, 0, 110, 5, 0, 110, 5, 1, 112, 2, 0, 114, 2, 0, 117, 1, 5, 118, 1, 1, 121, 2, 3, 125, 1, 4, 127, 3, 5, 128, 3, 2, 129, 5, 4, 131, 3, 3, 135, 2, 3, 136, 1, 1, 139, 3, 0, 140, 2, 2, 146, 2, 5, 147, 5, 2, 148, 2, 2, 152, 4, 5, 154, 2, 1, 155, 0, 4, 160, 2, 0, 167, 2, 4, 168, 2, 4, 168, 2, 3, 170, 0, 2, 176, 1, 1, 182, 4, 2, 182, 0, 0, 182, 2, 4, 185, 0, 2, 189, 1, 1, 189, 1, 4, 190, 0, 5, 192, 4, 2, 192, 5, 2, 197, 2, 0, 199, 2, 1, 200, 0, 5, 200, 1, 5, 201, 0, 3, 202, 4, 2, 203, 2, 4, 203, 0, 1, 207, 3, 0, 209, 2, 0, 213, 3, 5, 218, 5, 1, 219, 1, 3, 220, 3, 0, 221, 5, 0, 227, 0, 0, 233, 1, 4, 234, 1, 5, 235, 5, 2, 237, 4, 4]);
