n_res = 4;
rc = [ 16, 19, 19, 21 ];
n_tasks = 92;
d = [0, 7, 9, 4, 3, 6, 6, 8, 5, 3, 8, 4, 4, 10, 7, 2, 9, 9, 4, 2, 9, 3, 7, 3, 9, 10, 10, 4, 8, 7, 5, 1, 2, 2, 4, 7, 4, 3, 3, 3, 6, 6, 10, 5, 9, 8, 1, 7, 6, 3, 7, 4, 1, 1, 7, 7, 6, 1, 4, 5, 3, 7, 10, 3, 3, 10, 6, 10, 8, 8, 2, 4, 4, 6, 7, 5, 1, 3, 2, 7, 8, 10, 5, 4, 4, 6, 7, 3, 5, 5, 10, 0];
rr = array2d(1..4, 1..92, [0, 0, 0, 0, 0, 0, 0, 0, 0, 0, 0, 0, 8, 0, 2, 0, 0, 0, 0, 0, 3, 4, 7, 0, 0, 0, 0, 0, 0, 5, 0, 1, 0, 6, 9, 1, 9, 0, 0, 0, 0, 7, 6, 0, 4, 0, 5, 0, 0, 0, 0, 0, 0, 0, 0, 6, 0, 0, 0, 0, 0, 0, 0, 0, 2, 0, 0, 0, 0, 0, 0, 0, 2, 7, 0, 4, 0, 0, 0, 7, 0, 0, 0, 4, 0, 0, 0, 0, 0, 5, 0, 0, 0, 3, 0, 0, 5, 0, 0, 0, 0, 2, 0, 0, 0, 0, 0, 0, 0, 0, 0, 0, 0, 0, 0, 2, 0, 10, 0, 0, 0, 0, 6, 0, 0, 0, 0, 0, 0, 4, 1, 0, 0, 0, 0, 1, 0, 10, 0, 0, 0, 0, 8, 0, 9, 0, 0, 0, 0, 4, 0, 5, 0, 0, 0, 0, 0, 0, 0, 0, 0, 0, 0, 1, 0, 0, 0, 0, 5, 2, 1, 0, 0, 0, 0, 0, 0, 0, 0, 0, 0, 0, 0, 0, 0, 0, 0, 0, 0, 0, 2, 6, 0, 0, 0, 9, 0, 0, 0, 4, 0, 0, 0, 7, 0, 0, 0, 0, 0, 0, 10, 9, 6, 0, 0, 0, 0, 0, 0, 0, 0, 0, 0, 0, 0, 0, 0, 0, 0, 0, 0, 0, 0, 0, 0, 9, 0, 0, 0, 0, 0, 0, 0, 0, 5, 0, 7, 0, 0, 0, 7, 0, 9, 5, 0, 0, 0, 0, 9, 0, 0, 0, 0, 0, 0, 0, 0, 0, 7, 7, 0, 0, 9, 0, 8, 0, 0, 0, 4, 1, 0, 3, 0, 0, 8, 0, 4, 0, 0, 2, 0, 0, 6, 6, 3, 0, 0, 0, 0, 0, 7, 0, 0, 0, 0, 0, 0, 0, 10, 0, 0, 0, 0, 0, 0, 5, 2, 0, 0, 0, 0, 0, 0, 6, 10, 2, 0, 0, 0, 3, 5, 0, 2, 0, 8, 0, 0, 10, 0, 1, 0, 5, 0, 6, 0, 0, 10, 0, 0, 0, 0, 0, 0, 0, 0, 0, 1, 9, 5, 0, 0, 0, 10, 2, 0, 0, 0, 0]);

suc = [
   {2, 3, 4},
   {8, 21, 5},
   {37, 6},
   {33, 7},
   {17, 75, 36},
   {24, 18, 12},
   {82, 39},
   {9, 74, 13},
   {16, 25, 10},
   {19, 11, 20},
   {26, 27, 23},
   {42},
   {51, 14, 15},
   {83, 44},
   {35, 38, 47},
   {80, 65, 54},
   {28, 30},
   {52, 53, 54},
   {32, 49},
   {22, 39},
   {60, 54, 31},
   {33, 31},
   {66, 29},
   {57},
   {83, 53},
   {32, 79, 71},
   {58, 60},
   {64, 57, 70},
   {30},
   {40, 47},
   {65, 49},
   {73, 59},
   {34},
   {45},
   {84, 45, 63},
   {43},
   {46},
   {86, 53, 46},
   {41},
   {41},
   {64, 51},
   {73, 52},
   {71},
   {55},
   {48, 55},
   {73},
   {82},
   {50, 60},
   {56, 50, 61},
   {68, 70},
   {80, 76},
   {91, 63},
   {88, 61},
   {62},
   {86, 59, 78},
   {72, 59},
   {84, 77, 78},
   {62},
   {66},
   {72, 69},
   {70},
   {89, 67},
   {67, 69},
   {77, 69},
   {76, 79},
   {75, 68, 87},
   {79},
   {85},
   {86},
   {81},
   {84},
   {75, 76},
   {81},
   {81, 78},
   {91, 77},
   {85},
   {89},
   {80, 89},
   {82, 83},
   {91},
   {90},
   {90},
   {85},
   {87},
   {88},
   {87},
   {88},
   {90},
   {92},
   {92},
   {92},
   {  } ];

deadline = array2d(1..92, 1..3, [1, 5, 5, 3, 3, 5, 3, 2, 2, 4, 0, 2, 12, 3, 2, 14, 5, 4, 14, 4, 2, 23, 4, 5, 24, 3, 0, 27, 3, 5, 28, 5, 3, 29, 1, 4, 30, 3, 1, 34, 1, 5, 38, 0, 2, 39, 4, 3, 40, 5, 4, 41, 1, 2, 41, 4, 2, 44, 2, 0, 45, 3, 0, 47, 2, 1, 53, 2, 5, 56, 1, 5, 58, 2, 5, 58, 4, 0, 59, 0, 2, 62, 1, 1, 63, 2, 5, 70, 1, 1, 73, 4, 5, 75, 0, 0, 83, 0, 1, 85, 0, 0, 85, 2, 0, 90, 3, 1, 91, 3, 4, 91, 3, 1, 92, 1, 1, 95, 0, 3, 101, 0, 5, 101, 3, 4, 106, 1, 0, 108, 0, 2, 109, 3, 5, 112, 0, 3, 116, 3, 2, 117, 1, 4, 120, 4, 4, 120, 0, 1, 123, 1, 1, 123, 3, 5, 124, 3, 5, 125, 3, 5, 130, 1, 3, 131, 0, 3, 133, 1, 5, 137, 5, 4, 137, 1, 2, 143, 5, 2, 144, 4, 3, 144, 4, 3, 147, 3, 1, 150, 1, 5, 154, 4, 5, 158, 2, 5, 158, 2, 4, 158, 3, 4, 171, 0, 3, 179, 3, 4, 185, 1, 2, 185, 4, 1, 186, 2, 3, 189, 2, 4, 190, 0, 4, 195, 5, 1, 200, 5, 4, 203, 2, 1, 206, 5, 2, 206, 5, 4, 206, 4, 0, 207, 2, 4, 209, 3, 4, 210, 3, 2, 212, 5, 3, 215, 0, 0, 215, 0, 5, 221, 2, 2, 223, 3, 2, 223, 4, 4, 227, 5, 0, 232, 1, 5]);
