n_res = 4;
rc = [ 50, 44, 52, 51 ];
n_tasks = 92;
d = [0, 4, 2, 5, 3, 8, 8, 5, 2, 1, 7, 1, 10, 9, 9, 10, 1, 1, 8, 1, 3, 8, 1, 10, 2, 7, 1, 8, 3, 6, 4, 7, 1, 7, 3, 5, 5, 2, 6, 2, 4, 2, 1, 10, 10, 7, 3, 2, 3, 9, 6, 4, 9, 6, 8, 6, 5, 3, 9, 5, 4, 9, 5, 2, 6, 4, 4, 2, 7, 2, 7, 8, 7, 8, 6, 8, 3, 4, 6, 6, 8, 7, 8, 6, 2, 6, 6, 9, 4, 8, 5, 0];
rr = array2d(1..4, 1..92, [0, 0, 0, 6, 0, 9, 7, 0, 2, 10, 5, 2, 7, 0, 0, 3, 7, 0, 10, 7, 0, 1, 0, 0, 0, 8, 4, 7, 3, 0, 0, 10, 4, 0, 0, 9, 3, 6, 8, 9, 6, 3, 1, 5, 9, 0, 3, 6, 2, 0, 1, 7, 1, 4, 3, 10, 6, 1, 2, 3, 0, 0, 4, 4, 2, 5, 0, 8, 0, 4, 3, 0, 7, 9, 3, 0, 0, 10, 5, 2, 3, 2, 8, 3, 1, 3, 1, 0, 3, 6, 9, 0, 0, 7, 0, 2, 4, 10, 0, 6, 10, 8, 2, 10, 0, 0, 7, 9, 4, 8, 9, 9, 6, 4, 1, 10, 8, 9, 0, 0, 0, 0, 2, 3, 7, 0, 0, 0, 0, 4, 3, 6, 0, 7, 6, 9, 0, 5, 9, 0, 2, 7, 3, 2, 0, 2, 0, 0, 2, 0, 3, 5, 0, 7, 4, 7, 0, 5, 7, 1, 0, 5, 0, 8, 0, 8, 0, 1, 9, 5, 0, 7, 10, 6, 5, 6, 0, 1, 5, 0, 8, 10, 5, 0, 0, 4, 7, 4, 3, 9, 1, 2, 0, 0, 8, 0, 0, 0, 5, 1, 5, 10, 5, 3, 7, 1, 9, 3, 0, 0, 0, 7, 10, 1, 9, 8, 0, 6, 6, 3, 8, 0, 4, 6, 5, 7, 9, 5, 9, 8, 3, 1, 9, 8, 7, 9, 0, 9, 0, 5, 10, 4, 6, 0, 8, 7, 0, 2, 5, 1, 9, 9, 1, 1, 9, 5, 8, 2, 0, 6, 0, 10, 3, 3, 4, 3, 0, 2, 4, 3, 3, 7, 4, 4, 4, 0, 0, 3, 1, 10, 0, 3, 9, 10, 8, 5, 0, 0, 5, 4, 4, 0, 7, 4, 3, 4, 9, 9, 6, 5, 3, 0, 9, 9, 3, 3, 2, 7, 7, 2, 9, 0, 1, 1, 5, 7, 10, 1, 0, 0, 0, 9, 3, 0, 7, 0, 5, 10, 5, 6, 10, 7, 0, 1, 5, 3, 3, 1, 9, 3, 7, 8, 2, 2, 0, 0, 9, 6, 4, 0, 5, 8, 7, 1, 8, 0, 2, 6, 2, 4, 0, 6, 3, 6, 0, 0, 2, 0]);

suc = [
   {2, 3, 4},
   {8, 25, 5},
   {9, 10, 11},
   {6},
   {18, 42},
   {31, 13, 7},
   {58, 21},
   {41, 18, 20},
   {24, 12, 14},
   {34, 60, 15},
   {17, 26, 33},
   {27},
   {24, 57, 71},
   {72, 51, 28},
   {16, 22, 23},
   {32, 19, 44},
   {40, 74, 68},
   {27, 29, 47},
   {29},
   {35},
   {50},
   {36, 77},
   {85},
   {90, 53, 55},
   {49},
   {30},
   {88},
   {70},
   {89},
   {72},
   {67, 78},
   {80},
   {66, 69, 70},
   {66, 38},
   {37},
   {88, 54},
   {39},
   {63},
   {57},
   {65},
   {43},
   {72, 45},
   {48, 76, 46},
   {80},
   {55},
   {56, 52},
   {84},
   {64},
   {65},
   {61, 87},
   {80},
   {85},
   {62},
   {64},
   {73},
   {59},
   {61},
   {60},
   {74},
   {79},
   {73, 75},
   {91},
   {81},
   {70},
   {77, 71},
   {78},
   {91},
   {71},
   {82, 77},
   {85},
   {76},
   {88},
   {74},
   {86},
   {81},
   {82},
   {91, 87},
   {84},
   {89},
   {82},
   {86},
   {83},
   {84},
   {86},
   {87},
   {89},
   {90},
   {90},
   {92},
   {92},
   {92},
   {  } ];

deadline = array2d(1..92, 1..3, [1, 2, 0, 2, 3, 2, 5, 0, 1, 5, 5, 5, 6, 4, 2, 7, 3, 0, 8, 5, 2, 11, 2, 0, 13, 0, 2, 14, 3, 5, 15, 3, 2, 16, 2, 0, 17, 1, 4, 17, 2, 5, 20, 4, 0, 24, 1, 2, 24, 1, 0, 27, 2, 1, 32, 5, 3, 34, 3, 5, 36, 5, 1, 37, 0, 1, 40, 0, 0, 40, 4, 5, 42, 3, 2, 44, 3, 2, 45, 2, 2, 45, 5, 1, 45, 5, 1, 51, 3, 2, 54, 5, 0, 56, 3, 5, 57, 3, 3, 59, 5, 5, 61, 1, 2, 61, 1, 4, 62, 0, 5, 63, 5, 5, 64, 0, 0, 64, 5, 2, 68, 2, 0, 69, 0, 4, 70, 0, 3, 70, 5, 5, 73, 5, 3, 75, 0, 0, 76, 3, 5, 77, 4, 5, 78, 0, 2, 84, 4, 3, 86, 1, 4, 86, 3, 5, 90, 1, 5, 93, 0, 2, 95, 2, 4, 96, 3, 1, 97, 1, 1, 109, 0, 5, 112, 2, 2, 114, 5, 0, 115, 3, 1, 115, 4, 0, 118, 1, 5, 120, 3, 5, 120, 3, 4, 121, 5, 0, 121, 3, 5, 122, 4, 2, 127, 0, 4, 131, 5, 5, 132, 4, 4, 133, 2, 5, 133, 2, 4, 136, 4, 5, 136, 2, 2, 141, 4, 0, 144, 2, 0, 144, 4, 2, 144, 0, 0, 145, 1, 4, 145, 2, 1, 145, 0, 4, 147, 5, 2, 151, 4, 3, 152, 1, 4, 152, 1, 5, 152, 3, 5, 155, 5, 1, 157, 2, 5, 157, 5, 2, 161, 3, 2, 166, 2, 2]);
