n_res = 4;
rc = [ 77, 92, 83, 86 ];
n_tasks = 92;
d = [0, 6, 6, 3, 10, 7, 5, 4, 10, 1, 6, 6, 2, 8, 10, 1, 10, 8, 4, 5, 8, 1, 5, 6, 7, 1, 3, 2, 9, 7, 7, 10, 2, 4, 8, 3, 7, 6, 9, 5, 4, 9, 7, 10, 7, 1, 6, 2, 7, 6, 4, 10, 10, 7, 10, 7, 3, 5, 3, 2, 4, 2, 7, 9, 10, 8, 6, 2, 9, 2, 9, 7, 2, 3, 6, 1, 9, 7, 5, 3, 9, 6, 4, 8, 1, 4, 6, 9, 9, 6, 10, 0];
rr = array2d(1..4, 1..92, [0, 2, 7, 2, 3, 2, 10, 1, 1, 2, 8, 8, 8, 3, 6, 5, 3, 4, 2, 8, 9, 2, 4, 4, 4, 3, 6, 7, 8, 7, 6, 5, 3, 8, 1, 8, 1, 7, 1, 4, 10, 5, 1, 7, 1, 3, 3, 3, 5, 1, 9, 4, 8, 6, 4, 6, 8, 2, 6, 3, 3, 5, 3, 9, 9, 10, 8, 4, 10, 9, 9, 9, 10, 4, 1, 1, 10, 8, 10, 2, 7, 3, 4, 9, 2, 3, 7, 3, 1, 10, 2, 0, 0, 1, 10, 1, 1, 2, 9, 6, 3, 7, 4, 1, 4, 10, 9, 2, 10, 8, 3, 8, 10, 8, 3, 5, 3, 5, 5, 9, 6, 4, 1, 3, 1, 3, 9, 1, 1, 9, 1, 7, 6, 9, 2, 7, 7, 5, 10, 10, 7, 1, 3, 6, 4, 8, 8, 8, 6, 5, 5, 7, 1, 2, 2, 8, 1, 6, 7, 7, 9, 4, 2, 5, 6, 1, 4, 10, 2, 6, 9, 6, 6, 4, 8, 2, 2, 10, 1, 7, 4, 4, 10, 0, 0, 9, 8, 5, 7, 5, 6, 7, 10, 3, 10, 7, 8, 2, 7, 8, 6, 10, 2, 2, 9, 9, 3, 4, 1, 10, 9, 4, 6, 9, 7, 1, 10, 7, 5, 2, 5, 5, 3, 7, 1, 5, 10, 6, 5, 1, 3, 1, 10, 3, 10, 4, 10, 7, 7, 4, 3, 6, 3, 3, 9, 7, 7, 6, 9, 5, 3, 3, 3, 4, 2, 7, 10, 5, 7, 2, 1, 2, 3, 4, 5, 1, 5, 7, 7, 6, 6, 8, 3, 9, 8, 0, 0, 9, 9, 4, 7, 5, 6, 8, 3, 5, 4, 1, 6, 1, 5, 4, 4, 1, 4, 6, 6, 6, 6, 5, 7, 3, 8, 10, 10, 5, 7, 6, 7, 5, 3, 3, 7, 3, 5, 10, 7, 7, 3, 9, 1, 2, 8, 3, 5, 9, 2, 4, 9, 6, 4, 8, 6, 9, 2, 5, 5, 3, 3, 7, 4, 5, 1, 3, 8, 10, 2, 2, 5, 9, 2, 1, 8, 10, 3, 2, 7, 6, 10, 10, 7, 6, 4, 9, 5, 4, 4, 0]);

suc = [
   {2, 3, 4},
   {16, 6, 7},
   {72, 9, 5},
   {10, 13, 15},
   {56, 50, 29},
   {8, 21, 30},
   {40, 11, 63},
   {19, 12, 23},
   {50, 19},
   {82},
   {26, 35, 46},
   {14},
   {53, 47, 39},
   {33, 18},
   {24, 17, 55},
   {70, 34, 22},
   {33, 34, 51},
   {25, 20, 52},
   {48},
   {77, 31},
   {72, 74, 22},
   {27, 45, 31},
   {82},
   {28, 44},
   {58, 62},
   {49, 36, 37},
   {51},
   {65},
   {41},
   {32, 57, 42},
   {43, 46},
   {64},
   {53, 63},
   {59},
   {68, 77},
   {48, 50, 54},
   {76, 38},
   {80, 84},
   {59},
   {48, 66},
   {87},
   {61},
   {89},
   {88, 76, 70},
   {63},
   {68, 47},
   {60, 79},
   {75, 68},
   {56, 57},
   {81, 74, 71},
   {59},
   {65, 53},
   {57},
   {58, 61},
   {86, 90, 62},
   {75, 67, 60},
   {85, 69},
   {77},
   {66, 60, 61},
   {83, 62},
   {88},
   {91, 78},
   {73, 79},
   {71},
   {72, 75},
   {71},
   {69},
   {73},
   {78},
   {85},
   {80, 83, 78},
   {88, 73},
   {87},
   {87},
   {76, 84, 79},
   {82},
   {89},
   {89},
   {80},
   {85},
   {83},
   {86},
   {84},
   {86},
   {90},
   {91},
   {90},
   {91},
   {92},
   {92},
   {92},
   {  } ];

deadline = array2d(1..92, 1..3, [1, 1, 5, 1, 5, 3, 5, 2, 1, 5, 5, 0, 8, 5, 3, 9, 2, 3, 19, 1, 0, 24, 1, 2, 27, 1, 2, 36, 2, 5, 39, 5, 1, 40, 3, 0, 45, 2, 0, 48, 4, 0, 53, 3, 2, 55, 5, 1, 57, 1, 4, 62, 2, 0, 64, 5, 2, 66, 5, 1, 76, 2, 3, 77, 0, 0, 83, 2, 1, 86, 5, 1, 86, 1, 2, 92, 5, 5, 93, 4, 2, 93, 1, 2, 99, 1, 1, 102, 1, 5, 105, 1, 4, 108, 5, 2, 116, 3, 4, 120, 3, 1, 121, 0, 0, 122, 1, 1, 123, 4, 1, 124, 3, 0, 127, 5, 1, 129, 0, 1, 131, 3, 0, 132, 5, 5, 133, 0, 1, 136, 5, 4, 136, 0, 1, 136, 0, 1, 138, 0, 2, 138, 5, 2, 141, 0, 1, 144, 2, 4, 145, 5, 4, 148, 0, 2, 148, 1, 5, 148, 4, 2, 151, 5, 1, 153, 1, 0, 154, 2, 2, 155, 4, 1, 158, 0, 2, 159, 5, 1, 160, 0, 1, 164, 2, 2, 167, 0, 1, 167, 2, 1, 169, 3, 5, 169, 0, 5, 170, 0, 1, 173, 0, 4, 175, 5, 1, 176, 0, 0, 177, 4, 1, 178, 5, 2, 181, 2, 1, 183, 1, 4, 185, 0, 0, 185, 5, 2, 185, 0, 1, 188, 5, 3, 189, 5, 0, 189, 4, 5, 190, 1, 0, 193, 0, 5, 194, 0, 3, 197, 2, 5, 198, 4, 0, 202, 5, 4, 204, 4, 4, 205, 5, 4, 209, 2, 2, 211, 1, 1, 214, 4, 3, 217, 4, 2]);
