n_res = 4;
rc = [ 17, 15, 20, 14 ];
n_tasks = 92;
d = [0, 5, 6, 5, 5, 1, 2, 1, 8, 4, 9, 2, 2, 7, 9, 6, 5, 2, 3, 1, 8, 10, 6, 7, 2, 9, 1, 6, 5, 5, 5, 9, 8, 10, 2, 1, 7, 10, 9, 1, 1, 4, 6, 10, 2, 2, 4, 4, 8, 2, 5, 2, 1, 8, 8, 10, 10, 2, 2, 6, 2, 5, 2, 6, 8, 3, 9, 7, 4, 10, 4, 10, 5, 5, 2, 10, 8, 2, 7, 8, 3, 10, 1, 5, 5, 3, 7, 9, 2, 3, 7, 0];
rr = array2d(1..4, 1..92, [0, 0, 2, 0, 0, 0, 7, 0, 0, 0, 0, 9, 0, 9, 0, 0, 0, 0, 0, 0, 0, 10, 10, 0, 0, 0, 2, 0, 0, 0, 0, 0, 0, 2, 10, 0, 0, 2, 8, 0, 0, 0, 0, 0, 0, 0, 0, 1, 0, 0, 0, 0, 0, 0, 0, 0, 0, 0, 0, 0, 0, 0, 7, 0, 0, 6, 7, 2, 2, 5, 0, 0, 0, 0, 1, 10, 0, 0, 0, 9, 0, 0, 0, 6, 8, 0, 0, 4, 0, 0, 0, 0, 0, 3, 0, 6, 0, 0, 0, 0, 0, 10, 6, 0, 1, 0, 4, 0, 0, 0, 0, 0, 0, 0, 0, 0, 7, 0, 0, 0, 0, 0, 7, 0, 1, 0, 0, 1, 10, 0, 0, 0, 0, 7, 0, 0, 0, 0, 0, 0, 0, 0, 0, 0, 0, 6, 5, 0, 0, 0, 0, 0, 8, 0, 0, 0, 0, 0, 0, 0, 0, 0, 0, 1, 0, 0, 0, 0, 0, 0, 3, 0, 4, 5, 0, 0, 0, 0, 1, 0, 0, 6, 0, 0, 0, 0, 0, 0, 7, 3, 0, 9, 0, 0, 0, 0, 0, 0, 0, 0, 8, 0, 4, 0, 0, 0, 0, 6, 0, 8, 0, 4, 9, 0, 0, 8, 0, 0, 0, 0, 0, 0, 0, 10, 0, 0, 0, 10, 6, 1, 0, 0, 9, 5, 0, 0, 1, 0, 0, 0, 0, 0, 7, 0, 0, 10, 0, 1, 9, 0, 0, 0, 0, 0, 0, 0, 10, 6, 0, 0, 0, 0, 0, 0, 0, 0, 0, 0, 0, 0, 0, 0, 0, 0, 0, 0, 0, 0, 0, 0, 0, 0, 0, 0, 6, 0, 0, 0, 0, 0, 0, 1, 0, 6, 0, 6, 4, 0, 0, 0, 0, 0, 0, 0, 0, 6, 0, 0, 0, 0, 0, 0, 0, 0, 0, 0, 7, 0, 4, 0, 0, 0, 2, 0, 0, 0, 10, 9, 0, 0, 0, 9, 4, 2, 0, 4, 0, 0, 0, 0, 0, 0, 0, 0, 0, 0, 5, 0, 0, 0, 0, 0, 3, 7, 0, 0, 0, 0, 5, 0, 0, 7, 0, 0, 6, 0, 1, 0]);

suc = [
   {2, 3, 4},
   {18, 13, 7},
   {16, 20, 5},
   {8, 41, 6},
   {65},
   {9, 68, 23},
   {25, 11, 33},
   {10, 12, 14},
   {26, 30, 15},
   {49},
   {34, 19, 28},
   {75, 29},
   {59, 37},
   {65, 31},
   {17, 46},
   {24, 89},
   {67},
   {86},
   {27, 21},
   {36, 22, 63},
   {83},
   {48, 39},
   {43},
   {81},
   {36},
   {56, 44, 54},
   {74},
   {32, 42, 53},
   {35, 61},
   {70, 38},
   {46},
   {80},
   {43},
   {50},
   {51, 52, 77},
   {45},
   {47},
   {45},
   {40, 73},
   {52},
   {76},
   {49, 62},
   {58},
   {49},
   {57, 60, 55},
   {78, 79},
   {64},
   {69},
   {72},
   {81, 51},
   {85},
   {71},
   {84},
   {64, 60},
   {65},
   {71},
   {66, 84},
   {69},
   {91},
   {90},
   {87},
   {69},
   {79},
   {88, 82},
   {83},
   {79},
   {83},
   {72},
   {78, 70},
   {82},
   {80},
   {85},
   {85},
   {86},
   {76},
   {86},
   {78},
   {84},
   {81},
   {82},
   {88, 91},
   {91},
   {88, 89},
   {87},
   {87},
   {90},
   {89},
   {90},
   {92},
   {92},
   {92},
   {  } ];

deadline = array2d(1..92, 1..3, [3, 2, 5, 3, 0, 3, 6, 0, 5, 7, 5, 3, 8, 2, 0, 12, 5, 2, 12, 0, 0, 13, 2, 2, 14, 1, 1, 15, 0, 2, 17, 0, 2, 20, 2, 2, 21, 4, 5, 22, 4, 0, 24, 4, 2, 28, 3, 4, 29, 1, 4, 32, 1, 1, 34, 3, 1, 35, 2, 5, 41, 2, 4, 44, 2, 1, 48, 4, 3, 53, 0, 3, 54, 3, 1, 55, 4, 4, 56, 0, 5, 57, 4, 3, 57, 1, 4, 60, 1, 4, 64, 3, 2, 70, 5, 0, 71, 1, 3, 73, 0, 1, 74, 2, 5, 80, 3, 3, 80, 2, 2, 85, 3, 0, 87, 5, 2, 87, 2, 3, 87, 0, 1, 89, 5, 0, 92, 5, 3, 95, 2, 1, 96, 1, 0, 98, 5, 2, 100, 5, 0, 105, 1, 4, 107, 0, 4, 107, 2, 2, 109, 1, 3, 110, 5, 3, 110, 1, 3, 111, 0, 5, 113, 3, 2, 113, 5, 4, 114, 3, 3, 116, 5, 5, 117, 0, 1, 117, 4, 3, 121, 2, 3, 125, 4, 3, 127, 2, 1, 127, 3, 2, 129, 0, 2, 131, 4, 4, 132, 4, 3, 134, 1, 5, 137, 5, 5, 138, 2, 0, 139, 2, 1, 140, 2, 4, 142, 2, 3, 143, 3, 4, 143, 2, 5, 144, 3, 0, 151, 1, 3, 151, 3, 5, 152, 2, 4, 153, 4, 5, 154, 4, 4, 154, 2, 3, 155, 5, 3, 155, 5, 3, 157, 1, 2, 159, 3, 0, 160, 0, 2, 161, 2, 4, 163, 4, 3, 163, 4, 1, 164, 3, 5, 165, 1, 4]);
