n_res = 4;
rc = [ 49, 46, 38, 40 ];
n_tasks = 92;
d = [0, 4, 8, 7, 1, 2, 8, 2, 3, 3, 5, 1, 3, 3, 9, 9, 4, 2, 4, 3, 8, 1, 3, 10, 3, 8, 7, 8, 2, 3, 10, 9, 8, 10, 4, 6, 4, 4, 8, 10, 10, 2, 10, 2, 2, 1, 1, 9, 2, 4, 1, 8, 5, 5, 7, 10, 10, 8, 10, 7, 3, 3, 5, 5, 8, 8, 3, 3, 4, 7, 8, 6, 7, 7, 3, 1, 3, 5, 7, 4, 1, 7, 3, 5, 3, 5, 4, 10, 8, 10, 6, 0];
rr = array2d(1..4, 1..92, [0, 6, 0, 0, 8, 7, 3, 0, 0, 7, 3, 4, 0, 6, 0, 9, 0, 1, 8, 5, 10, 0, 0, 8, 0, 1, 10, 0, 2, 3, 6, 2, 6, 7, 10, 5, 0, 10, 7, 0, 3, 0, 6, 4, 9, 10, 0, 7, 3, 6, 3, 4, 10, 2, 4, 5, 5, 8, 0, 5, 5, 6, 0, 4, 10, 1, 2, 9, 4, 5, 9, 5, 0, 1, 7, 3, 0, 2, 4, 1, 10, 0, 4, 0, 1, 4, 9, 10, 0, 10, 5, 0, 0, 9, 9, 0, 1, 0, 3, 9, 7, 2, 5, 2, 0, 1, 3, 8, 6, 4, 0, 0, 8, 7, 6, 7, 0, 9, 5, 9, 3, 0, 4, 8, 9, 3, 7, 9, 0, 4, 5, 2, 4, 0, 4, 6, 0, 1, 6, 1, 6, 1, 0, 9, 1, 1, 1, 3, 6, 8, 6, 3, 7, 0, 0, 4, 9, 0, 9, 1, 3, 0, 8, 4, 0, 10, 5, 4, 10, 0, 9, 0, 9, 6, 4, 0, 8, 10, 4, 7, 9, 6, 10, 0, 0, 0, 6, 10, 5, 5, 4, 5, 9, 6, 9, 5, 1, 8, 4, 1, 5, 5, 0, 1, 0, 0, 0, 0, 7, 9, 4, 4, 7, 0, 3, 6, 3, 5, 0, 7, 0, 5, 3, 4, 0, 2, 0, 10, 0, 7, 0, 0, 0, 8, 0, 2, 5, 9, 4, 4, 0, 2, 8, 6, 7, 0, 8, 9, 8, 5, 10, 8, 0, 10, 7, 9, 8, 2, 9, 9, 0, 5, 0, 9, 0, 1, 0, 8, 10, 0, 4, 0, 2, 9, 0, 0, 0, 1, 0, 0, 8, 8, 2, 10, 9, 4, 1, 6, 9, 3, 1, 0, 10, 2, 1, 0, 1, 9, 9, 0, 10, 5, 9, 1, 6, 0, 1, 5, 4, 0, 8, 0, 5, 0, 0, 0, 2, 1, 5, 7, 0, 3, 3, 0, 10, 7, 2, 5, 7, 0, 0, 0, 9, 9, 10, 5, 4, 2, 1, 2, 9, 0, 3, 9, 2, 7, 0, 10, 1, 0, 1, 0, 0, 9, 3, 7, 8, 7, 2, 6, 2, 1, 0, 7, 1, 3, 3, 0]);

suc = [
   {2, 3, 4},
   {8, 29, 7},
   {16, 53, 5},
   {24, 26, 14},
   {48, 6, 55},
   {9, 10, 12},
   {40, 55, 47},
   {11, 20, 45},
   {49, 60, 61},
   {24, 17},
   {27, 13, 23},
   {18, 66, 15},
   {32, 22, 47},
   {42, 43, 47},
   {28, 21},
   {48, 56, 38},
   {25, 68, 57},
   {64, 19, 76},
   {49, 44, 71},
   {24, 53},
   {32, 42, 31},
   {40, 66, 30},
   {88, 34, 36},
   {56, 82},
   {41, 46},
   {33, 35, 44},
   {58, 51},
   {72, 34},
   {33, 34, 50},
   {48},
   {40, 41, 44},
   {50, 52, 68},
   {49, 51, 39},
   {89, 69, 37},
   {83, 61, 70},
   {58, 37},
   {91, 43},
   {59, 52, 46},
   {41, 76, 71},
   {70, 85, 46},
   {43, 45},
   {67},
   {77},
   {56, 65, 59},
   {59, 60, 54},
   {73, 50},
   {75, 58, 67},
   {60, 84},
   {65},
   {62},
   {57, 53, 62},
   {61},
   {74, 63},
   {64, 81, 63},
   {81, 78},
   {57},
   {83},
   {84},
   {80, 86},
   {91, 63},
   {64, 85, 62},
   {69, 79, 71},
   {89},
   {73},
   {73, 68, 77},
   {74, 70, 79},
   {72, 74, 69},
   {72, 75},
   {77},
   {86},
   {75},
   {83},
   {78, 79},
   {76},
   {89},
   {81, 78},
   {90},
   {80},
   {80},
   {82, 84},
   {82, 86, 87},
   {88},
   {85, 87},
   {87},
   {88},
   {90},
   {90},
   {91},
   {92},
   {92},
   {92},
   {  } ];

deadline = array2d(1..92, 1..3, [2, 2, 0, 3, 3, 0, 12, 2, 4, 12, 2, 1, 18, 0, 2, 20, 5, 4, 21, 4, 2, 25, 1, 5, 28, 2, 3, 31, 3, 4, 33, 1, 3, 34, 2, 4, 35, 1, 3, 36, 3, 1, 40, 5, 3, 46, 0, 2, 51, 5, 1, 51, 4, 4, 56, 1, 2, 58, 3, 1, 64, 0, 0, 64, 1, 2, 65, 3, 3, 67, 2, 5, 72, 5, 5, 74, 2, 5, 76, 1, 4, 77, 4, 5, 79, 4, 5, 79, 5, 1, 82, 3, 1, 82, 3, 3, 85, 5, 5, 88, 1, 2, 92, 3, 5, 93, 1, 3, 96, 2, 1, 96, 3, 0, 97, 1, 4, 101, 1, 5, 106, 1, 4, 114, 5, 1, 117, 2, 1, 117, 5, 1, 118, 4, 1, 118, 0, 4, 119, 1, 5, 119, 4, 2, 120, 5, 3, 122, 3, 1, 123, 3, 1, 124, 1, 5, 124, 1, 1, 126, 4, 4, 133, 1, 5, 133, 3, 2, 138, 3, 4, 138, 5, 4, 142, 0, 5, 142, 4, 3, 146, 4, 2, 149, 4, 5, 151, 4, 1, 156, 3, 3, 157, 3, 5, 164, 1, 3, 167, 3, 4, 171, 0, 3, 174, 2, 3, 174, 3, 2, 176, 1, 4, 176, 0, 4, 185, 4, 3, 187, 4, 5, 198, 1, 2, 198, 0, 4, 198, 3, 3, 204, 0, 0, 216, 0, 2, 222, 1, 3, 222, 3, 2, 225, 3, 0, 229, 5, 5, 235, 3, 3, 235, 5, 5, 235, 4, 0, 236, 2, 4, 237, 2, 4, 237, 1, 1, 239, 5, 2, 240, 1, 1, 252, 3, 2]);
