n_res = 4;
rc = [ 20, 22, 22, 24 ];
n_tasks = 92;
d = [0, 5, 3, 1, 1, 6, 3, 3, 1, 9, 3, 8, 10, 7, 5, 6, 9, 10, 1, 1, 3, 7, 10, 10, 4, 8, 5, 9, 10, 2, 2, 3, 5, 1, 2, 6, 7, 3, 2, 4, 9, 7, 5, 2, 4, 9, 6, 5, 5, 1, 7, 1, 9, 10, 9, 8, 6, 3, 1, 4, 7, 5, 7, 7, 1, 6, 9, 6, 5, 4, 10, 2, 1, 3, 10, 6, 3, 7, 1, 3, 10, 9, 8, 6, 6, 4, 5, 5, 9, 6, 6, 0];
rr = array2d(1..4, 1..92, [0, 5, 6, 3, 10, 1, 7, 0, 0, 9, 6, 10, 5, 3, 7, 6, 0, 4, 4, 0, 9, 2, 0, 10, 4, 0, 0, 5, 5, 6, 0, 0, 1, 3, 2, 4, 8, 7, 2, 4, 0, 0, 8, 2, 5, 5, 0, 7, 10, 9, 0, 7, 7, 1, 0, 3, 7, 8, 10, 1, 4, 5, 0, 6, 5, 1, 4, 9, 10, 6, 1, 6, 4, 8, 0, 6, 8, 0, 10, 0, 10, 7, 1, 0, 4, 10, 2, 7, 0, 4, 4, 0, 0, 7, 4, 0, 2, 4, 9, 5, 6, 0, 1, 8, 0, 8, 2, 5, 0, 7, 0, 6, 0, 4, 6, 4, 5, 7, 8, 0, 3, 4, 4, 10, 9, 0, 9, 0, 0, 3, 3, 9, 10, 10, 7, 10, 0, 3, 0, 0, 5, 0, 6, 7, 4, 2, 4, 6, 9, 6, 0, 8, 7, 0, 10, 9, 0, 10, 10, 3, 0, 2, 1, 1, 0, 3, 0, 0, 0, 0, 1, 10, 9, 4, 10, 7, 6, 0, 0, 10, 7, 9, 4, 0, 0, 2, 2, 9, 0, 1, 10, 6, 10, 0, 8, 7, 6, 3, 0, 2, 9, 0, 1, 1, 5, 3, 3, 4, 0, 0, 3, 7, 0, 2, 1, 8, 6, 0, 7, 3, 0, 0, 2, 8, 10, 7, 0, 0, 2, 5, 3, 3, 0, 0, 6, 1, 6, 6, 10, 6, 0, 3, 9, 0, 6, 5, 9, 3, 7, 2, 6, 0, 10, 0, 9, 0, 7, 0, 3, 3, 0, 0, 1, 4, 8, 8, 6, 7, 5, 5, 3, 2, 3, 2, 9, 0, 0, 1, 1, 5, 3, 6, 8, 7, 9, 0, 9, 2, 8, 0, 5, 1, 6, 0, 1, 9, 9, 0, 0, 0, 10, 1, 4, 10, 9, 10, 10, 0, 2, 9, 7, 7, 10, 6, 0, 1, 3, 0, 6, 10, 4, 9, 3, 9, 7, 0, 8, 0, 0, 10, 10, 3, 2, 9, 8, 9, 7, 8, 9, 0, 4, 5, 4, 7, 1, 7, 9, 7, 1, 0, 10, 9, 8, 1, 0, 1, 0, 0, 0, 0, 0, 0, 10, 9, 8, 0, 5, 0]);

suc = [
   {2, 3, 4},
   {10, 26, 13},
   {14},
   {8, 5, 6},
   {75, 21, 7},
   {17, 20},
   {9, 19, 22},
   {24, 25, 66},
   {16},
   {42, 11, 12},
   {36, 77, 23},
   {28, 37, 52},
   {21, 15},
   {44},
   {40, 51, 43},
   {30, 39},
   {65, 18},
   {81, 35, 45},
   {33, 29, 47},
   {67},
   {86, 54},
   {27},
   {53},
   {80, 31},
   {37, 30},
   {90, 71},
   {32},
   {63},
   {34, 62},
   {89},
   {41},
   {84},
   {57},
   {70},
   {49, 69},
   {58, 38},
   {68, 85, 62},
   {87},
   {73, 59},
   {50, 46},
   {58},
   {91},
   {88},
   {48, 77},
   {85},
   {47},
   {60},
   {70},
   {56},
   {78},
   {55},
   {80},
   {60},
   {64},
   {83},
   {77},
   {72},
   {65},
   {79},
   {61},
   {76},
   {69, 70},
   {64},
   {81},
   {83, 76},
   {86},
   {73, 86},
   {78},
   {79},
   {72},
   {78},
   {87},
   {74, 76},
   {81},
   {82, 84, 85},
   {84, 79},
   {80},
   {87},
   {82},
   {82},
   {91},
   {88},
   {91},
   {90},
   {89},
   {88},
   {89},
   {90},
   {92},
   {92},
   {92},
   {  } ];

deadline = array2d(1..92, 1..3, [3, 1, 5, 3, 2, 2, 5, 4, 2, 7, 4, 5, 8, 4, 5, 11, 5, 4, 14, 2, 4, 16, 5, 3, 19, 5, 5, 24, 3, 4, 26, 4, 3, 26, 3, 5, 27, 4, 3, 31, 5, 0, 34, 1, 1, 35, 0, 3, 36, 0, 4, 39, 4, 3, 40, 1, 1, 41, 2, 1, 43, 1, 2, 44, 4, 0, 47, 3, 4, 53, 0, 0, 54, 4, 3, 54, 2, 5, 54, 3, 0, 55, 4, 5, 59, 3, 1, 67, 5, 2, 70, 4, 1, 74, 1, 3, 75, 5, 0, 79, 3, 4, 80, 5, 5, 83, 0, 1, 85, 1, 5, 90, 4, 2, 91, 3, 0, 94, 5, 0, 98, 2, 1, 98, 1, 5, 99, 1, 2, 101, 4, 0, 102, 0, 4, 103, 0, 0, 104, 4, 4, 105, 3, 2, 106, 5, 0, 107, 2, 2, 107, 4, 5, 113, 4, 0, 115, 2, 0, 115, 2, 2, 120, 3, 2, 122, 2, 3, 124, 4, 5, 124, 2, 2, 128, 2, 4, 129, 5, 3, 131, 5, 4, 132, 4, 5, 133, 3, 0, 136, 2, 1, 137, 5, 0, 139, 5, 0, 140, 4, 3, 140, 0, 0, 140, 0, 1, 143, 0, 4, 143, 5, 1, 143, 5, 5, 143, 5, 1, 146, 2, 3, 147, 5, 4, 147, 3, 0, 150, 4, 2, 153, 4, 0, 156, 1, 1, 157, 4, 2, 158, 3, 3, 160, 2, 3, 163, 2, 2, 165, 3, 5, 168, 5, 5, 172, 4, 5, 176, 2, 1, 182, 0, 0, 186, 0, 5, 190, 0, 0, 191, 4, 0, 191, 1, 5]);
