n_res = 4;
rc = [ 49, 53, 61, 38 ];
n_tasks = 92;
d = [0, 2, 9, 10, 7, 8, 3, 6, 6, 7, 4, 7, 8, 2, 6, 9, 5, 7, 2, 8, 2, 6, 2, 7, 2, 1, 8, 6, 1, 2, 5, 7, 7, 3, 8, 5, 7, 9, 6, 5, 5, 2, 8, 2, 6, 6, 10, 10, 1, 7, 10, 10, 9, 10, 5, 10, 1, 9, 8, 9, 4, 6, 6, 7, 2, 8, 5, 9, 4, 7, 10, 10, 8, 1, 5, 1, 3, 6, 2, 6, 10, 4, 6, 4, 1, 2, 1, 3, 6, 1, 7, 0];
rr = array2d(1..4, 1..92, [0, 3, 0, 0, 3, 0, 7, 0, 7, 9, 0, 8, 0, 0, 6, 5, 4, 6, 5, 5, 7, 7, 0, 3, 0, 1, 5, 0, 10, 9, 6, 1, 7, 5, 4, 4, 3, 3, 8, 0, 0, 0, 6, 0, 5, 7, 10, 2, 5, 7, 5, 6, 10, 3, 0, 4, 1, 5, 1, 0, 0, 0, 10, 4, 6, 1, 5, 2, 6, 0, 8, 2, 4, 6, 7, 8, 3, 0, 6, 2, 1, 3, 0, 10, 1, 0, 5, 0, 7, 1, 3, 0, 0, 7, 10, 10, 0, 0, 9, 4, 10, 3, 5, 8, 4, 9, 7, 5, 7, 1, 0, 0, 8, 0, 0, 3, 8, 8, 5, 1, 1, 2, 0, 6, 10, 5, 4, 0, 10, 6, 1, 2, 4, 1, 2, 7, 9, 3, 0, 10, 3, 0, 4, 5, 8, 7, 1, 2, 2, 0, 9, 3, 9, 5, 9, 2, 4, 0, 5, 6, 9, 7, 3, 8, 3, 6, 10, 4, 5, 9, 4, 10, 10, 5, 0, 10, 0, 6, 3, 6, 1, 0, 8, 0, 0, 0, 7, 0, 10, 10, 0, 7, 0, 8, 8, 7, 2, 7, 4, 0, 4, 7, 3, 6, 5, 2, 8, 8, 0, 0, 6, 5, 0, 0, 8, 6, 5, 9, 0, 3, 2, 8, 3, 1, 1, 10, 2, 5, 0, 1, 8, 9, 2, 0, 7, 5, 9, 5, 7, 8, 8, 9, 7, 1, 0, 1, 0, 2, 2, 5, 10, 0, 0, 0, 10, 10, 8, 1, 10, 3, 2, 0, 0, 5, 6, 9, 7, 0, 5, 10, 5, 0, 5, 5, 0, 0, 0, 3, 9, 3, 9, 0, 8, 0, 4, 0, 0, 7, 9, 5, 5, 2, 7, 5, 0, 2, 9, 0, 9, 0, 8, 5, 0, 9, 2, 8, 3, 6, 5, 2, 1, 0, 8, 4, 0, 6, 0, 0, 0, 0, 1, 0, 1, 8, 10, 9, 0, 3, 0, 0, 2, 0, 0, 10, 3, 5, 5, 1, 0, 9, 4, 0, 10, 8, 0, 7, 6, 8, 0, 0, 7, 3, 0, 0, 1, 9, 2, 0, 1, 7, 9, 7, 4, 6, 0, 3, 9, 0]);

suc = [
   {2, 3, 4},
   {8, 6, 7},
   {65, 37, 29},
   {29, 5, 63},
   {10, 22},
   {46, 12, 14},
   {9, 11, 31},
   {59, 61, 15},
   {86},
   {62, 23},
   {27, 19},
   {17, 45, 13},
   {89, 51, 61},
   {16, 42},
   {18, 36, 31},
   {48, 58, 35},
   {26, 20, 28},
   {32, 56, 53},
   {21},
   {57, 50, 47},
   {34, 44, 52},
   {24, 77},
   {25, 58},
   {64, 41, 55},
   {49, 30},
   {42},
   {83, 44},
   {60, 87},
   {41, 54, 39},
   {43, 38},
   {32, 62, 38},
   {73, 33, 76},
   {41},
   {40, 77},
   {65, 67, 36},
   {66, 68},
   {85},
   {77, 47},
   {44},
   {65, 53},
   {68},
   {72, 50},
   {78, 70},
   {75},
   {59, 52},
   {86, 55},
   {68},
   {49, 70},
   {72},
   {80, 74},
   {86, 79},
   {63},
   {57},
   {81},
   {58, 84, 74},
   {82},
   {72, 62},
   {67},
   {78, 70},
   {64, 67},
   {76},
   {80, 69, 79},
   {64},
   {84},
   {74, 91},
   {80, 69, 87},
   {78, 71},
   {69},
   {82},
   {83},
   {76},
   {90, 75},
   {82},
   {90},
   {81, 87},
   {79},
   {85},
   {83},
   {81},
   {88},
   {91},
   {84},
   {91, 85},
   {88},
   {88},
   {90},
   {89},
   {89},
   {92},
   {92},
   {92},
   {  } ];

deadline = array2d(1..92, 1..3, [1, 3, 0, 1, 0, 2, 2, 2, 4, 13, 5, 2, 13, 3, 3, 16, 4, 5, 17, 5, 2, 17, 2, 2, 21, 2, 4, 22, 3, 2, 24, 2, 0, 24, 2, 2, 26, 3, 0, 28, 5, 5, 31, 0, 0, 31, 2, 3, 35, 0, 3, 44, 0, 2, 45, 1, 2, 47, 5, 1, 50, 0, 4, 51, 2, 4, 54, 2, 4, 55, 1, 1, 55, 0, 3, 57, 5, 5, 59, 4, 4, 63, 0, 4, 63, 3, 4, 72, 5, 1, 72, 1, 2, 73, 5, 5, 77, 4, 1, 79, 4, 0, 84, 3, 2, 88, 4, 3, 93, 3, 2, 94, 5, 1, 94, 0, 2, 94, 2, 5, 95, 4, 4, 96, 3, 0, 97, 2, 1, 97, 1, 4, 101, 4, 2, 101, 2, 5, 102, 1, 3, 106, 4, 2, 107, 1, 2, 109, 3, 1, 109, 0, 1, 111, 2, 1, 112, 1, 3, 116, 0, 0, 116, 4, 4, 117, 2, 3, 119, 0, 1, 120, 1, 1, 121, 4, 3, 121, 3, 5, 122, 5, 0, 123, 4, 5, 130, 0, 0, 131, 2, 3, 132, 3, 3, 134, 4, 5, 137, 4, 1, 137, 4, 4, 147, 1, 0, 148, 4, 1, 149, 0, 2, 149, 0, 1, 151, 0, 4, 151, 3, 5, 152, 0, 0, 153, 5, 1, 153, 0, 4, 155, 3, 2, 161, 0, 5, 162, 0, 0, 168, 2, 0, 168, 3, 5, 175, 3, 3, 176, 0, 0, 179, 2, 0, 180, 2, 4, 180, 4, 0, 181, 4, 4, 184, 0, 2, 187, 1, 5, 191, 3, 4, 196, 1, 0]);
