n_res = 4;
rc = [ 43, 42, 43, 45 ];
n_tasks = 92;
d = [0, 10, 6, 5, 10, 10, 2, 9, 3, 7, 5, 9, 7, 1, 10, 7, 7, 10, 9, 9, 3, 4, 7, 10, 3, 1, 4, 1, 7, 2, 10, 10, 3, 4, 3, 7, 4, 5, 10, 9, 4, 1, 10, 4, 8, 6, 4, 3, 9, 10, 8, 6, 1, 2, 10, 9, 8, 7, 10, 3, 6, 10, 8, 2, 3, 7, 5, 2, 8, 1, 2, 6, 9, 1, 8, 1, 5, 9, 7, 1, 1, 4, 6, 3, 1, 10, 10, 2, 4, 8, 2, 0];
rr = array2d(1..4, 1..92, [0, 4, 5, 4, 7, 2, 2, 4, 0, 0, 8, 10, 6, 8, 1, 6, 3, 0, 6, 3, 10, 2, 7, 5, 3, 10, 8, 6, 4, 10, 8, 0, 5, 0, 4, 0, 8, 1, 7, 7, 0, 0, 7, 3, 10, 5, 0, 8, 6, 5, 3, 3, 7, 7, 0, 0, 4, 6, 6, 2, 0, 0, 3, 3, 0, 6, 5, 2, 10, 5, 0, 7, 0, 0, 1, 10, 5, 9, 5, 1, 9, 2, 2, 4, 6, 9, 0, 0, 0, 4, 6, 0, 0, 0, 4, 1, 5, 4, 7, 8, 3, 1, 10, 5, 0, 0, 0, 0, 6, 5, 2, 0, 4, 5, 0, 1, 9, 3, 0, 0, 2, 0, 1, 8, 8, 0, 6, 9, 5, 9, 0, 3, 10, 2, 4, 0, 9, 4, 0, 4, 1, 6, 3, 0, 4, 3, 3, 2, 3, 0, 3, 0, 0, 8, 7, 1, 9, 2, 4, 0, 5, 3, 1, 0, 2, 7, 7, 1, 2, 7, 10, 9, 3, 3, 3, 0, 0, 8, 8, 1, 10, 0, 8, 0, 0, 4, 0, 4, 8, 0, 0, 0, 8, 4, 9, 5, 0, 0, 2, 5, 5, 7, 5, 8, 0, 4, 2, 6, 8, 8, 10, 6, 0, 5, 3, 2, 4, 7, 10, 3, 0, 4, 5, 9, 0, 3, 8, 6, 0, 0, 5, 6, 7, 0, 0, 9, 1, 0, 7, 3, 4, 4, 10, 4, 0, 0, 8, 6, 7, 1, 0, 3, 3, 9, 2, 1, 5, 0, 8, 9, 0, 0, 4, 0, 3, 5, 5, 2, 7, 0, 0, 8, 1, 0, 0, 0, 0, 0, 4, 6, 3, 4, 3, 0, 5, 2, 0, 8, 7, 10, 8, 1, 3, 0, 0, 6, 0, 7, 10, 4, 3, 0, 0, 8, 4, 7, 6, 0, 6, 5, 2, 0, 2, 10, 7, 9, 8, 2, 6, 2, 5, 9, 0, 0, 0, 4, 5, 7, 8, 9, 2, 9, 10, 0, 7, 1, 9, 7, 2, 7, 9, 7, 2, 7, 10, 0, 3, 9, 4, 5, 6, 2, 10, 1, 3, 1, 7, 1, 7, 0, 9, 4, 9, 0, 0, 0, 0, 0]);

suc = [
   {2, 3, 4},
   {12, 45},
   {13, 5, 7},
   {8, 51, 6},
   {51, 11, 70},
   {16, 9, 19},
   {17, 14, 15},
   {24, 57, 28},
   {33, 10, 22},
   {65, 66, 21},
   {34, 20},
   {32, 20, 31},
   {41, 53, 23},
   {58, 84, 63},
   {27, 53},
   {25, 18, 45},
   {56, 68, 30},
   {36, 55},
   {85},
   {90, 35, 37},
   {23},
   {44, 38, 39},
   {76},
   {33, 26, 61},
   {33, 26, 29},
   {41},
   {40, 36},
   {63},
   {81, 60},
   {42, 74},
   {64},
   {35, 47},
   {43, 44, 60},
   {86},
   {46},
   {48, 72, 77},
   {80, 50},
   {71},
   {49, 66, 47},
   {64, 82, 60},
   {77},
   {57, 58, 82},
   {69},
   {56, 71},
   {81, 52},
   {67, 54},
   {90},
   {50, 63},
   {62, 71},
   {84},
   {61},
   {88, 62},
   {56, 73, 62},
   {75},
   {89, 61},
   {78},
   {73, 70},
   {59, 77},
   {86, 78},
   {83},
   {74},
   {72},
   {80, 68},
   {73, 79},
   {74, 69, 79},
   {72},
   {88},
   {76},
   {80},
   {75},
   {91, 76},
   {75, 78},
   {83},
   {90},
   {79},
   {82},
   {81, 85},
   {91},
   {84},
   {91},
   {83},
   {88, 87},
   {86},
   {85},
   {87},
   {87},
   {89},
   {89},
   {92},
   {92},
   {92},
   {  } ];

deadline = array2d(1..92, 1..3, [3, 1, 2, 6, 3, 5, 7, 4, 4, 8, 4, 2, 8, 5, 5, 10, 1, 1, 13, 5, 0, 15, 0, 0, 16, 5, 4, 17, 2, 5, 18, 0, 1, 20, 0, 0, 20, 2, 1, 23, 0, 2, 23, 5, 1, 23, 4, 5, 25, 5, 5, 29, 1, 3, 29, 5, 3, 30, 0, 5, 32, 1, 3, 34, 4, 1, 34, 2, 1, 34, 5, 3, 37, 5, 4, 46, 1, 1, 49, 4, 0, 49, 4, 1, 52, 2, 2, 59, 1, 3, 59, 1, 4, 62, 3, 3, 63, 4, 5, 72, 4, 1, 72, 2, 4, 74, 0, 0, 79, 4, 3, 85, 5, 5, 86, 5, 4, 87, 4, 1, 89, 3, 1, 96, 2, 3, 97, 5, 0, 99, 2, 3, 99, 5, 4, 107, 0, 5, 111, 5, 1, 113, 3, 4, 113, 3, 5, 115, 1, 4, 123, 4, 4, 126, 5, 2, 126, 0, 0, 145, 1, 2, 146, 1, 2, 148, 1, 1, 149, 2, 5, 152, 1, 0, 152, 3, 3, 154, 4, 4, 156, 3, 2, 159, 4, 1, 167, 3, 1, 169, 2, 3, 172, 3, 4, 172, 4, 4, 173, 2, 3, 174, 5, 5, 175, 5, 4, 178, 0, 3, 180, 0, 2, 181, 0, 0, 182, 3, 2, 183, 3, 3, 184, 4, 3, 185, 2, 5, 190, 2, 4, 195, 2, 0, 198, 4, 0, 198, 4, 0, 198, 0, 4, 202, 2, 1, 203, 0, 5, 209, 5, 1, 211, 1, 5, 212, 4, 2, 214, 5, 3, 214, 3, 2, 216, 3, 4, 222, 3, 1, 222, 3, 4, 225, 5, 0]);
