n_res = 4;
rc = [ 30, 39, 29, 42 ];
n_tasks = 92;
d = [0, 8, 8, 9, 9, 3, 8, 8, 9, 6, 7, 8, 5, 5, 8, 9, 6, 9, 6, 10, 10, 9, 2, 4, 6, 2, 1, 9, 3, 10, 7, 2, 9, 10, 8, 7, 4, 3, 6, 7, 2, 9, 1, 7, 10, 5, 10, 6, 1, 1, 10, 1, 9, 1, 1, 6, 6, 7, 2, 4, 7, 7, 6, 1, 4, 7, 5, 5, 1, 8, 10, 3, 1, 8, 10, 5, 9, 10, 4, 9, 7, 2, 7, 3, 10, 3, 2, 10, 5, 8, 9, 0];
rr = array2d(1..4, 1..92, [0, 7, 0, 10, 7, 0, 0, 2, 0, 0, 1, 0, 0, 5, 3, 10, 2, 0, 8, 6, 1, 8, 7, 0, 3, 0, 8, 0, 7, 0, 10, 0, 0, 0, 0, 10, 6, 6, 9, 0, 10, 7, 0, 0, 0, 5, 0, 0, 0, 0, 0, 10, 0, 0, 2, 3, 6, 0, 0, 0, 0, 6, 0, 8, 5, 0, 0, 0, 0, 7, 9, 0, 0, 0, 0, 0, 0, 4, 1, 4, 0, 0, 2, 0, 4, 1, 0, 7, 0, 8, 0, 0, 0, 0, 10, 3, 0, 8, 0, 5, 5, 6, 8, 7, 8, 0, 0, 9, 8, 0, 4, 3, 6, 0, 0, 4, 2, 0, 7, 1, 0, 0, 2, 3, 0, 0, 6, 0, 0, 10, 10, 2, 0, 6, 3, 2, 0, 1, 0, 0, 6, 0, 6, 4, 2, 2, 0, 0, 0, 0, 0, 10, 5, 0, 9, 2, 5, 3, 0, 0, 0, 3, 0, 0, 0, 0, 0, 2, 0, 0, 7, 0, 4, 2, 0, 5, 0, 0, 0, 0, 0, 4, 3, 0, 0, 5, 1, 10, 0, 10, 0, 9, 3, 0, 7, 9, 3, 5, 0, 0, 9, 4, 0, 6, 3, 0, 0, 0, 0, 4, 2, 0, 0, 9, 0, 4, 5, 3, 0, 0, 0, 9, 10, 5, 8, 0, 0, 0, 3, 3, 6, 10, 0, 10, 0, 0, 4, 0, 0, 0, 0, 2, 7, 0, 0, 3, 0, 2, 1, 0, 0, 5, 0, 2, 0, 0, 6, 2, 0, 0, 0, 6, 8, 0, 0, 0, 0, 0, 9, 0, 0, 0, 3, 9, 1, 0, 0, 0, 0, 0, 4, 0, 6, 0, 0, 5, 0, 0, 0, 0, 6, 0, 0, 8, 7, 5, 0, 0, 0, 5, 0, 1, 0, 3, 0, 0, 7, 6, 0, 5, 0, 8, 9, 0, 0, 4, 6, 0, 0, 8, 0, 9, 0, 0, 6, 9, 3, 0, 10, 8, 1, 8, 3, 0, 0, 3, 8, 7, 3, 9, 2, 6, 2, 8, 1, 0, 0, 2, 6, 7, 7, 0, 6, 0, 0, 0, 2, 7, 9, 0, 0, 0, 8, 0, 0, 2, 0, 0]);

suc = [
   {2, 3, 4},
   {75, 71},
   {34, 5, 7},
   {9, 6, 14},
   {19, 11, 21},
   {8, 41, 35},
   {17, 10, 12},
   {25, 13, 22},
   {24, 74, 43},
   {11, 22, 87},
   {66, 62, 23},
   {16, 57, 18},
   {34, 29, 79},
   {43, 15},
   {32, 73, 53},
   {49, 20, 22},
   {32, 51, 30},
   {33, 61},
   {91, 79, 47},
   {40, 51, 46},
   {40, 36, 39},
   {36, 71, 23},
   {26, 29},
   {27, 28, 45},
   {67, 52, 69},
   {51, 63},
   {42, 39},
   {48, 64, 52},
   {84, 63},
   {36, 45, 31},
   {69, 46, 63},
   {62, 38, 55},
   {89, 58, 79},
   {50, 60, 47},
   {45, 37},
   {84},
   {56, 75},
   {50},
   {49, 66, 57},
   {66, 52},
   {65, 44, 71},
   {65, 54, 47},
   {53, 54},
   {48, 61, 62},
   {48, 57, 64},
   {58, 53},
   {72, 67},
   {60, 69, 86},
   {56, 55},
   {58, 59, 76},
   {64},
   {56, 59, 60},
   {65, 70, 87},
   {89, 59, 55},
   {81},
   {83, 68},
   {77},
   {74, 68},
   {75, 61},
   {81, 85},
   {68, 85},
   {76},
   {74, 82},
   {72, 77},
   {80},
   {72, 70},
   {73, 77, 70},
   {80, 78},
   {78},
   {76},
   {88},
   {73, 86},
   {83},
   {91},
   {78},
   {82},
   {80, 82, 83},
   {81},
   {85},
   {84},
   {91, 87},
   {86},
   {90},
   {90},
   {88},
   {89},
   {88},
   {90},
   {92},
   {92},
   {92},
   {  } ];

deadline = array2d(1..92, 1..3, [3, 5, 2, 11, 5, 0, 12, 3, 2, 12, 5, 4, 14, 1, 0, 16, 2, 2, 22, 5, 3, 23, 2, 5, 25, 1, 2, 26, 5, 1, 28, 4, 0, 30, 1, 5, 33, 2, 5, 37, 4, 3, 40, 2, 2, 47, 5, 5, 48, 0, 4, 49, 3, 1, 50, 4, 1, 53, 4, 2, 53, 4, 4, 57, 5, 0, 59, 4, 4, 60, 4, 1, 62, 4, 4, 63, 5, 4, 65, 3, 3, 69, 5, 0, 71, 5, 5, 75, 1, 4, 81, 4, 3, 100, 5, 0, 101, 3, 4, 102, 3, 0, 104, 3, 5, 105, 1, 2, 107, 1, 5, 108, 1, 1, 110, 5, 1, 111, 2, 3, 113, 3, 0, 116, 5, 4, 117, 1, 2, 117, 3, 2, 119, 2, 0, 119, 2, 4, 121, 5, 5, 123, 3, 4, 125, 5, 4, 127, 4, 0, 130, 5, 0, 133, 1, 2, 135, 3, 4, 139, 3, 3, 141, 3, 1, 143, 1, 2, 147, 3, 2, 151, 2, 0, 155, 3, 3, 162, 5, 0, 165, 3, 2, 169, 5, 1, 171, 0, 4, 175, 3, 4, 175, 4, 5, 176, 1, 5, 178, 2, 4, 178, 0, 4, 187, 4, 0, 191, 4, 2, 193, 3, 3, 197, 4, 4, 202, 1, 0, 203, 4, 1, 205, 5, 2, 207, 3, 1, 211, 3, 5, 216, 2, 0, 218, 3, 3, 218, 3, 4, 221, 2, 3, 225, 5, 5, 226, 1, 0, 226, 1, 3, 231, 3, 2, 231, 2, 5, 233, 2, 3, 244, 0, 2, 247, 4, 4, 250, 3, 0, 251, 3, 5, 254, 3, 3]);
