n_res = 4;
rc = [ 17, 12, 12, 13 ];
n_tasks = 92;
d = [0, 2, 2, 5, 6, 5, 8, 10, 5, 8, 10, 1, 10, 4, 1, 2, 9, 5, 5, 2, 6, 10, 9, 6, 8, 7, 3, 10, 4, 9, 6, 5, 9, 7, 1, 5, 9, 3, 1, 5, 2, 7, 5, 3, 9, 2, 6, 10, 3, 8, 5, 9, 2, 1, 6, 1, 2, 9, 7, 6, 1, 3, 6, 6, 6, 4, 2, 7, 9, 6, 6, 1, 5, 4, 1, 6, 10, 4, 4, 9, 5, 3, 4, 6, 7, 5, 4, 4, 9, 6, 2, 0];
rr = array2d(1..4, 1..92, [0, 0, 0, 5, 0, 0, 2, 2, 0, 0, 0, 0, 6, 0, 2, 2, 10, 0, 0, 0, 0, 0, 0, 0, 0, 4, 0, 0, 0, 0, 0, 0, 2, 0, 0, 0, 0, 5, 0, 4, 0, 0, 0, 2, 0, 10, 0, 0, 0, 9, 0, 0, 0, 0, 5, 5, 0, 0, 8, 10, 0, 2, 6, 0, 10, 0, 4, 1, 0, 0, 0, 0, 8, 0, 0, 7, 0, 0, 2, 0, 0, 0, 0, 0, 9, 3, 2, 5, 4, 0, 0, 0, 0, 2, 0, 0, 0, 4, 0, 0, 10, 0, 0, 0, 0, 0, 0, 0, 0, 0, 0, 0, 0, 2, 0, 7, 0, 0, 0, 0, 10, 0, 0, 0, 0, 4, 4, 10, 0, 0, 0, 0, 0, 0, 0, 0, 3, 0, 0, 4, 0, 0, 0, 8, 0, 10, 0, 0, 0, 5, 0, 0, 0, 0, 0, 0, 0, 0, 0, 0, 0, 0, 0, 0, 0, 4, 8, 0, 0, 0, 0, 0, 6, 0, 0, 7, 0, 0, 0, 0, 0, 2, 4, 0, 0, 0, 0, 0, 5, 0, 0, 0, 0, 0, 0, 0, 0, 0, 0, 0, 0, 3, 0, 0, 8, 0, 0, 0, 0, 0, 1, 3, 0, 2, 5, 0, 0, 0, 0, 0, 7, 0, 0, 0, 3, 7, 1, 0, 0, 0, 4, 0, 0, 0, 0, 0, 0, 0, 0, 0, 0, 0, 0, 0, 1, 0, 0, 0, 0, 7, 0, 0, 10, 1, 0, 0, 0, 0, 0, 0, 5, 1, 0, 4, 0, 7, 0, 0, 0, 0, 0, 0, 0, 0, 0, 0, 0, 0, 10, 0, 0, 0, 0, 0, 0, 9, 6, 9, 0, 10, 0, 0, 0, 0, 2, 3, 0, 0, 2, 0, 1, 0, 0, 0, 0, 0, 0, 4, 0, 0, 0, 0, 0, 0, 6, 0, 0, 0, 0, 0, 0, 0, 0, 0, 2, 0, 1, 0, 3, 0, 0, 0, 2, 0, 0, 0, 0, 0, 0, 5, 0, 0, 0, 0, 0, 0, 7, 2, 0, 0, 0, 0, 0, 0, 0, 0, 0, 0, 9, 0, 0, 0, 0, 0, 0, 0, 0, 0]);

suc = [
   {2, 3, 4},
   {18, 5},
   {8, 6, 22},
   {69, 55},
   {53, 29, 7},
   {10, 20, 13},
   {24, 33, 14},
   {9, 11, 12},
   {17, 27, 68},
   {32, 75, 72},
   {90, 45, 15},
   {32, 25},
   {16, 67, 63},
   {19, 21},
   {73},
   {26, 85, 31},
   {49, 37, 71},
   {51, 63, 39},
   {52},
   {70, 23},
   {73, 57},
   {42},
   {40, 34, 80},
   {64, 61},
   {58, 36, 47},
   {66, 61, 46},
   {65, 28, 30},
   {60},
   {64, 63},
   {48, 35},
   {61},
   {74, 38},
   {39},
   {41},
   {80, 55},
   {43, 44},
   {50, 83, 76},
   {48, 59},
   {72},
   {48, 47},
   {86},
   {59},
   {59},
   {66, 83, 52},
   {56, 52, 87},
   {58},
   {72, 84},
   {57},
   {81},
   {89},
   {56, 60},
   {54},
   {57, 62},
   {88},
   {73, 66, 71},
   {74, 77, 70},
   {58, 60, 79},
   {82, 69},
   {70},
   {87},
   {68},
   {64, 78, 71},
   {85},
   {68},
   {75, 76, 78},
   {86},
   {91, 79},
   {77, 69},
   {81, 86},
   {78},
   {75, 76, 79},
   {74, 82},
   {84, 77},
   {85},
   {81},
   {90},
   {82},
   {80},
   {83},
   {84},
   {90},
   {91},
   {87},
   {88},
   {88},
   {89},
   {89},
   {91},
   {92},
   {92},
   {92},
   {  } ];

deadline = array2d(1..92, 1..3, [2, 5, 3, 6, 5, 0, 7, 4, 3, 8, 1, 0, 8, 5, 5, 9, 1, 2, 11, 3, 4, 12, 2, 3, 13, 4, 2, 13, 1, 3, 15, 4, 5, 16, 1, 4, 19, 5, 5, 19, 1, 5, 30, 5, 3, 34, 0, 4, 36, 3, 2, 37, 4, 2, 38, 1, 5, 38, 4, 4, 38, 2, 1, 44, 4, 3, 52, 4, 1, 54, 3, 5, 55, 0, 1, 56, 5, 2, 57, 5, 3, 64, 4, 0, 64, 4, 1, 64, 3, 5, 68, 3, 1, 69, 5, 5, 70, 0, 4, 72, 5, 0, 74, 1, 0, 74, 5, 5, 78, 0, 0, 79, 0, 2, 79, 4, 1, 80, 1, 2, 83, 2, 4, 85, 1, 2, 89, 5, 5, 94, 1, 0, 95, 5, 4, 98, 0, 4, 100, 0, 5, 103, 1, 5, 103, 4, 1, 103, 4, 0, 108, 3, 4, 118, 2, 4, 120, 5, 3, 121, 2, 3, 122, 3, 0, 122, 0, 4, 123, 1, 1, 125, 3, 5, 127, 0, 2, 127, 5, 0, 131, 0, 0, 132, 2, 3, 132, 5, 5, 134, 1, 2, 136, 4, 3, 138, 5, 4, 140, 2, 2, 142, 4, 1, 143, 5, 0, 143, 0, 0, 144, 3, 2, 146, 3, 2, 147, 0, 2, 150, 1, 4, 151, 0, 0, 151, 5, 5, 154, 4, 4, 154, 4, 0, 155, 0, 4, 157, 5, 1, 158, 5, 2, 161, 0, 2, 161, 1, 4, 162, 2, 3, 162, 2, 0, 163, 0, 1, 169, 4, 3, 170, 0, 1, 171, 5, 3, 172, 5, 0, 179, 4, 4, 181, 5, 2]);
