n_res = 4;
rc = [ 37, 37, 31, 34 ];
n_tasks = 92;
d = [0, 5, 2, 8, 6, 10, 10, 7, 7, 2, 1, 8, 4, 10, 8, 9, 4, 7, 9, 10, 2, 4, 6, 8, 4, 9, 8, 9, 2, 9, 4, 9, 3, 4, 7, 6, 4, 4, 4, 2, 7, 8, 9, 10, 5, 1, 1, 10, 3, 9, 9, 10, 8, 10, 9, 10, 7, 3, 5, 4, 9, 5, 4, 8, 4, 1, 9, 4, 8, 3, 2, 6, 6, 6, 4, 5, 9, 2, 3, 9, 1, 8, 7, 8, 1, 4, 2, 3, 1, 9, 8, 0];
rr = array2d(1..4, 1..92, [0, 10, 0, 1, 9, 9, 10, 9, 4, 4, 8, 6, 0, 0, 1, 6, 1, 9, 6, 8, 0, 0, 0, 2, 6, 7, 2, 5, 8, 1, 9, 2, 6, 10, 10, 5, 1, 0, 4, 1, 6, 10, 8, 0, 5, 6, 0, 6, 10, 0, 2, 6, 6, 0, 3, 6, 6, 0, 6, 6, 2, 0, 8, 0, 4, 1, 10, 9, 4, 5, 0, 10, 0, 3, 6, 3, 7, 0, 7, 1, 2, 0, 0, 7, 9, 0, 0, 8, 10, 1, 5, 0, 0, 0, 5, 2, 0, 7, 1, 0, 0, 9, 1, 8, 1, 2, 7, 6, 0, 1, 1, 2, 9, 6, 0, 5, 5, 10, 4, 8, 7, 0, 1, 2, 0, 2, 0, 5, 4, 1, 4, 7, 4, 9, 8, 6, 10, 4, 6, 7, 3, 7, 9, 6, 0, 7, 5, 7, 2, 1, 7, 0, 2, 3, 0, 6, 7, 5, 2, 0, 4, 0, 0, 7, 3, 5, 3, 0, 0, 5, 0, 7, 3, 3, 3, 0, 2, 7, 7, 3, 1, 7, 6, 0, 0, 0, 1, 3, 7, 3, 9, 8, 1, 7, 0, 3, 7, 9, 0, 6, 9, 6, 2, 3, 9, 0, 0, 0, 9, 3, 10, 0, 2, 3, 0, 3, 10, 8, 10, 4, 2, 3, 4, 6, 0, 0, 0, 2, 0, 6, 2, 0, 8, 3, 7, 1, 2, 1, 0, 2, 7, 0, 5, 0, 2, 6, 8, 8, 9, 3, 6, 10, 7, 0, 4, 10, 6, 9, 4, 7, 9, 1, 8, 0, 2, 7, 0, 1, 8, 0, 1, 3, 0, 0, 5, 0, 0, 0, 7, 2, 2, 0, 0, 5, 0, 0, 8, 3, 6, 6, 8, 0, 2, 5, 8, 8, 8, 1, 9, 8, 3, 2, 8, 7, 10, 0, 3, 2, 0, 4, 5, 0, 8, 6, 7, 10, 8, 9, 0, 0, 0, 0, 10, 8, 1, 0, 0, 10, 10, 8, 2, 0, 8, 0, 0, 3, 7, 0, 3, 4, 6, 0, 5, 7, 0, 10, 5, 0, 8, 7, 2, 0, 8, 5, 0, 1, 6, 4, 0, 8, 9, 1, 6, 0, 5, 2, 0, 0]);

suc = [
   {2, 3, 4},
   {11, 37, 6},
   {13, 18, 5},
   {42, 66, 7},
   {9, 52},
   {32},
   {8, 24, 26},
   {17, 10, 12},
   {16, 20, 15},
   {49, 27, 62},
   {41, 34, 19},
   {59, 35, 21},
   {64, 70, 14},
   {57, 27},
   {25, 30, 47},
   {29},
   {56, 28, 68},
   {89, 49, 83},
   {89, 46, 31},
   {23},
   {38, 46, 22},
   {56},
   {73, 37, 39},
   {59, 39},
   {61},
   {33, 67},
   {36, 45},
   {78},
   {56, 72},
   {60},
   {58},
   {40, 77, 45},
   {60, 55},
   {51, 85},
   {85},
   {43, 38},
   {58},
   {71, 39},
   {78},
   {49, 53, 62},
   {65, 53},
   {65, 44},
   {48, 50},
   {58},
   {50, 67},
   {54},
   {69, 86},
   {75},
   {67, 63},
   {73, 74, 60},
   {52, 62},
   {66, 55},
   {57},
   {80, 77, 61},
   {68, 61},
   {88, 78, 63},
   {75},
   {72},
   {76, 63},
   {75},
   {65},
   {80, 79},
   {81, 70},
   {72, 82},
   {91},
   {81},
   {87},
   {69, 71},
   {81, 91, 76},
   {91},
   {74, 84, 77},
   {83},
   {87},
   {82, 79},
   {86},
   {80},
   {87},
   {83, 84, 79},
   {86},
   {82},
   {84},
   {88},
   {85},
   {90},
   {90},
   {89},
   {88},
   {90},
   {92},
   {92},
   {92},
   {  } ];

deadline = array2d(1..92, 1..3, [2, 3, 0, 2, 5, 5, 3, 5, 3, 3, 0, 1, 6, 1, 3, 9, 0, 0, 12, 3, 5, 12, 3, 5, 16, 0, 4, 18, 5, 0, 19, 5, 2, 26, 1, 2, 27, 1, 5, 27, 5, 0, 28, 1, 1, 30, 0, 2, 30, 1, 3, 31, 4, 5, 33, 2, 4, 35, 1, 3, 42, 0, 4, 43, 5, 0, 48, 0, 0, 49, 2, 3, 57, 2, 2, 60, 4, 4, 63, 5, 3, 64, 1, 3, 72, 5, 4, 79, 3, 2, 79, 5, 4, 79, 2, 1, 80, 4, 2, 80, 4, 1, 89, 1, 0, 93, 1, 2, 100, 0, 4, 102, 1, 1, 103, 2, 1, 103, 4, 0, 103, 1, 0, 106, 2, 4, 107, 4, 3, 110, 1, 4, 113, 3, 3, 113, 4, 2, 117, 4, 1, 122, 4, 5, 125, 4, 4, 126, 3, 2, 127, 4, 0, 129, 2, 1, 134, 1, 2, 136, 5, 2, 137, 1, 3, 139, 3, 2, 139, 5, 4, 145, 4, 5, 148, 4, 0, 149, 4, 2, 152, 1, 4, 154, 0, 0, 156, 3, 1, 156, 3, 5, 157, 2, 1, 157, 1, 4, 157, 0, 3, 160, 1, 5, 162, 0, 0, 165, 0, 3, 174, 0, 5, 177, 4, 3, 177, 2, 4, 177, 1, 3, 183, 5, 2, 187, 4, 2, 187, 4, 4, 188, 5, 3, 189, 0, 5, 193, 5, 3, 197, 0, 3, 198, 3, 1, 198, 5, 1, 199, 0, 1, 200, 0, 3, 201, 0, 3, 202, 1, 3, 203, 3, 1, 206, 2, 0, 208, 1, 5, 210, 3, 2, 212, 1, 5]);
