n_res = 4;
rc = [ 16, 15, 13, 11 ];
n_tasks = 92;
d = [0, 2, 10, 1, 3, 6, 4, 2, 3, 5, 4, 10, 5, 8, 2, 7, 1, 8, 2, 3, 7, 9, 5, 10, 5, 7, 1, 2, 3, 4, 9, 4, 7, 3, 9, 9, 10, 7, 3, 5, 8, 9, 4, 4, 4, 3, 8, 7, 1, 5, 4, 8, 10, 5, 4, 3, 6, 1, 10, 7, 5, 2, 9, 1, 7, 7, 6, 3, 4, 4, 7, 6, 4, 6, 6, 9, 4, 5, 5, 7, 8, 6, 8, 3, 5, 2, 6, 2, 3, 2, 3, 0];
rr = array2d(1..4, 1..92, [0, 0, 0, 0, 0, 0, 0, 0, 0, 3, 0, 0, 0, 0, 0, 0, 0, 0, 0, 0, 0, 8, 6, 0, 0, 0, 0, 0, 0, 9, 5, 0, 0, 0, 0, 0, 5, 0, 3, 0, 0, 5, 0, 0, 0, 0, 0, 10, 4, 6, 0, 0, 0, 0, 0, 8, 10, 0, 0, 3, 1, 0, 7, 0, 0, 0, 0, 0, 9, 3, 8, 0, 7, 0, 0, 8, 0, 0, 0, 1, 0, 0, 7, 0, 0, 6, 0, 0, 1, 8, 5, 0, 0, 2, 10, 0, 0, 0, 0, 9, 0, 0, 0, 0, 0, 3, 0, 0, 0, 0, 0, 0, 0, 0, 0, 0, 0, 10, 0, 0, 0, 0, 0, 0, 0, 0, 0, 7, 0, 7, 0, 0, 10, 0, 0, 0, 4, 5, 0, 0, 0, 0, 0, 0, 5, 10, 0, 0, 0, 3, 4, 0, 0, 0, 0, 0, 0, 0, 0, 0, 0, 0, 0, 8, 0, 0, 0, 0, 6, 0, 0, 0, 3, 0, 0, 0, 0, 0, 6, 0, 0, 0, 0, 0, 0, 0, 0, 0, 1, 2, 0, 0, 6, 0, 6, 0, 5, 0, 0, 10, 0, 8, 0, 4, 0, 0, 0, 0, 0, 0, 9, 4, 1, 0, 0, 9, 0, 0, 0, 0, 0, 0, 0, 0, 0, 0, 0, 10, 0, 0, 8, 0, 0, 0, 3, 0, 0, 0, 1, 0, 0, 0, 0, 0, 0, 7, 0, 5, 0, 4, 9, 9, 0, 0, 0, 0, 0, 1, 2, 0, 0, 0, 0, 0, 0, 1, 0, 5, 7, 0, 0, 7, 0, 0, 0, 0, 0, 0, 0, 4, 0, 0, 4, 0, 0, 0, 0, 4, 0, 0, 8, 0, 6, 0, 5, 0, 4, 0, 0, 4, 8, 0, 0, 0, 0, 0, 0, 0, 1, 6, 1, 0, 0, 0, 0, 4, 0, 0, 1, 0, 0, 0, 0, 0, 0, 0, 0, 1, 0, 0, 0, 0, 0, 0, 0, 0, 0, 0, 0, 0, 3, 0, 0, 0, 0, 0, 0, 0, 0, 0, 0, 0, 0, 5, 6, 0, 0, 0, 0, 0, 0, 0, 0, 0, 0, 0, 0, 0]);

suc = [
   {2, 3, 4},
   {9, 7},
   {9, 11, 5},
   {38, 17, 6},
   {72, 12, 21},
   {25, 46, 33},
   {8, 10, 27},
   {49, 70, 15},
   {43, 36, 14},
   {18, 13, 39},
   {16, 32, 20},
   {26, 28, 31},
   {65, 71, 23},
   {81, 18},
   {42, 37, 39},
   {41, 66, 28},
   {34, 19, 47},
   {40, 44, 84},
   {24, 25, 22},
   {83, 87, 55},
   {58, 35},
   {78, 59, 54},
   {67, 30},
   {43, 29, 30},
   {35},
   {53, 29, 54},
   {32, 45, 55},
   {63, 78, 47},
   {32, 52, 45},
   {72, 66, 36},
   {59},
   {50, 66, 46},
   {49, 51, 47},
   {82, 68, 54},
   {43},
   {44, 53, 55},
   {65, 74, 46},
   {88, 77},
   {58, 61},
   {60},
   {48, 49, 50},
   {73, 50},
   {61},
   {48, 52, 69},
   {75, 76, 62},
   {69},
   {85},
   {57, 68},
   {56, 61, 62},
   {64, 59, 62},
   {72, 87, 63},
   {56, 58, 70},
   {57, 63},
   {56, 64},
   {73},
   {57, 90},
   {60},
   {85},
   {60},
   {91},
   {64, 85, 71},
   {79, 71},
   {74, 70},
   {75, 67, 87},
   {73, 67, 68},
   {74, 86},
   {81, 69},
   {88},
   {88},
   {82, 83, 77},
   {78},
   {80, 82, 76},
   {75, 76},
   {77, 79},
   {79},
   {91, 84},
   {91},
   {80, 83},
   {80},
   {81},
   {84},
   {86},
   {86},
   {89},
   {90},
   {89},
   {89},
   {90},
   {92},
   {92},
   {92},
   {  } ];

deadline = array2d(1..92, 1..3, [3, 3, 3, 5, 4, 5, 7, 4, 2, 7, 3, 4, 8, 3, 3, 8, 0, 1, 10, 5, 2, 10, 4, 3, 12, 2, 2, 14, 2, 3, 15, 5, 1, 18, 5, 2, 21, 5, 0, 21, 0, 2, 23, 0, 0, 23, 2, 3, 27, 0, 0, 30, 3, 3, 33, 1, 5, 34, 0, 4, 34, 0, 5, 37, 2, 4, 38, 2, 3, 44, 1, 5, 47, 4, 5, 47, 3, 3, 47, 3, 3, 49, 1, 4, 52, 0, 1, 54, 5, 4, 59, 3, 2, 60, 5, 5, 66, 4, 4, 73, 3, 1, 75, 1, 5, 78, 2, 4, 79, 1, 0, 81, 5, 1, 87, 1, 0, 89, 1, 2, 93, 4, 5, 93, 5, 4, 95, 5, 3, 95, 4, 2, 96, 5, 3, 97, 3, 4, 104, 1, 3, 109, 5, 2, 109, 1, 0, 111, 1, 2, 111, 1, 1, 111, 2, 1, 119, 2, 5, 121, 0, 2, 124, 4, 3, 125, 3, 1, 126, 3, 0, 131, 5, 1, 133, 1, 1, 138, 5, 0, 143, 3, 2, 144, 1, 5, 148, 1, 2, 149, 2, 1, 154, 1, 0, 160, 2, 3, 160, 2, 3, 161, 0, 2, 165, 3, 0, 166, 1, 2, 167, 1, 1, 169, 5, 4, 171, 2, 4, 172, 2, 5, 178, 0, 0, 180, 0, 1, 180, 5, 3, 181, 2, 4, 181, 3, 2, 181, 4, 4, 184, 3, 3, 185, 2, 2, 187, 5, 3, 189, 1, 3, 190, 3, 5, 191, 3, 2, 193, 2, 2, 193, 1, 5, 195, 0, 1, 195, 2, 2, 203, 1, 4, 208, 0, 4]);
