n_res = 4;
rc = [ 26, 24, 30, 27 ];
n_tasks = 92;
d = [0, 2, 5, 4, 9, 9, 5, 4, 9, 5, 8, 9, 2, 7, 7, 9, 9, 8, 9, 5, 7, 1, 9, 10, 9, 10, 9, 7, 6, 10, 1, 10, 9, 5, 9, 8, 2, 4, 4, 7, 9, 3, 1, 5, 6, 2, 1, 10, 6, 4, 9, 9, 5, 1, 4, 5, 10, 7, 10, 10, 8, 6, 4, 8, 9, 6, 7, 8, 1, 6, 3, 4, 6, 9, 10, 2, 10, 2, 4, 3, 2, 8, 4, 6, 10, 5, 1, 7, 5, 9, 7, 0];
rr = array2d(1..4, 1..92, [0, 0, 8, 5, 0, 0, 0, 0, 0, 0, 0, 0, 10, 0, 0, 0, 0, 0, 0, 0, 0, 2, 0, 3, 0, 0, 0, 0, 7, 0, 3, 1, 0, 1, 3, 0, 7, 9, 1, 0, 8, 0, 5, 0, 9, 0, 0, 0, 0, 0, 0, 0, 0, 0, 0, 0, 0, 0, 0, 0, 4, 10, 0, 0, 0, 0, 0, 0, 8, 0, 0, 9, 0, 3, 4, 0, 0, 10, 0, 0, 0, 0, 0, 0, 0, 10, 0, 0, 0, 0, 0, 0, 0, 0, 0, 0, 0, 0, 2, 0, 0, 4, 0, 0, 0, 0, 7, 10, 0, 2, 0, 0, 0, 0, 6, 0, 0, 1, 0, 9, 0, 0, 0, 0, 0, 0, 0, 0, 0, 0, 0, 2, 0, 0, 0, 0, 0, 0, 0, 0, 0, 0, 0, 0, 0, 7, 8, 6, 0, 0, 5, 0, 0, 0, 0, 0, 0, 4, 9, 0, 0, 1, 0, 0, 0, 0, 0, 2, 0, 0, 0, 6, 0, 0, 1, 0, 0, 0, 0, 0, 0, 6, 0, 0, 0, 0, 0, 0, 0, 0, 0, 0, 5, 0, 0, 3, 0, 8, 0, 0, 0, 0, 0, 2, 10, 0, 0, 0, 0, 0, 10, 0, 0, 0, 0, 0, 8, 0, 0, 1, 0, 0, 0, 0, 0, 6, 0, 0, 0, 6, 0, 0, 4, 0, 10, 9, 7, 0, 0, 0, 3, 0, 0, 2, 0, 0, 5, 2, 1, 0, 0, 0, 0, 0, 7, 0, 0, 0, 0, 0, 0, 0, 2, 0, 0, 0, 0, 10, 3, 0, 0, 0, 7, 0, 2, 0, 0, 4, 0, 0, 7, 4, 0, 9, 0, 0, 5, 0, 0, 0, 0, 0, 8, 0, 3, 0, 0, 0, 0, 0, 3, 0, 0, 0, 0, 8, 0, 0, 0, 0, 0, 0, 0, 0, 0, 0, 0, 0, 0, 1, 0, 0, 2, 10, 0, 1, 0, 0, 0, 0, 0, 0, 0, 2, 0, 0, 0, 0, 0, 0, 0, 0, 0, 2, 0, 0, 0, 0, 6, 0, 0, 0, 4, 0, 0, 0, 9, 5, 0, 0, 0, 0, 7, 2, 0, 0, 0, 0]);

suc = [
   {2, 3, 4},
   {40, 26, 7},
   {21, 5, 6},
   {8, 16, 11},
   {23, 15},
   {9, 10, 29},
   {74, 76, 37},
   {17, 12, 57},
   {43, 76},
   {25, 28, 14},
   {44, 13, 30},
   {19, 63, 39},
   {73, 22, 15},
   {46, 18, 22},
   {27, 71},
   {59, 84},
   {40, 64, 87},
   {42, 53, 47},
   {67, 20, 61},
   {65, 54, 47},
   {24, 83, 53},
   {49, 86},
   {33, 39, 31},
   {32, 42, 37},
   {56, 44, 54},
   {43, 36, 29},
   {61, 37, 31},
   {42, 51, 45},
   {56, 50, 86},
   {68, 87, 55},
   {72, 57},
   {35},
   {34, 69, 45},
   {35, 38, 55},
   {36, 84},
   {41, 78},
   {48, 85, 38},
   {63},
   {48, 46, 47},
   {65, 45, 46},
   {48, 59, 62},
   {57, 58},
   {66, 44, 61},
   {78, 69, 62},
   {80},
   {70},
   {80, 58, 51},
   {72, 66},
   {65, 52, 60},
   {58, 67, 60},
   {56, 60, 78},
   {81, 53},
   {59},
   {80, 55},
   {74},
   {73, 76},
   {64, 75},
   {68, 79},
   {79, 71, 63},
   {70, 69, 62},
   {64, 77},
   {87},
   {66, 75, 82},
   {79},
   {77},
   {91},
   {72, 73, 68},
   {70},
   {88, 81},
   {71},
   {74, 85},
   {82},
   {77},
   {75},
   {91},
   {85},
   {83, 84},
   {86},
   {82, 90},
   {89, 81},
   {83},
   {91},
   {90},
   {88},
   {89},
   {89},
   {88},
   {90},
   {92},
   {92},
   {92},
   {  } ];

deadline = array2d(1..92, 1..3, [2, 1, 0, 6, 3, 2, 8, 1, 1, 9, 0, 2, 20, 2, 5, 21, 5, 0, 22, 2, 3, 24, 4, 2, 24, 2, 1, 30, 3, 4, 35, 3, 4, 36, 4, 0, 38, 5, 4, 43, 0, 0, 45, 5, 5, 47, 4, 2, 48, 4, 4, 49, 5, 5, 50, 2, 2, 50, 1, 4, 53, 0, 1, 67, 0, 3, 73, 1, 3, 76, 5, 1, 76, 2, 4, 76, 3, 4, 79, 0, 3, 81, 5, 2, 84, 4, 3, 84, 1, 1, 84, 3, 1, 86, 1, 2, 88, 5, 5, 92, 5, 2, 94, 3, 4, 95, 1, 3, 95, 5, 5, 97, 2, 5, 101, 2, 0, 103, 4, 2, 104, 1, 2, 107, 5, 4, 110, 5, 2, 110, 3, 0, 113, 4, 0, 119, 1, 3, 120, 4, 1, 120, 2, 1, 127, 2, 3, 130, 0, 1, 134, 5, 4, 136, 0, 3, 138, 3, 1, 138, 1, 4, 139, 5, 4, 140, 2, 0, 150, 5, 1, 151, 1, 3, 153, 5, 4, 159, 1, 5, 159, 2, 5, 160, 3, 3, 161, 5, 1, 162, 0, 5, 164, 1, 2, 165, 5, 3, 167, 4, 2, 173, 0, 3, 175, 5, 2, 177, 3, 5, 185, 1, 0, 190, 5, 1, 191, 5, 1, 197, 5, 2, 202, 1, 3, 215, 2, 0, 215, 5, 1, 217, 1, 2, 218, 5, 4, 220, 5, 0, 220, 0, 4, 224, 1, 4, 225, 2, 0, 225, 3, 3, 229, 1, 5, 232, 1, 4, 234, 0, 1, 237, 4, 2, 237, 0, 4, 238, 2, 5, 246, 3, 5, 249, 1, 5]);
