n_res = 4;
rc = [ 25, 31, 30, 28 ];
n_tasks = 92;
d = [0, 9, 5, 8, 7, 4, 8, 3, 7, 8, 4, 2, 1, 10, 5, 7, 8, 1, 6, 4, 10, 7, 7, 5, 6, 1, 8, 2, 9, 3, 2, 1, 9, 8, 4, 5, 5, 1, 4, 8, 5, 4, 9, 3, 6, 3, 7, 10, 2, 4, 6, 4, 7, 3, 4, 9, 1, 3, 5, 6, 4, 2, 3, 8, 5, 5, 8, 7, 6, 8, 10, 10, 7, 5, 2, 8, 8, 7, 10, 2, 9, 5, 3, 9, 2, 4, 9, 9, 7, 7, 5, 0];
rr = array2d(1..4, 1..92, [0, 9, 0, 3, 0, 0, 1, 10, 6, 3, 0, 0, 7, 0, 1, 0, 0, 0, 5, 0, 5, 0, 5, 7, 0, 0, 0, 8, 0, 0, 5, 0, 0, 0, 0, 0, 0, 6, 2, 0, 1, 10, 6, 7, 1, 0, 0, 0, 0, 0, 10, 0, 7, 1, 3, 6, 4, 0, 0, 1, 9, 0, 0, 0, 0, 7, 6, 0, 0, 0, 0, 0, 0, 0, 7, 7, 0, 0, 0, 8, 3, 0, 10, 0, 0, 2, 3, 9, 8, 0, 0, 0, 0, 0, 5, 6, 0, 0, 0, 8, 0, 0, 10, 9, 0, 1, 9, 0, 8, 1, 0, 4, 0, 0, 10, 4, 6, 9, 6, 5, 0, 0, 9, 0, 7, 8, 3, 0, 0, 0, 9, 0, 6, 6, 6, 10, 0, 0, 10, 6, 0, 3, 8, 0, 0, 0, 5, 7, 0, 10, 2, 7, 0, 4, 3, 7, 2, 1, 9, 0, 9, 8, 0, 0, 7, 0, 1, 5, 0, 8, 0, 7, 0, 0, 0, 6, 5, 0, 0, 0, 0, 0, 5, 0, 0, 0, 0, 0, 3, 3, 7, 0, 0, 1, 0, 6, 6, 0, 1, 8, 0, 0, 4, 10, 6, 0, 0, 9, 4, 0, 6, 0, 1, 1, 0, 4, 0, 0, 0, 0, 4, 4, 2, 6, 0, 1, 0, 5, 0, 6, 0, 9, 0, 6, 0, 6, 8, 6, 0, 0, 6, 1, 2, 9, 0, 0, 3, 10, 9, 0, 0, 0, 0, 0, 0, 8, 0, 0, 0, 0, 3, 8, 0, 0, 5, 0, 7, 9, 3, 5, 8, 0, 6, 0, 0, 0, 0, 0, 6, 2, 0, 5, 9, 0, 0, 2, 0, 7, 0, 0, 9, 0, 8, 2, 8, 0, 0, 3, 1, 8, 0, 0, 6, 0, 7, 0, 0, 5, 6, 0, 7, 7, 0, 0, 0, 0, 0, 0, 0, 9, 2, 0, 5, 7, 2, 0, 0, 0, 7, 0, 5, 8, 0, 0, 0, 0, 0, 0, 0, 1, 0, 0, 6, 6, 3, 3, 9, 8, 0, 5, 2, 6, 0, 0, 4, 0, 7, 4, 0, 7, 0, 8, 0, 0, 6, 1, 4, 0]);

suc = [
   {2, 3, 4},
   {16, 41, 6},
   {26, 12, 50},
   {5, 30, 15},
   {33, 20, 7},
   {8, 9, 18},
   {10, 35, 28},
   {34, 43, 60},
   {32},
   {25, 11, 22},
   {54, 13, 14},
   {27, 69, 21},
   {19, 39},
   {42, 29, 46},
   {17},
   {21},
   {49},
   {86},
   {89, 46},
   {24, 41, 37},
   {57, 23},
   {68},
   {85, 52, 29},
   {58, 76},
   {61},
   {80, 73, 47},
   {80},
   {68, 31},
   {58, 36, 71},
   {32, 59, 38},
   {84, 71},
   {47},
   {48, 47},
   {40, 53, 55},
   {44},
   {81, 49},
   {82, 45},
   {46},
   {86},
   {66, 84, 63},
   {49, 85, 70},
   {43, 69, 62},
   {56, 75, 67},
   {48, 66},
   {65},
   {70},
   {64, 72, 63},
   {73},
   {62},
   {66, 51},
   {79},
   {58, 59, 74},
   {75, 59},
   {57, 87},
   {77},
   {64, 73, 70},
   {72, 84},
   {90},
   {89, 62},
   {64, 80},
   {65},
   {90},
   {65, 74, 91},
   {68, 78},
   {69},
   {82},
   {72, 71},
   {83},
   {76},
   {77, 78},
   {86},
   {85, 78, 79},
   {87},
   {75, 76},
   {77},
   {88},
   {79},
   {83},
   {81},
   {89, 81},
   {82},
   {83},
   {88},
   {91},
   {88},
   {87},
   {91},
   {90},
   {92},
   {92},
   {92},
   {  } ];

deadline = array2d(1..92, 1..3, [1, 1, 0, 1, 4, 1, 4, 4, 1, 7, 3, 1, 9, 2, 0, 9, 4, 4, 9, 1, 4, 10, 4, 5, 11, 3, 2, 11, 0, 4, 16, 5, 1, 25, 2, 2, 26, 2, 3, 30, 3, 0, 37, 3, 4, 38, 3, 5, 42, 4, 2, 45, 2, 2, 46, 1, 5, 46, 2, 3, 54, 0, 5, 58, 2, 2, 59, 0, 0, 60, 0, 1, 67, 4, 4, 68, 0, 1, 72, 0, 0, 75, 0, 5, 76, 5, 5, 79, 2, 0, 81, 3, 3, 86, 0, 0, 92, 4, 5, 96, 3, 5, 103, 0, 3, 104, 3, 1, 107, 5, 4, 110, 0, 1, 111, 1, 2, 116, 2, 5, 119, 3, 3, 126, 5, 3, 137, 5, 0, 140, 2, 3, 145, 4, 2, 158, 4, 2, 163, 5, 3, 163, 0, 5, 164, 1, 5, 171, 2, 3, 172, 5, 5, 173, 2, 0, 177, 2, 0, 180, 0, 4, 184, 1, 2, 188, 0, 3, 190, 4, 3, 191, 3, 4, 199, 2, 1, 201, 0, 3, 202, 2, 1, 204, 0, 4, 207, 3, 0, 215, 2, 1, 217, 5, 3, 218, 5, 4, 219, 0, 1, 223, 3, 0, 224, 0, 0, 224, 0, 1, 229, 5, 4, 232, 3, 4, 238, 2, 3, 238, 1, 1, 243, 0, 4, 245, 2, 3, 251, 3, 5, 254, 3, 3, 254, 4, 5, 264, 2, 3, 265, 5, 3, 269, 4, 2, 271, 3, 4, 272, 1, 2, 281, 3, 1, 282, 0, 1, 286, 5, 1, 286, 2, 4, 304, 0, 1, 308, 2, 2, 308, 4, 4, 311, 4, 1]);
