n_res = 4;
rc = [ 64, 80, 75, 60 ];
n_tasks = 92;
d = [0, 6, 3, 7, 10, 4, 3, 5, 2, 6, 4, 3, 5, 2, 2, 5, 2, 7, 5, 9, 7, 9, 7, 3, 5, 3, 4, 3, 8, 1, 3, 7, 10, 4, 3, 3, 2, 1, 7, 5, 10, 1, 2, 4, 3, 1, 7, 4, 7, 1, 4, 3, 3, 4, 8, 5, 8, 2, 6, 5, 10, 2, 7, 8, 9, 4, 2, 7, 6, 6, 6, 9, 6, 8, 4, 2, 2, 3, 4, 7, 5, 8, 6, 1, 5, 8, 10, 4, 4, 4, 2, 0];
rr = array2d(1..4, 1..92, [0, 2, 5, 0, 6, 3, 6, 2, 1, 2, 2, 1, 3, 9, 2, 2, 8, 1, 3, 5, 0, 9, 5, 3, 4, 8, 6, 5, 6, 0, 7, 0, 9, 0, 0, 2, 7, 0, 8, 0, 7, 2, 0, 3, 7, 0, 1, 2, 0, 9, 7, 4, 10, 4, 7, 4, 3, 0, 0, 0, 5, 9, 10, 0, 3, 5, 10, 7, 0, 1, 0, 1, 0, 10, 10, 10, 10, 10, 1, 7, 0, 9, 0, 0, 6, 3, 3, 10, 9, 0, 10, 0, 0, 9, 0, 6, 3, 2, 1, 6, 2, 0, 0, 0, 6, 9, 6, 3, 4, 4, 0, 4, 0, 9, 7, 3, 5, 8, 6, 5, 9, 6, 0, 2, 7, 7, 0, 0, 4, 7, 10, 0, 0, 5, 2, 9, 0, 7, 0, 6, 6, 4, 8, 0, 1, 1, 7, 6, 10, 10, 5, 1, 0, 1, 3, 0, 2, 8, 7, 8, 4, 10, 1, 2, 9, 8, 5, 10, 5, 7, 0, 0, 6, 0, 0, 2, 3, 4, 10, 5, 3, 3, 0, 0, 0, 5, 5, 8, 0, 10, 2, 6, 9, 7, 9, 4, 10, 5, 0, 7, 9, 4, 7, 5, 2, 8, 0, 8, 0, 3, 0, 1, 0, 5, 1, 9, 8, 0, 2, 3, 8, 7, 3, 4, 2, 1, 1, 0, 6, 0, 8, 3, 0, 0, 0, 9, 5, 2, 8, 0, 1, 5, 10, 5, 9, 5, 0, 8, 9, 9, 10, 5, 2, 0, 3, 0, 4, 7, 3, 0, 10, 0, 10, 4, 0, 3, 0, 10, 0, 8, 4, 6, 6, 0, 3, 0, 0, 8, 0, 0, 7, 4, 3, 6, 6, 3, 1, 8, 4, 7, 10, 6, 8, 8, 7, 0, 0, 2, 8, 0, 0, 0, 3, 0, 4, 0, 0, 9, 0, 3, 4, 5, 0, 6, 0, 0, 0, 5, 7, 2, 9, 1, 10, 2, 3, 2, 6, 9, 6, 6, 0, 3, 0, 3, 2, 2, 0, 10, 2, 0, 8, 2, 8, 3, 1, 5, 0, 1, 9, 8, 0, 9, 3, 3, 1, 2, 10, 3, 3, 0, 6, 3, 2, 0, 5, 2, 0, 0]);

suc = [
   {2, 3, 4},
   {17, 5, 23},
   {25, 43, 7},
   {8, 9, 15},
   {26, 6, 22},
   {16, 11, 14},
   {66, 19, 20},
   {24, 10, 18},
   {40, 12, 29},
   {61, 46},
   {31},
   {21, 13, 30},
   {64, 58, 51},
   {57, 53},
   {26, 86},
   {27},
   {51},
   {59, 77},
   {45, 76, 37},
   {33, 55, 39},
   {73},
   {32},
   {48, 57, 38},
   {82, 28},
   {81, 59, 35},
   {90},
   {72, 63},
   {81, 29},
   {72, 70},
   {72, 35, 47},
   {67, 76},
   {42, 36, 78},
   {41, 34, 67},
   {69},
   {56, 60, 62},
   {50, 91},
   {88},
   {39},
   {88, 46},
   {89},
   {65, 49},
   {61},
   {54, 44, 46},
   {65, 52, 79},
   {60, 47},
   {81},
   {80, 75, 69},
   {49, 85, 62},
   {79},
   {75},
   {76},
   {83, 63},
   {88, 66, 68},
   {57},
   {70, 71},
   {61},
   {62},
   {67, 60, 77},
   {78},
   {71},
   {66, 82, 74},
   {68, 77},
   {64, 68},
   {80},
   {90, 75},
   {71},
   {84, 69, 70},
   {73},
   {74},
   {78},
   {73},
   {74, 85},
   {84},
   {86},
   {83},
   {80, 85, 79},
   {82},
   {86},
   {87},
   {87},
   {83},
   {84},
   {87},
   {90},
   {91},
   {89},
   {89},
   {91},
   {92},
   {92},
   {92},
   {  } ];

deadline = array2d(1..92, 1..3, [1, 3, 4, 2, 3, 4, 5, 2, 4, 7, 3, 3, 11, 2, 3, 11, 5, 4, 14, 5, 0, 15, 5, 4, 16, 4, 0, 17, 0, 2, 22, 5, 4, 23, 1, 5, 23, 3, 4, 24, 5, 3, 26, 0, 0, 30, 0, 4, 32, 5, 4, 35, 4, 5, 37, 3, 1, 41, 4, 1, 42, 1, 3, 44, 3, 0, 44, 0, 5, 44, 0, 5, 47, 5, 1, 47, 5, 1, 49, 4, 5, 53, 0, 0, 56, 0, 5, 58, 1, 0, 58, 5, 5, 59, 3, 5, 62, 4, 2, 67, 5, 5, 69, 5, 5, 73, 3, 4, 73, 2, 3, 74, 1, 2, 74, 2, 1, 76, 5, 5, 80, 2, 5, 86, 1, 5, 88, 1, 4, 91, 5, 2, 93, 1, 0, 96, 5, 2, 97, 2, 5, 99, 3, 0, 102, 3, 3, 104, 2, 4, 106, 5, 2, 106, 2, 0, 106, 3, 3, 107, 5, 5, 110, 2, 3, 112, 1, 5, 114, 4, 1, 116, 1, 3, 118, 1, 0, 119, 1, 3, 121, 4, 2, 121, 1, 1, 122, 1, 5, 127, 5, 1, 132, 1, 2, 133, 4, 3, 134, 4, 0, 134, 4, 4, 135, 1, 0, 135, 5, 4, 137, 3, 4, 139, 1, 5, 140, 1, 4, 145, 1, 0, 147, 0, 3, 150, 4, 0, 151, 4, 0, 151, 4, 2, 151, 3, 1, 153, 1, 1, 154, 4, 3, 159, 5, 2, 160, 4, 4, 162, 5, 3, 162, 5, 3, 162, 3, 0, 162, 1, 1, 163, 4, 0, 166, 0, 1, 167, 1, 3, 169, 1, 2, 169, 5, 4]);
