n_res = 4;
rc = [ 48, 48, 48, 47 ];
n_tasks = 92;
d = [0, 8, 6, 1, 2, 8, 6, 8, 5, 9, 2, 9, 2, 5, 3, 10, 6, 8, 4, 7, 5, 3, 5, 4, 5, 3, 8, 3, 4, 1, 9, 4, 5, 4, 5, 3, 9, 3, 5, 1, 4, 8, 8, 10, 9, 1, 6, 4, 9, 7, 2, 7, 4, 10, 8, 6, 10, 3, 6, 2, 4, 5, 9, 7, 6, 9, 2, 4, 1, 7, 3, 10, 4, 8, 9, 5, 5, 6, 7, 6, 10, 10, 10, 8, 8, 6, 2, 7, 4, 8, 1, 0];
rr = array2d(1..4, 1..92, [0, 1, 2, 1, 2, 2, 7, 10, 10, 7, 9, 1, 7, 2, 9, 2, 2, 9, 4, 10, 1, 7, 5, 2, 4, 1, 1, 3, 8, 9, 1, 5, 9, 2, 4, 6, 6, 9, 8, 3, 5, 8, 5, 5, 3, 6, 9, 7, 2, 1, 3, 4, 1, 3, 9, 4, 2, 4, 6, 10, 3, 8, 10, 6, 10, 3, 4, 8, 4, 4, 5, 7, 9, 4, 6, 1, 2, 10, 10, 1, 7, 8, 7, 7, 2, 1, 8, 6, 2, 1, 1, 0, 0, 5, 8, 1, 5, 3, 5, 9, 4, 5, 2, 10, 5, 6, 6, 3, 3, 10, 4, 3, 1, 6, 7, 4, 5, 6, 9, 10, 9, 3, 5, 6, 6, 1, 5, 9, 10, 6, 3, 9, 6, 2, 1, 5, 2, 7, 4, 9, 9, 7, 7, 10, 6, 5, 9, 1, 9, 10, 7, 2, 9, 9, 7, 10, 8, 5, 7, 8, 1, 3, 6, 4, 6, 6, 9, 4, 8, 3, 6, 4, 5, 1, 8, 7, 5, 10, 7, 4, 8, 6, 5, 0, 0, 9, 9, 4, 3, 9, 4, 8, 3, 2, 7, 6, 7, 5, 1, 9, 6, 9, 8, 9, 5, 4, 1, 5, 5, 10, 4, 5, 5, 8, 3, 1, 3, 7, 10, 1, 6, 8, 9, 3, 5, 3, 6, 7, 10, 9, 4, 8, 4, 1, 1, 4, 6, 10, 5, 6, 8, 8, 6, 10, 5, 4, 8, 4, 5, 8, 1, 1, 1, 7, 4, 10, 4, 7, 1, 10, 4, 7, 8, 7, 2, 4, 5, 8, 7, 7, 6, 1, 8, 8, 6, 0, 0, 5, 9, 5, 3, 9, 9, 2, 1, 2, 10, 2, 4, 10, 6, 8, 9, 8, 2, 3, 7, 8, 9, 2, 3, 8, 5, 9, 4, 6, 1, 5, 6, 5, 7, 3, 6, 4, 10, 6, 9, 3, 8, 10, 2, 7, 2, 7, 4, 9, 1, 9, 7, 4, 6, 10, 9, 6, 2, 3, 2, 10, 3, 4, 2, 2, 10, 6, 6, 4, 9, 1, 5, 10, 7, 10, 2, 1, 9, 2, 7, 2, 5, 8, 4, 9, 3, 6, 6, 7, 5, 0]);

suc = [
   {2, 3, 4},
   {10, 6, 30},
   {80, 5},
   {8, 9, 7},
   {18, 47},
   {11, 52},
   {16, 75},
   {17, 39},
   {23},
   {13},
   {57, 12, 20},
   {25, 22, 70},
   {14, 15},
   {56, 58},
   {50, 43},
   {27},
   {19, 62},
   {32, 74, 46},
   {76},
   {26, 21},
   {70},
   {24, 48},
   {42, 28},
   {83, 31},
   {44, 29, 55},
   {41},
   {40, 53, 37},
   {34, 75, 50},
   {54},
   {75},
   {35, 78},
   {33, 36},
   {63},
   {51},
   {54},
   {85, 77},
   {60, 38},
   {57},
   {49, 52, 46},
   {45, 63},
   {65, 59, 70},
   {67},
   {65},
   {77},
   {48},
   {86},
   {61},
   {71},
   {51},
   {76, 54},
   {82},
   {68},
   {90, 69},
   {81},
   {72, 87},
   {66},
   {88},
   {79},
   {64},
   {73, 86},
   {91},
   {68},
   {83},
   {68},
   {67},
   {83, 71},
   {76},
   {73},
   {81},
   {84, 86},
   {80},
   {73},
   {80},
   {78},
   {89},
   {91},
   {81},
   {88},
   {88, 84},
   {85},
   {87},
   {87},
   {91},
   {85},
   {90},
   {90},
   {89},
   {89},
   {92},
   {92},
   {92},
   {  } ];

deadline = array2d(1..92, 1..3, [6, 1, 5, 8, 1, 2, 10, 0, 3, 11, 1, 0, 14, 2, 3, 21, 1, 3, 24, 2, 0, 26, 3, 3, 27, 5, 2, 29, 3, 0, 30, 3, 3, 30, 2, 2, 34, 0, 2, 37, 2, 3, 37, 1, 2, 40, 3, 2, 43, 1, 0, 44, 1, 3, 46, 4, 1, 48, 5, 0, 51, 2, 4, 52, 5, 1, 55, 3, 3, 56, 2, 3, 59, 4, 2, 65, 0, 0, 65, 3, 3, 66, 1, 1, 67, 5, 3, 70, 0, 0, 71, 5, 2, 73, 0, 0, 73, 2, 1, 77, 5, 4, 78, 1, 0, 79, 5, 0, 80, 0, 0, 81, 3, 5, 84, 4, 3, 85, 5, 5, 88, 3, 3, 91, 0, 4, 93, 3, 2, 94, 0, 2, 95, 2, 5, 95, 2, 3, 96, 1, 5, 97, 1, 4, 98, 4, 4, 100, 5, 0, 100, 1, 3, 106, 4, 2, 107, 3, 0, 107, 3, 5, 108, 0, 2, 117, 5, 1, 118, 0, 3, 118, 3, 1, 118, 1, 3, 119, 2, 5, 119, 2, 5, 122, 0, 0, 123, 5, 4, 130, 5, 4, 130, 5, 1, 133, 0, 4, 133, 4, 2, 133, 2, 0, 136, 2, 4, 137, 1, 5, 144, 1, 5, 146, 3, 4, 147, 0, 3, 147, 0, 3, 148, 5, 4, 151, 1, 1, 152, 4, 1, 155, 3, 4, 156, 1, 5, 159, 0, 3, 162, 1, 0, 163, 5, 1, 169, 0, 2, 171, 1, 1, 172, 3, 0, 174, 0, 0, 174, 3, 2, 174, 3, 2, 180, 3, 2, 181, 5, 4, 184, 2, 2, 189, 5, 4]);
