n_res = 4;
rc = [ 27, 28, 36, 15 ];
n_tasks = 92;
d = [0, 3, 6, 3, 2, 4, 2, 1, 3, 6, 3, 1, 4, 9, 1, 5, 8, 8, 8, 8, 10, 9, 3, 6, 7, 5, 4, 3, 6, 8, 4, 9, 2, 6, 1, 2, 2, 5, 2, 2, 1, 3, 2, 8, 4, 3, 3, 8, 2, 4, 2, 3, 10, 4, 6, 10, 6, 3, 2, 7, 10, 4, 1, 2, 4, 1, 8, 5, 6, 4, 5, 4, 7, 5, 4, 1, 5, 9, 1, 8, 5, 3, 5, 1, 4, 7, 3, 2, 3, 2, 1, 0];
rr = array2d(1..4, 1..92, [0, 0, 6, 0, 0, 10, 0, 1, 0, 0, 0, 6, 0, 0, 3, 0, 0, 0, 2, 0, 0, 0, 7, 0, 1, 0, 8, 0, 0, 0, 0, 7, 10, 0, 10, 10, 0, 0, 0, 0, 3, 0, 6, 0, 0, 0, 0, 0, 0, 0, 0, 0, 6, 0, 8, 0, 0, 0, 0, 0, 4, 9, 0, 2, 0, 5, 0, 10, 0, 5, 0, 0, 7, 0, 8, 0, 0, 0, 0, 0, 0, 0, 8, 6, 0, 8, 0, 0, 0, 9, 7, 0, 0, 0, 0, 4, 4, 0, 0, 0, 0, 9, 3, 0, 0, 0, 0, 0, 0, 0, 0, 0, 0, 0, 0, 0, 0, 6, 0, 1, 9, 4, 0, 0, 0, 0, 0, 0, 6, 5, 0, 8, 0, 1, 0, 7, 9, 0, 0, 8, 2, 1, 0, 0, 0, 8, 0, 6, 0, 7, 9, 0, 0, 0, 0, 0, 3, 0, 0, 0, 6, 0, 3, 0, 0, 0, 0, 5, 0, 6, 0, 0, 0, 0, 0, 0, 0, 0, 0, 0, 0, 0, 0, 0, 0, 3, 0, 0, 0, 0, 0, 0, 0, 0, 0, 0, 5, 8, 0, 0, 3, 6, 0, 7, 1, 6, 0, 0, 0, 0, 0, 0, 0, 0, 6, 0, 0, 0, 0, 0, 0, 0, 0, 0, 0, 0, 0, 0, 0, 0, 8, 0, 0, 0, 0, 9, 0, 0, 0, 0, 0, 0, 0, 0, 0, 0, 1, 0, 0, 0, 2, 0, 0, 0, 0, 0, 0, 10, 0, 0, 9, 0, 9, 0, 0, 0, 0, 0, 8, 0, 9, 5, 10, 0, 0, 0, 0, 0, 0, 0, 0, 0, 3, 0, 9, 0, 0, 0, 0, 0, 0, 4, 0, 0, 0, 0, 0, 0, 0, 9, 0, 0, 0, 0, 0, 0, 0, 0, 0, 2, 0, 0, 0, 0, 9, 0, 0, 0, 0, 0, 0, 1, 0, 0, 0, 0, 2, 0, 0, 0, 0, 0, 9, 0, 0, 2, 0, 0, 0, 0, 0, 0, 0, 0, 0, 0, 0, 9, 0, 0, 0, 0, 0, 0, 0, 3, 3, 3, 0, 0, 0, 0, 0, 0, 0, 0, 0, 0]);

suc = [
   {2, 3, 4},
   {8, 24, 19},
   {49, 58, 30},
   {10, 5, 7},
   {11, 53, 6},
   {14, 22},
   {9, 12, 15},
   {43, 22},
   {18, 83, 52},
   {26, 44, 13},
   {36},
   {41, 35, 20},
   {16, 17, 32},
   {56},
   {65, 28},
   {82},
   {29},
   {25, 21, 23},
   {32, 37},
   {47},
   {33, 34, 27},
   {42, 77},
   {73, 50, 68},
   {38, 31},
   {79, 55},
   {34, 27, 74},
   {48, 62, 39},
   {40},
   {66},
   {50, 85, 63},
   {54, 46},
   {58, 69, 54},
   {75, 69, 47},
   {56, 57, 90},
   {65},
   {78, 87},
   {72, 60},
   {51, 60},
   {45},
   {81, 67, 47},
   {49, 53, 46},
   {58},
   {84},
   {72, 67},
   {64, 57, 61},
   {77},
   {85},
   {79},
   {50},
   {60},
   {71},
   {73, 84},
   {59},
   {64},
   {64, 80},
   {70},
   {75, 84},
   {61, 70},
   {80, 74},
   {88, 61},
   {66, 82},
   {72, 63},
   {65, 66, 70},
   {67},
   {68},
   {86, 71},
   {82},
   {76, 69, 71},
   {80, 90, 77},
   {73},
   {90},
   {76},
   {88},
   {83, 75, 76},
   {81, 79},
   {81},
   {87},
   {83},
   {89},
   {86},
   {88},
   {89, 86},
   {85},
   {87},
   {89},
   {91},
   {91},
   {91},
   {92},
   {92},
   {92},
   {  } ];

deadline = array2d(1..92, 1..3, [1, 4, 1, 3, 5, 1, 5, 3, 0, 8, 2, 3, 10, 4, 0, 12, 3, 4, 12, 2, 1, 15, 0, 5, 17, 4, 5, 18, 4, 5, 19, 1, 4, 19, 5, 0, 22, 3, 0, 23, 0, 1, 23, 5, 0, 27, 4, 4, 28, 3, 2, 28, 2, 4, 29, 3, 1, 29, 2, 1, 35, 3, 5, 41, 2, 2, 41, 3, 0, 42, 0, 4, 42, 2, 4, 48, 2, 1, 50, 5, 2, 53, 0, 5, 54, 3, 3, 54, 2, 2, 55, 4, 5, 59, 2, 4, 60, 0, 4, 62, 1, 5, 62, 3, 5, 63, 0, 2, 66, 5, 2, 68, 2, 4, 71, 5, 2, 71, 3, 4, 72, 4, 5, 73, 3, 5, 75, 3, 2, 75, 0, 5, 75, 5, 5, 75, 4, 5, 79, 2, 5, 81, 0, 5, 82, 2, 1, 82, 1, 1, 85, 4, 5, 91, 0, 3, 93, 1, 2, 94, 0, 2, 94, 4, 4, 95, 3, 4, 97, 5, 3, 98, 0, 1, 100, 0, 3, 100, 2, 4, 101, 0, 3, 114, 5, 2, 119, 2, 0, 119, 1, 2, 121, 1, 1, 124, 2, 2, 127, 3, 3, 128, 5, 1, 130, 1, 4, 131, 3, 5, 133, 1, 2, 133, 1, 3, 134, 3, 1, 134, 3, 1, 138, 0, 2, 140, 0, 1, 141, 2, 2, 142, 0, 5, 142, 0, 2, 146, 4, 1, 147, 0, 4, 151, 5, 4, 151, 2, 0, 155, 0, 5, 156, 1, 5, 156, 3, 5, 158, 5, 5, 160, 5, 4, 161, 3, 5, 163, 2, 1, 165, 5, 1, 165, 2, 1]);
