n_res = 4;
rc = [ 60, 65, 42, 95 ];
n_tasks = 92;
d = [0, 1, 4, 7, 2, 1, 5, 7, 9, 1, 9, 6, 3, 6, 8, 8, 6, 10, 4, 5, 9, 9, 8, 6, 4, 10, 3, 7, 3, 4, 6, 9, 8, 8, 5, 4, 6, 9, 7, 3, 3, 4, 6, 2, 1, 9, 5, 1, 2, 6, 4, 5, 1, 3, 6, 7, 10, 9, 8, 5, 3, 6, 7, 3, 3, 10, 10, 6, 3, 6, 7, 10, 1, 5, 7, 5, 5, 4, 8, 9, 7, 1, 10, 3, 1, 7, 3, 1, 7, 2, 7, 0];
rr = array2d(1..4, 1..92, [0, 0, 0, 0, 0, 10, 0, 0, 10, 3, 6, 2, 0, 0, 0, 0, 0, 0, 10, 0, 6, 1, 0, 0, 0, 0, 1, 0, 0, 8, 4, 1, 3, 8, 8, 5, 3, 6, 1, 0, 9, 0, 2, 1, 0, 0, 0, 0, 3, 0, 9, 6, 0, 1, 6, 7, 10, 0, 10, 0, 0, 0, 0, 1, 0, 9, 5, 4, 0, 10, 4, 1, 0, 10, 3, 10, 7, 6, 3, 0, 10, 0, 0, 1, 0, 6, 0, 0, 1, 2, 1, 0, 0, 7, 0, 5, 2, 4, 1, 4, 3, 0, 9, 0, 7, 2, 0, 0, 6, 4, 7, 0, 0, 0, 0, 0, 1, 0, 0, 1, 1, 0, 0, 10, 0, 0, 5, 10, 0, 0, 10, 0, 0, 0, 0, 0, 5, 5, 0, 9, 0, 2, 0, 0, 0, 1, 0, 0, 1, 8, 8, 10, 0, 10, 3, 0, 10, 4, 4, 5, 4, 0, 0, 6, 0, 0, 0, 0, 0, 0, 0, 7, 3, 4, 8, 2, 0, 0, 7, 3, 0, 0, 0, 0, 0, 0, 4, 0, 0, 0, 4, 8, 0, 1, 1, 0, 0, 0, 0, 5, 0, 0, 0, 8, 0, 0, 0, 4, 3, 3, 2, 0, 0, 0, 8, 0, 7, 0, 9, 0, 0, 0, 2, 5, 10, 9, 0, 0, 0, 0, 3, 7, 0, 0, 5, 2, 0, 0, 0, 3, 8, 4, 1, 0, 0, 6, 0, 2, 5, 0, 4, 0, 0, 9, 2, 6, 7, 0, 2, 0, 2, 0, 5, 0, 4, 0, 0, 0, 0, 0, 0, 10, 3, 0, 1, 0, 0, 0, 5, 10, 0, 5, 0, 0, 8, 0, 6, 0, 5, 0, 9, 3, 10, 4, 9, 0, 9, 9, 5, 7, 0, 9, 0, 0, 0, 0, 7, 9, 5, 0, 3, 4, 0, 0, 0, 9, 7, 3, 0, 0, 7, 9, 1, 5, 10, 4, 0, 0, 2, 6, 0, 0, 0, 0, 9, 0, 5, 4, 3, 0, 0, 0, 5, 9, 0, 0, 8, 0, 0, 0, 0, 7, 0, 8, 0, 5, 0, 8, 7, 1, 6, 0, 0, 0, 7, 0, 0, 0]);

suc = [
   {2, 3, 4},
   {8, 10, 15},
   {39, 22, 7},
   {9, 5, 6},
   {35, 55},
   {28, 13},
   {16, 18, 32},
   {11, 20, 14},
   {48},
   {33, 12, 47},
   {56},
   {24, 25, 19},
   {78},
   {40, 59, 30},
   {17, 21},
   {54},
   {34, 42, 23},
   {64},
   {86},
   {79},
   {31},
   {53},
   {73, 41},
   {82, 29},
   {26, 58, 71},
   {50, 27, 70},
   {34, 68, 62},
   {58, 43, 37},
   {78},
   {65, 36, 45},
   {81, 66, 85},
   {62},
   {37},
   {46, 38},
   {51},
   {69},
   {75},
   {91, 84},
   {49},
   {44},
   {66},
   {57, 90, 77},
   {80},
   {67},
   {64},
   {85},
   {72, 52},
   {60, 69},
   {51},
   {56},
   {69},
   {60},
   {61},
   {87},
   {79},
   {83},
   {74},
   {68},
   {66, 68},
   {61},
   {75, 67, 63},
   {72},
   {73},
   {74},
   {70},
   {86},
   {76},
   {80, 89},
   {77},
   {88},
   {85},
   {74},
   {79},
   {83},
   {83},
   {78},
   {91},
   {89},
   {81},
   {81},
   {87},
   {89},
   {91},
   {86},
   {87},
   {88},
   {90},
   {90},
   {92},
   {92},
   {92},
   {  } ];

deadline = array2d(1..92, 1..3, [4, 0, 0, 5, 0, 2, 6, 3, 3, 7, 0, 0, 9, 1, 4, 9, 4, 3, 9, 4, 5, 10, 5, 4, 11, 1, 1, 14, 3, 3, 17, 2, 2, 19, 5, 1, 22, 5, 4, 23, 1, 4, 24, 4, 1, 24, 2, 2, 30, 3, 5, 31, 3, 4, 38, 0, 0, 39, 0, 1, 39, 4, 3, 40, 5, 1, 45, 3, 5, 48, 0, 4, 51, 1, 1, 51, 4, 0, 52, 4, 3, 53, 0, 1, 53, 2, 0, 54, 2, 5, 55, 1, 3, 57, 4, 1, 59, 1, 1, 61, 0, 5, 61, 2, 5, 62, 0, 4, 65, 0, 4, 66, 1, 2, 67, 5, 2, 68, 5, 5, 72, 1, 2, 74, 4, 3, 74, 0, 1, 77, 1, 4, 79, 4, 3, 81, 3, 5, 82, 2, 5, 84, 0, 2, 87, 0, 5, 88, 5, 5, 88, 5, 2, 95, 4, 3, 95, 2, 2, 95, 2, 1, 97, 1, 1, 99, 0, 3, 100, 1, 1, 102, 4, 2, 102, 0, 4, 104, 0, 3, 106, 2, 4, 108, 5, 5, 109, 3, 0, 113, 3, 5, 115, 2, 2, 115, 3, 4, 117, 0, 0, 120, 4, 4, 122, 2, 4, 124, 4, 1, 127, 3, 3, 131, 5, 2, 132, 0, 1, 137, 0, 5, 139, 3, 1, 140, 1, 0, 140, 4, 4, 140, 4, 4, 141, 5, 2, 142, 0, 4, 145, 4, 0, 145, 0, 0, 146, 3, 2, 147, 4, 0, 147, 0, 3, 149, 2, 1, 151, 1, 3, 152, 1, 1, 153, 2, 0, 154, 0, 2, 154, 0, 2, 155, 2, 0]);
