n_res = 4;
rc = [ 40, 37, 43, 38 ];
n_tasks = 92;
d = [0, 3, 6, 10, 1, 8, 8, 1, 7, 2, 9, 7, 10, 6, 4, 9, 1, 5, 6, 3, 5, 3, 3, 4, 2, 7, 6, 3, 6, 8, 10, 8, 2, 1, 9, 8, 9, 10, 4, 8, 9, 7, 9, 2, 9, 7, 7, 3, 1, 2, 3, 6, 10, 8, 3, 1, 1, 2, 8, 6, 7, 10, 8, 10, 5, 7, 6, 3, 6, 5, 7, 1, 6, 10, 3, 10, 3, 2, 10, 2, 5, 1, 4, 10, 9, 1, 8, 10, 5, 7, 7, 0];
rr = array2d(1..4, 1..92, [0, 6, 3, 10, 1, 7, 10, 1, 2, 7, 8, 4, 4, 4, 2, 10, 7, 10, 3, 9, 7, 2, 1, 8, 6, 6, 10, 5, 5, 8, 9, 8, 1, 6, 6, 1, 9, 7, 2, 1, 5, 7, 3, 2, 7, 10, 8, 5, 10, 3, 6, 2, 5, 4, 7, 7, 7, 10, 8, 10, 1, 9, 8, 3, 9, 3, 7, 1, 10, 3, 7, 7, 8, 8, 1, 6, 4, 5, 3, 7, 7, 10, 9, 5, 5, 1, 8, 6, 3, 8, 9, 0, 0, 9, 5, 8, 4, 4, 1, 8, 8, 6, 6, 6, 6, 6, 9, 9, 4, 1, 10, 2, 3, 9, 6, 2, 10, 4, 9, 10, 8, 4, 1, 1, 9, 5, 8, 2, 5, 9, 6, 7, 9, 2, 6, 8, 10, 2, 2, 3, 9, 10, 7, 10, 5, 1, 8, 7, 10, 2, 8, 4, 7, 1, 4, 6, 3, 4, 1, 2, 10, 9, 9, 9, 5, 9, 6, 8, 1, 6, 3, 4, 9, 2, 4, 10, 3, 10, 9, 5, 2, 3, 10, 0, 0, 8, 9, 1, 7, 8, 5, 7, 6, 8, 1, 8, 2, 8, 3, 7, 9, 10, 9, 4, 6, 6, 6, 4, 6, 6, 9, 4, 8, 10, 9, 3, 6, 5, 10, 2, 6, 7, 6, 2, 7, 3, 5, 4, 9, 2, 1, 2, 2, 10, 8, 8, 5, 7, 4, 4, 8, 6, 7, 10, 9, 3, 1, 3, 9, 2, 5, 2, 3, 3, 5, 9, 8, 9, 1, 1, 10, 9, 3, 1, 4, 4, 10, 10, 10, 1, 6, 6, 6, 1, 2, 0, 0, 2, 4, 4, 2, 9, 8, 3, 9, 5, 3, 6, 10, 3, 1, 9, 5, 3, 3, 1, 4, 2, 3, 6, 1, 9, 8, 8, 8, 4, 8, 4, 4, 2, 9, 8, 3, 2, 3, 1, 10, 5, 3, 9, 1, 4, 3, 5, 2, 7, 4, 10, 1, 4, 7, 3, 4, 6, 6, 8, 1, 6, 4, 2, 1, 4, 5, 4, 5, 10, 2, 7, 6, 4, 7, 5, 8, 6, 10, 6, 2, 7, 7, 9, 4, 1, 1, 9, 10, 4, 9, 0]);

suc = [
   {2, 3, 4},
   {20, 5, 15},
   {9, 26, 12},
   {8, 10, 13},
   {73, 11, 6},
   {18, 46, 7},
   {17, 53, 14},
   {62, 36, 22},
   {44, 45, 15},
   {16, 53, 23},
   {40, 19, 29},
   {73, 85, 55},
   {25, 21, 14},
   {57, 59, 38},
   {35, 27, 28},
   {24, 37, 38},
   {25, 45, 39},
   {80, 49, 31},
   {65, 59, 61},
   {26, 27, 44},
   {65, 78},
   {54, 82, 30},
   {42, 37, 70},
   {28, 36, 47},
   {80},
   {52, 61, 54},
   {32, 42},
   {40, 68},
   {35, 45, 79},
   {40, 60},
   {33, 43, 44},
   {48, 69, 38},
   {41, 34, 37},
   {83, 69, 63},
   {66, 68},
   {49, 58, 39},
   {50, 91},
   {58, 39},
   {66, 51, 54},
   {80, 70},
   {60, 68},
   {81, 73},
   {52},
   {64},
   {48, 56, 70},
   {89, 62},
   {56, 67, 59},
   {88, 57},
   {52, 84},
   {51, 55},
   {65, 63},
   {67, 77, 69},
   {60, 63},
   {76},
   {56, 76, 77},
   {57},
   {64, 87},
   {64, 75, 79},
   {72, 66, 62},
   {67, 61},
   {88, 75},
   {88},
   {72, 74, 87},
   {74, 71},
   {75},
   {82},
   {72, 78},
   {74},
   {89, 78, 71},
   {81, 71},
   {86},
   {86},
   {83, 77},
   {82, 84},
   {76},
   {83},
   {87},
   {79},
   {81},
   {85},
   {85},
   {90},
   {84},
   {89, 86},
   {91},
   {90},
   {90},
   {91},
   {92},
   {92},
   {92},
   {  } ];

deadline = array2d(1..92, 1..3, [11, 4, 1, 11, 3, 2, 13, 3, 1, 13, 2, 0, 14, 1, 1, 14, 5, 4, 15, 1, 2, 15, 5, 3, 16, 2, 4, 18, 1, 5, 24, 0, 4, 27, 3, 1, 28, 1, 5, 30, 1, 0, 30, 4, 3, 35, 5, 4, 45, 3, 3, 46, 4, 4, 47, 4, 5, 48, 0, 3, 52, 0, 1, 53, 4, 0, 54, 5, 3, 59, 5, 0, 61, 4, 3, 64, 4, 2, 67, 4, 2, 68, 0, 0, 68, 5, 5, 68, 2, 4, 69, 5, 0, 72, 1, 2, 79, 1, 5, 80, 3, 0, 86, 2, 0, 88, 5, 5, 91, 3, 5, 94, 4, 5, 97, 2, 1, 101, 1, 1, 102, 2, 2, 103, 2, 5, 109, 1, 2, 110, 4, 5, 110, 3, 3, 116, 5, 4, 120, 5, 4, 121, 1, 5, 121, 0, 4, 122, 3, 3, 122, 5, 2, 123, 2, 0, 125, 2, 3, 128, 5, 2, 131, 0, 2, 134, 5, 5, 140, 1, 1, 141, 4, 3, 143, 3, 5, 145, 3, 3, 145, 3, 3, 150, 3, 3, 152, 1, 2, 161, 2, 0, 164, 4, 1, 166, 5, 2, 166, 1, 5, 167, 5, 4, 173, 0, 2, 173, 2, 3, 174, 2, 0, 175, 3, 4, 178, 2, 4, 179, 5, 5, 186, 2, 4, 189, 2, 2, 191, 4, 4, 194, 1, 0, 195, 2, 0, 198, 0, 5, 198, 3, 0, 199, 1, 5, 202, 0, 0, 205, 3, 3, 207, 3, 5, 212, 0, 0, 212, 0, 3, 214, 4, 3, 214, 5, 4, 215, 0, 2, 218, 4, 0, 218, 4, 3]);
