n_res = 4;
rc = [ 33, 28, 30, 37 ];
n_tasks = 92;
d = [0, 7, 6, 10, 8, 1, 6, 2, 10, 3, 5, 1, 8, 6, 3, 8, 7, 6, 1, 10, 2, 3, 5, 2, 3, 5, 2, 8, 2, 6, 3, 4, 7, 8, 1, 3, 10, 5, 7, 6, 2, 6, 4, 3, 1, 7, 1, 6, 4, 5, 2, 1, 1, 7, 2, 7, 1, 8, 8, 3, 2, 10, 6, 1, 5, 9, 5, 2, 9, 7, 9, 2, 1, 6, 7, 1, 8, 7, 7, 10, 1, 7, 9, 3, 1, 6, 2, 3, 5, 2, 8, 0];
rr = array2d(1..4, 1..92, [0, 0, 0, 10, 2, 0, 10, 5, 0, 0, 8, 9, 3, 0, 1, 0, 2, 0, 0, 0, 0, 9, 0, 0, 8, 0, 0, 0, 9, 3, 1, 0, 0, 0, 0, 0, 9, 5, 3, 0, 9, 5, 0, 8, 7, 10, 0, 4, 6, 0, 0, 0, 0, 0, 0, 0, 0, 1, 0, 0, 10, 0, 3, 0, 3, 7, 0, 3, 8, 2, 1, 0, 0, 10, 0, 6, 0, 0, 0, 0, 0, 7, 0, 3, 0, 0, 8, 6, 0, 4, 4, 0, 0, 8, 1, 6, 0, 1, 0, 0, 4, 0, 5, 0, 5, 0, 0, 9, 5, 7, 0, 0, 0, 10, 2, 4, 0, 0, 0, 0, 0, 0, 0, 0, 0, 0, 1, 4, 6, 6, 0, 2, 10, 1, 4, 0, 3, 0, 0, 4, 6, 0, 1, 0, 0, 10, 0, 0, 10, 0, 0, 8, 0, 5, 5, 0, 1, 3, 0, 0, 0, 0, 2, 10, 5, 0, 0, 0, 8, 9, 9, 9, 0, 8, 7, 2, 0, 0, 1, 0, 7, 6, 8, 0, 0, 3, 6, 0, 2, 6, 0, 6, 0, 6, 0, 3, 0, 1, 9, 0, 0, 0, 0, 7, 2, 0, 8, 0, 0, 0, 7, 5, 0, 5, 6, 9, 1, 2, 0, 0, 0, 0, 0, 1, 0, 3, 8, 0, 7, 0, 10, 2, 0, 2, 9, 0, 0, 7, 0, 3, 7, 0, 4, 0, 10, 3, 6, 5, 0, 0, 9, 0, 1, 6, 5, 0, 0, 0, 10, 0, 0, 10, 0, 0, 1, 7, 3, 0, 3, 7, 0, 0, 4, 0, 0, 0, 0, 8, 0, 0, 10, 6, 6, 8, 7, 6, 0, 0, 6, 8, 5, 4, 8, 4, 10, 3, 0, 9, 0, 0, 0, 4, 6, 0, 8, 8, 6, 0, 0, 8, 0, 3, 5, 5, 10, 0, 0, 0, 0, 0, 9, 6, 0, 0, 0, 0, 2, 7, 6, 10, 3, 1, 0, 0, 0, 0, 0, 0, 0, 7, 0, 8, 0, 4, 0, 0, 0, 7, 7, 0, 8, 2, 0, 0, 0, 0, 0, 0, 0, 0, 7, 3, 1, 1, 8, 3, 0, 0]);

suc = [
   {2, 3, 4},
   {8, 16, 21},
   {34, 53, 6},
   {9, 5, 7},
   {57, 12, 29},
   {69, 29},
   {11},
   {10, 20, 22},
   {39},
   {18, 19, 15},
   {17, 13, 14},
   {91, 27},
   {64, 44, 45},
   {25, 21, 31},
   {73, 61},
   {59, 43, 39},
   {26, 28, 23},
   {24},
   {40, 42, 52},
   {49, 34},
   {66, 30},
   {35},
   {34, 36},
   {81, 37, 62},
   {41, 55},
   {32, 41, 36},
   {38, 71},
   {89, 65, 58},
   {33},
   {65, 67},
   {56, 38},
   {40, 46},
   {74},
   {63},
   {57, 52},
   {46, 54, 38},
   {43},
   {75, 44},
   {70},
   {83, 84},
   {51},
   {59, 46, 47},
   {49, 68, 61},
   {74},
   {60, 68},
   {48, 50, 88},
   {80, 85},
   {70},
   {76, 54},
   {73},
   {80, 63},
   {81},
   {71},
   {63, 55},
   {75},
   {60},
   {64, 74},
   {72, 78, 62},
   {61},
   {72},
   {82, 67},
   {79},
   {79},
   {73, 83, 69},
   {76},
   {75, 68, 77},
   {91},
   {87},
   {80, 77, 70},
   {72, 71},
   {87},
   {79},
   {82, 78, 87},
   {76, 77},
   {90, 83},
   {90},
   {88},
   {84},
   {82, 84},
   {90},
   {85},
   {86},
   {88},
   {85},
   {86},
   {91},
   {89},
   {89},
   {92},
   {92},
   {92},
   {  } ];

deadline = array2d(1..92, 1..3, [1, 5, 0, 5, 2, 5, 5, 3, 0, 6, 3, 3, 8, 1, 3, 12, 3, 2, 13, 4, 4, 13, 4, 1, 16, 4, 3, 17, 5, 4, 18, 3, 5, 20, 3, 1, 20, 5, 3, 30, 0, 2, 32, 0, 5, 32, 1, 0, 40, 4, 1, 41, 5, 1, 42, 5, 2, 43, 1, 2, 48, 1, 0, 48, 2, 3, 51, 4, 5, 54, 5, 1, 55, 3, 3, 56, 5, 3, 56, 5, 4, 58, 5, 3, 61, 2, 2, 61, 0, 3, 63, 1, 3, 63, 5, 5, 70, 5, 3, 76, 4, 1, 76, 0, 0, 76, 3, 0, 79, 3, 0, 81, 1, 3, 82, 5, 4, 89, 2, 1, 90, 5, 2, 94, 1, 5, 95, 4, 1, 101, 2, 1, 108, 3, 5, 108, 3, 1, 110, 0, 0, 110, 4, 1, 112, 4, 2, 114, 4, 2, 115, 2, 0, 120, 5, 5, 123, 3, 4, 127, 2, 3, 131, 1, 0, 132, 0, 5, 137, 1, 3, 138, 4, 3, 139, 0, 0, 139, 0, 3, 140, 4, 0, 140, 5, 3, 143, 4, 4, 147, 1, 0, 149, 2, 0, 150, 5, 2, 152, 5, 2, 157, 0, 0, 158, 2, 1, 160, 2, 4, 160, 5, 0, 166, 1, 2, 170, 0, 3, 174, 4, 1, 174, 4, 0, 175, 1, 1, 180, 3, 1, 186, 0, 4, 189, 3, 1, 189, 1, 3, 190, 2, 4, 191, 3, 2, 193, 1, 4, 193, 4, 0, 194, 0, 3, 198, 5, 3, 204, 4, 4, 206, 3, 2, 208, 1, 4, 208, 1, 3, 208, 5, 1, 216, 3, 1]);
