n_res = 4;
rc = [ 18, 17, 18, 22 ];
n_tasks = 92;
d = [0, 10, 9, 2, 10, 7, 4, 3, 8, 4, 2, 3, 5, 1, 6, 2, 6, 2, 3, 5, 9, 3, 8, 2, 9, 9, 1, 8, 6, 9, 5, 9, 10, 6, 3, 7, 9, 1, 9, 1, 7, 8, 10, 5, 10, 1, 2, 9, 6, 5, 4, 9, 5, 4, 3, 2, 1, 10, 3, 7, 7, 2, 9, 6, 10, 8, 1, 3, 2, 3, 7, 9, 7, 5, 2, 2, 10, 6, 6, 1, 1, 1, 8, 1, 3, 2, 3, 5, 5, 9, 10, 0];
rr = array2d(1..4, 1..92, [0, 0, 0, 0, 6, 2, 10, 4, 0, 4, 2, 0, 3, 2, 6, 5, 4, 0, 10, 7, 4, 9, 0, 6, 7, 3, 4, 5, 4, 0, 0, 8, 3, 7, 5, 1, 0, 3, 0, 6, 6, 6, 10, 4, 0, 4, 0, 10, 0, 3, 10, 0, 0, 10, 9, 7, 0, 4, 6, 6, 8, 8, 2, 6, 0, 0, 0, 10, 6, 6, 1, 7, 0, 7, 9, 4, 5, 9, 9, 0, 6, 8, 8, 0, 1, 1, 0, 2, 8, 6, 8, 0, 0, 1, 2, 10, 3, 10, 6, 0, 9, 5, 6, 0, 8, 3, 7, 0, 0, 1, 0, 4, 6, 6, 0, 4, 0, 7, 4, 2, 8, 7, 10, 9, 0, 3, 5, 7, 7, 0, 0, 0, 3, 0, 4, 7, 2, 0, 9, 1, 0, 10, 5, 3, 10, 0, 10, 4, 0, 0, 8, 2, 0, 6, 0, 5, 3, 3, 9, 4, 9, 9, 7, 4, 10, 6, 3, 1, 4, 0, 4, 0, 6, 4, 2, 9, 0, 8, 9, 0, 5, 0, 0, 0, 0, 5, 0, 7, 3, 4, 0, 3, 8, 0, 4, 7, 7, 5, 8, 0, 0, 0, 6, 7, 7, 1, 1, 0, 4, 6, 6, 8, 3, 1, 5, 1, 7, 1, 0, 3, 0, 2, 0, 0, 8, 6, 10, 0, 1, 0, 0, 5, 0, 7, 3, 0, 5, 0, 0, 5, 3, 10, 8, 1, 1, 3, 0, 6, 2, 0, 7, 0, 0, 3, 6, 7, 10, 1, 0, 6, 6, 9, 1, 2, 2, 8, 0, 0, 6, 0, 0, 0, 8, 6, 10, 0, 0, 8, 2, 8, 9, 6, 7, 7, 0, 9, 0, 5, 7, 6, 5, 0, 6, 9, 0, 2, 4, 6, 3, 9, 4, 5, 9, 5, 8, 5, 8, 4, 5, 8, 3, 10, 10, 2, 10, 8, 8, 7, 1, 10, 10, 7, 0, 9, 10, 6, 1, 4, 5, 2, 6, 0, 6, 4, 2, 7, 10, 5, 8, 2, 6, 7, 2, 9, 4, 4, 0, 10, 1, 8, 0, 4, 7, 4, 5, 1, 3, 0, 0, 7, 6, 0, 10, 0, 7, 2, 9, 0]);

suc = [
   {2, 3, 4},
   {8, 6, 14},
   {38, 17, 30},
   {9, 5, 15},
   {22, 6, 7},
   {16, 10, 11},
   {44, 13},
   {12, 30},
   {67, 52, 53},
   {20},
   {33, 19, 21},
   {33, 83, 44},
   {73, 34, 29},
   {24, 25, 31},
   {58, 35, 66},
   {25, 18, 50},
   {32, 65, 80},
   {75, 54, 23},
   {57, 46, 55},
   {51},
   {26, 67, 66},
   {61, 39, 23},
   {72, 34, 28},
   {27, 28, 36},
   {41, 34, 36},
   {58, 30},
   {73, 77, 37},
   {79},
   {33, 49, 39},
   {48, 36, 70},
   {51, 43, 47},
   {40, 35, 78},
   {84, 78},
   {56, 86, 78},
   {49, 44, 76},
   {43, 45},
   {50, 53},
   {56, 58, 52},
   {74, 90, 63},
   {42, 46, 47},
   {82, 76},
   {51, 60, 61},
   {88, 75, 53},
   {48, 59},
   {57, 69, 62},
   {48, 49, 60},
   {70, 60, 62},
   {89},
   {50, 67},
   {56, 71},
   {68, 62},
   {64, 57, 83},
   {59, 54},
   {65},
   {72, 85, 86},
   {59},
   {73, 65, 88},
   {70, 63},
   {87},
   {64, 74},
   {64},
   {71},
   {72, 81},
   {66, 75, 77},
   {76},
   {68, 69},
   {68, 69},
   {85},
   {89},
   {79, 71},
   {74},
   {80, 77},
   {80, 81},
   {83, 84},
   {81},
   {90, 79},
   {82},
   {85},
   {91},
   {82},
   {86},
   {89, 84},
   {87},
   {87},
   {88},
   {91},
   {91},
   {90},
   {92},
   {92},
   {92},
   {  } ];

deadline = array2d(1..92, 1..3, [4, 4, 2, 6, 4, 5, 7, 3, 4, 15, 3, 3, 16, 4, 3, 20, 0, 1, 21, 4, 0, 26, 4, 4, 27, 1, 1, 33, 4, 4, 33, 2, 2, 35, 0, 0, 36, 3, 2, 38, 2, 4, 38, 1, 5, 42, 0, 3, 44, 0, 0, 44, 4, 4, 51, 3, 4, 52, 0, 3, 57, 4, 3, 59, 0, 3, 62, 3, 4, 66, 3, 3, 66, 1, 5, 68, 4, 1, 74, 4, 0, 74, 5, 5, 78, 4, 4, 83, 2, 0, 88, 2, 0, 88, 4, 5, 91, 2, 1, 99, 0, 4, 103, 5, 5, 107, 5, 3, 108, 3, 2, 110, 0, 2, 110, 1, 1, 110, 2, 5, 112, 5, 5, 112, 2, 2, 112, 3, 1, 116, 2, 2, 117, 2, 5, 119, 2, 2, 119, 2, 5, 121, 0, 0, 127, 1, 2, 128, 1, 0, 130, 3, 4, 132, 2, 4, 142, 4, 3, 149, 2, 4, 152, 5, 2, 153, 0, 4, 158, 1, 4, 160, 2, 3, 163, 1, 0, 172, 1, 3, 177, 2, 1, 177, 4, 3, 178, 2, 5, 182, 5, 3, 183, 3, 1, 191, 3, 4, 192, 0, 5, 195, 3, 3, 196, 1, 5, 200, 3, 4, 202, 3, 2, 208, 4, 1, 208, 2, 5, 212, 2, 1, 215, 1, 3, 216, 1, 5, 220, 2, 5, 220, 4, 2, 221, 3, 2, 230, 0, 1, 238, 0, 2, 239, 2, 2, 241, 0, 3, 243, 1, 0, 245, 2, 1, 246, 0, 1, 249, 5, 1, 249, 1, 2, 252, 1, 1, 252, 4, 2, 254, 5, 0, 255, 0, 5]);
