n_res = 4;
rc = [ 21, 23, 20, 23 ];
n_tasks = 92;
d = [0, 6, 5, 3, 9, 8, 6, 4, 4, 9, 6, 7, 4, 3, 4, 7, 1, 5, 7, 5, 6, 1, 1, 10, 5, 3, 9, 10, 6, 8, 7, 9, 4, 9, 7, 8, 2, 7, 3, 2, 6, 4, 9, 5, 10, 1, 8, 1, 1, 2, 4, 9, 5, 10, 7, 10, 1, 1, 4, 5, 8, 10, 9, 3, 1, 6, 10, 5, 10, 6, 2, 5, 5, 2, 6, 5, 10, 2, 10, 3, 7, 3, 9, 9, 9, 10, 4, 4, 5, 9, 10, 0];
rr = array2d(1..4, 1..92, [0, 10, 2, 2, 2, 9, 6, 5, 8, 2, 5, 3, 6, 9, 4, 10, 4, 7, 9, 4, 4, 3, 6, 10, 7, 2, 10, 5, 10, 9, 3, 3, 10, 3, 4, 5, 3, 4, 4, 9, 6, 3, 5, 2, 1, 6, 6, 9, 4, 8, 6, 4, 5, 8, 10, 2, 2, 4, 2, 6, 3, 7, 6, 5, 4, 9, 3, 10, 7, 6, 8, 10, 8, 10, 1, 4, 5, 8, 2, 1, 2, 9, 10, 3, 5, 1, 8, 7, 4, 8, 7, 0, 0, 1, 6, 1, 7, 1, 4, 3, 2, 8, 3, 9, 3, 7, 1, 4, 8, 4, 2, 1, 3, 5, 10, 9, 6, 7, 7, 9, 10, 3, 6, 2, 10, 2, 6, 9, 1, 10, 4, 5, 3, 8, 7, 3, 10, 6, 4, 1, 5, 5, 8, 9, 7, 2, 9, 5, 2, 2, 3, 2, 10, 10, 6, 2, 8, 1, 8, 5, 1, 4, 4, 6, 4, 4, 5, 2, 3, 4, 9, 4, 8, 8, 1, 10, 3, 7, 4, 2, 7, 3, 2, 0, 0, 4, 4, 10, 1, 6, 5, 8, 7, 3, 5, 9, 1, 4, 2, 6, 8, 1, 7, 4, 4, 3, 5, 7, 5, 3, 1, 10, 10, 3, 8, 6, 10, 5, 10, 10, 4, 6, 10, 8, 6, 9, 8, 4, 5, 7, 2, 4, 4, 5, 1, 7, 10, 4, 2, 8, 7, 3, 5, 1, 5, 3, 6, 4, 5, 8, 9, 1, 1, 10, 4, 5, 6, 2, 4, 5, 10, 7, 6, 10, 5, 5, 1, 1, 5, 6, 7, 1, 3, 7, 9, 0, 0, 5, 5, 7, 2, 8, 8, 8, 10, 2, 3, 2, 5, 1, 1, 8, 2, 3, 10, 5, 6, 6, 2, 1, 5, 8, 8, 6, 1, 9, 9, 10, 8, 8, 8, 10, 5, 6, 6, 9, 6, 3, 4, 5, 6, 8, 10, 9, 10, 9, 1, 3, 10, 5, 4, 8, 10, 5, 4, 1, 4, 3, 8, 7, 8, 7, 3, 1, 6, 2, 9, 5, 4, 4, 10, 3, 5, 9, 2, 3, 10, 3, 5, 4, 6, 3, 10, 2, 4, 6, 6, 0]);

suc = [
   {2, 3, 4},
   {10, 44},
   {8, 5, 6},
   {17, 11, 7},
   {15},
   {9, 26, 30},
   {91, 29, 38},
   {12, 20, 39},
   {65, 57, 27},
   {35, 84, 85},
   {67, 13, 14},
   {42, 58},
   {64},
   {55},
   {16, 73, 19},
   {18, 68},
   {48, 43, 22},
   {32, 56, 62},
   {24, 28, 21},
   {78, 30, 31},
   {25, 37, 23},
   {34, 27},
   {76, 69, 54},
   {49, 50, 45},
   {41, 36, 54},
   {28},
   {33},
   {44, 46, 79},
   {32, 52, 47},
   {40, 34, 66},
   {88},
   {63},
   {36, 44},
   {67, 76},
   {40},
   {50},
   {82, 62},
   {90},
   {41, 51, 46},
   {71, 47},
   {81},
   {52, 54},
   {66, 52, 86},
   {59, 69, 53},
   {63},
   {72, 49, 50},
   {64, 68},
   {77},
   {59},
   {58, 61},
   {72},
   {83, 53},
   {60, 61},
   {61, 71},
   {68, 71},
   {76},
   {59},
   {70},
   {70},
   {82},
   {87},
   {89, 75},
   {74, 67},
   {73},
   {78},
   {72, 91},
   {84, 77},
   {82, 77},
   {83, 75},
   {74},
   {80},
   {85},
   {88},
   {80, 84, 78},
   {80, 91},
   {81, 79},
   {86},
   {81},
   {85},
   {86},
   {83},
   {89},
   {87},
   {87},
   {90},
   {90},
   {88},
   {89},
   {92},
   {92},
   {92},
   {  } ];

deadline = array2d(1..92, 1..3, [5, 1, 4, 6, 1, 5, 6, 1, 3, 6, 1, 4, 7, 3, 1, 8, 3, 5, 11, 4, 5, 14, 4, 2, 27, 1, 4, 28, 3, 5, 32, 3, 3, 43, 1, 0, 44, 2, 4, 45, 0, 2, 47, 0, 1, 47, 4, 5, 48, 0, 3, 49, 0, 1, 58, 5, 1, 59, 1, 0, 65, 1, 4, 66, 3, 2, 68, 5, 2, 68, 5, 1, 68, 1, 0, 69, 5, 3, 70, 3, 3, 71, 0, 5, 73, 1, 1, 75, 4, 3, 76, 2, 2, 76, 1, 4, 79, 0, 2, 81, 3, 5, 81, 0, 3, 82, 4, 5, 83, 1, 5, 84, 0, 3, 85, 1, 3, 91, 3, 1, 91, 5, 3, 95, 5, 0, 111, 2, 2, 111, 4, 0, 117, 1, 5, 117, 3, 5, 118, 1, 0, 120, 1, 5, 120, 0, 1, 121, 5, 4, 124, 1, 3, 124, 5, 1, 125, 0, 2, 128, 4, 3, 128, 3, 5, 130, 0, 1, 130, 1, 5, 134, 3, 2, 139, 5, 5, 140, 1, 3, 141, 2, 5, 152, 2, 3, 152, 1, 4, 158, 3, 4, 167, 5, 2, 168, 1, 2, 171, 3, 5, 172, 5, 0, 173, 1, 2, 175, 5, 5, 186, 1, 4, 187, 4, 2, 188, 4, 0, 189, 1, 5, 191, 5, 2, 192, 2, 3, 193, 4, 0, 194, 3, 4, 195, 3, 1, 196, 4, 5, 198, 4, 5, 198, 3, 4, 206, 5, 0, 213, 2, 2, 214, 0, 3, 218, 4, 3, 219, 0, 0, 221, 1, 4, 221, 0, 5, 225, 2, 5, 229, 5, 3, 229, 5, 0]);
