n_res = 4;
rc = [ 12, 18, 17, 14 ];
n_tasks = 92;
d = [0, 2, 6, 7, 8, 3, 9, 5, 10, 6, 2, 9, 2, 9, 6, 2, 9, 9, 2, 6, 6, 10, 2, 4, 8, 7, 2, 8, 8, 4, 7, 2, 9, 8, 8, 6, 4, 8, 9, 8, 1, 8, 10, 7, 5, 10, 7, 1, 1, 9, 8, 9, 9, 5, 4, 1, 4, 6, 4, 3, 4, 9, 8, 4, 8, 7, 6, 4, 6, 3, 2, 3, 3, 4, 10, 2, 8, 7, 6, 10, 7, 5, 1, 4, 8, 7, 4, 6, 9, 9, 4, 0];
rr = array2d(1..4, 1..92, [0, 0, 0, 0, 0, 0, 0, 0, 0, 0, 5, 0, 0, 0, 0, 0, 0, 0, 6, 0, 5, 2, 0, 0, 0, 0, 0, 0, 0, 0, 0, 5, 0, 0, 0, 0, 0, 1, 0, 0, 0, 0, 3, 0, 0, 0, 0, 0, 0, 9, 0, 0, 2, 0, 4, 0, 0, 10, 9, 10, 0, 0, 0, 3, 0, 0, 0, 0, 0, 0, 8, 0, 0, 0, 0, 0, 0, 0, 0, 0, 0, 2, 0, 0, 5, 0, 0, 0, 0, 0, 6, 0, 0, 0, 0, 0, 0, 10, 6, 0, 0, 0, 0, 0, 0, 0, 2, 1, 0, 0, 0, 5, 0, 0, 2, 6, 10, 1, 10, 0, 0, 0, 0, 0, 0, 6, 0, 0, 0, 0, 0, 10, 0, 0, 0, 9, 8, 0, 0, 7, 0, 0, 6, 5, 0, 10, 0, 0, 0, 0, 0, 0, 4, 0, 0, 0, 0, 0, 0, 9, 4, 9, 0, 0, 0, 7, 0, 0, 0, 6, 0, 0, 0, 0, 6, 0, 0, 0, 0, 0, 0, 0, 0, 0, 0, 10, 0, 9, 1, 0, 0, 0, 0, 10, 0, 0, 10, 6, 0, 0, 0, 3, 0, 0, 0, 0, 0, 0, 0, 0, 0, 4, 0, 0, 0, 0, 0, 0, 4, 6, 0, 0, 6, 0, 8, 10, 0, 0, 0, 9, 10, 0, 8, 0, 0, 0, 0, 0, 0, 4, 0, 0, 0, 0, 0, 0, 3, 0, 6, 0, 8, 0, 0, 0, 0, 8, 1, 0, 0, 0, 0, 0, 0, 0, 7, 0, 0, 0, 0, 0, 3, 1, 0, 0, 0, 0, 0, 0, 3, 0, 0, 0, 0, 6, 3, 0, 0, 7, 0, 0, 0, 0, 3, 0, 0, 0, 0, 0, 0, 0, 0, 0, 0, 0, 8, 2, 8, 0, 9, 0, 0, 0, 3, 0, 0, 0, 0, 0, 0, 0, 0, 0, 0, 0, 0, 0, 0, 0, 0, 0, 0, 0, 8, 0, 0, 0, 0, 5, 0, 0, 0, 2, 0, 0, 0, 0, 0, 0, 0, 0, 10, 3, 10, 0, 3, 4, 0, 0, 0, 3, 0, 5, 0, 0, 6, 6, 0, 0]);

suc = [
   {2, 3, 4},
   {16, 57, 5},
   {10, 6, 22},
   {11, 38, 7},
   {56, 9, 30},
   {8, 17, 13},
   {63},
   {28, 47, 15},
   {26, 23},
   {12, 21},
   {33, 50, 20},
   {84, 14, 31},
   {18},
   {40},
   {27},
   {32, 19},
   {71},
   {36, 77},
   {52, 46},
   {89},
   {24, 25, 62},
   {53},
   {39},
   {35},
   {40},
   {29, 71},
   {41},
   {67, 55},
   {64, 35},
   {73, 51, 37},
   {47},
   {41, 42, 79},
   {34},
   {54},
   {81},
   {61, 45},
   {80, 59},
   {64, 74, 87},
   {72},
   {72},
   {65, 43, 61},
   {44},
   {49, 90},
   {48, 60},
   {70},
   {60, 76},
   {65, 86},
   {58, 82},
   {60},
   {83, 67},
   {53},
   {53},
   {62},
   {63},
   {66},
   {81},
   {89},
   {61},
   {68},
   {89},
   {71},
   {70},
   {87},
   {79},
   {75},
   {69},
   {91},
   {88},
   {74},
   {72},
   {75},
   {76},
   {86},
   {85},
   {83},
   {78},
   {84},
   {80},
   {80, 81},
   {86},
   {85},
   {84},
   {90, 87},
   {85},
   {88},
   {88, 91},
   {91},
   {90},
   {92},
   {92},
   {92},
   {  } ];

deadline = array2d(1..92, 1..3, [4, 3, 4, 10, 5, 4, 10, 3, 4, 11, 3, 5, 12, 3, 0, 20, 5, 3, 22, 0, 4, 24, 3, 2, 27, 2, 5, 28, 5, 5, 29, 3, 2, 30, 4, 1, 34, 2, 3, 34, 3, 2, 39, 1, 0, 47, 0, 4, 48, 1, 4, 48, 5, 5, 51, 1, 3, 57, 0, 3, 57, 3, 5, 60, 5, 3, 63, 0, 2, 65, 3, 0, 67, 2, 5, 68, 0, 3, 71, 3, 2, 71, 1, 0, 73, 0, 5, 79, 5, 1, 80, 2, 0, 82, 1, 1, 85, 0, 2, 87, 2, 4, 90, 3, 5, 91, 0, 4, 91, 5, 0, 95, 1, 2, 97, 5, 0, 97, 1, 4, 101, 0, 0, 101, 5, 5, 101, 3, 1, 101, 3, 0, 105, 4, 3, 106, 4, 5, 108, 1, 3, 111, 1, 2, 114, 4, 2, 128, 1, 5, 128, 1, 2, 132, 3, 4, 134, 2, 3, 137, 1, 1, 137, 2, 2, 142, 3, 3, 143, 0, 3, 145, 1, 5, 146, 4, 1, 146, 5, 5, 148, 0, 3, 151, 2, 4, 151, 3, 2, 153, 3, 5, 153, 3, 2, 159, 1, 4, 160, 5, 4, 165, 2, 2, 168, 3, 0, 173, 4, 1, 175, 2, 4, 175, 2, 0, 177, 1, 2, 179, 5, 0, 179, 1, 4, 183, 0, 3, 184, 4, 5, 186, 3, 2, 187, 1, 3, 189, 1, 5, 190, 3, 3, 190, 2, 0, 191, 0, 0, 194, 2, 2, 194, 4, 2, 195, 5, 5, 195, 0, 5, 199, 5, 3, 203, 4, 5, 208, 5, 4, 215, 5, 2, 217, 0, 2]);
