n_res = 4;
rc = [ 19, 27, 23, 19 ];
n_tasks = 92;
d = [0, 2, 4, 9, 3, 5, 6, 10, 3, 6, 5, 4, 9, 2, 9, 5, 2, 7, 8, 2, 9, 2, 8, 8, 6, 6, 2, 10, 6, 1, 9, 9, 8, 9, 8, 2, 4, 10, 5, 2, 7, 6, 5, 5, 3, 7, 1, 7, 1, 10, 6, 9, 2, 3, 9, 3, 2, 1, 8, 8, 6, 2, 5, 1, 9, 10, 8, 4, 1, 2, 4, 8, 8, 8, 5, 5, 10, 7, 3, 10, 4, 5, 3, 10, 9, 5, 4, 10, 10, 4, 8, 0];
rr = array2d(1..4, 1..92, [0, 0, 0, 0, 0, 0, 0, 0, 0, 0, 0, 0, 0, 0, 0, 0, 0, 0, 0, 0, 0, 5, 0, 0, 4, 0, 0, 0, 0, 1, 0, 0, 0, 7, 0, 7, 0, 3, 0, 0, 10, 0, 0, 6, 10, 0, 0, 0, 0, 0, 0, 0, 0, 8, 0, 7, 0, 4, 8, 0, 0, 0, 0, 0, 0, 6, 1, 3, 0, 0, 7, 0, 0, 0, 0, 2, 0, 0, 0, 0, 0, 5, 0, 0, 0, 0, 3, 0, 0, 10, 0, 0, 0, 0, 0, 9, 0, 0, 0, 0, 6, 0, 4, 0, 10, 3, 0, 0, 0, 10, 3, 0, 0, 0, 0, 0, 0, 3, 8, 8, 0, 0, 0, 4, 0, 0, 3, 0, 0, 0, 0, 5, 0, 0, 4, 0, 0, 0, 0, 0, 0, 0, 0, 2, 8, 0, 0, 0, 0, 0, 0, 0, 5, 2, 0, 0, 0, 0, 0, 0, 0, 4, 0, 10, 9, 0, 2, 0, 0, 0, 10, 0, 9, 0, 0, 0, 0, 0, 0, 0, 0, 0, 0, 0, 0, 9, 0, 0, 0, 2, 9, 3, 0, 0, 0, 0, 0, 0, 8, 0, 3, 0, 0, 5, 0, 0, 8, 0, 0, 0, 0, 0, 9, 0, 6, 0, 0, 0, 0, 0, 0, 0, 0, 0, 0, 6, 0, 0, 0, 10, 10, 0, 8, 0, 0, 0, 0, 0, 7, 0, 1, 0, 0, 0, 0, 0, 10, 0, 4, 0, 0, 0, 0, 0, 0, 0, 0, 0, 0, 0, 0, 0, 0, 0, 0, 0, 2, 0, 0, 6, 0, 2, 0, 0, 4, 0, 0, 0, 6, 0, 10, 0, 0, 0, 0, 2, 0, 2, 0, 0, 0, 7, 0, 0, 0, 0, 9, 0, 0, 2, 0, 0, 0, 0, 0, 0, 0, 0, 6, 0, 0, 0, 10, 0, 4, 0, 0, 0, 0, 0, 0, 0, 0, 5, 0, 7, 2, 0, 0, 0, 0, 0, 0, 0, 0, 8, 0, 0, 0, 5, 0, 0, 0, 0, 4, 0, 0, 0, 0, 7, 0, 0, 2, 3, 0, 2, 0, 0, 0, 8, 3, 0, 0, 0, 8, 0, 0, 0]);

suc = [
   {2, 3, 4},
   {16, 9, 33},
   {5, 6, 23},
   {17, 28, 13},
   {42, 19, 7},
   {8, 18, 32},
   {20, 15},
   {27},
   {41, 10, 36},
   {24, 11, 12},
   {61, 53},
   {45, 14},
   {57, 22},
   {51},
   {82, 84, 21},
   {44},
   {83, 37, 31},
   {69},
   {66},
   {44, 45},
   {44},
   {25, 29, 30},
   {56},
   {49},
   {26, 54},
   {48},
   {74},
   {39},
   {34},
   {35, 38},
   {75, 50, 67},
   {52},
   {73, 43, 55},
   {59},
   {47},
   {58},
   {55},
   {40},
   {82, 85, 63},
   {56},
   {46, 79},
   {50},
   {68},
   {72, 65},
   {56, 51},
   {76},
   {70},
   {60},
   {87},
   {80, 78},
   {85},
   {81},
   {58},
   {83, 77},
   {61},
   {89},
   {58, 84},
   {62},
   {87, 71},
   {79},
   {70},
   {64},
   {78},
   {73, 68},
   {78},
   {90},
   {69},
   {71},
   {87},
   {71},
   {86},
   {74},
   {91, 77},
   {77},
   {86},
   {81},
   {80, 81},
   {88, 79},
   {90},
   {88},
   {90},
   {91},
   {84},
   {85, 86},
   {89},
   {88},
   {91},
   {89},
   {92},
   {92},
   {92},
   {  } ];

deadline = array2d(1..92, 1..3, [1, 0, 5, 2, 4, 2, 3, 5, 0, 6, 5, 3, 8, 1, 1, 10, 1, 3, 10, 1, 4, 11, 1, 2, 13, 1, 1, 15, 4, 5, 16, 1, 5, 23, 3, 4, 27, 4, 0, 32, 2, 2, 33, 1, 4, 37, 2, 4, 38, 1, 0, 40, 4, 2, 40, 2, 1, 42, 0, 0, 48, 5, 2, 49, 5, 5, 50, 2, 4, 52, 0, 3, 61, 5, 5, 65, 3, 3, 66, 4, 1, 68, 2, 4, 69, 0, 1, 69, 3, 5, 70, 0, 2, 73, 5, 5, 77, 4, 3, 83, 2, 2, 86, 5, 4, 88, 2, 4, 91, 2, 3, 91, 2, 4, 101, 2, 5, 103, 2, 5, 104, 5, 3, 106, 1, 5, 109, 0, 3, 111, 3, 2, 113, 4, 3, 113, 2, 5, 113, 3, 2, 117, 0, 5, 119, 4, 5, 120, 3, 4, 122, 2, 0, 124, 0, 0, 125, 5, 5, 127, 2, 1, 127, 3, 3, 135, 1, 2, 137, 0, 4, 137, 1, 5, 144, 1, 0, 147, 3, 5, 149, 4, 0, 152, 4, 0, 153, 2, 4, 154, 1, 4, 156, 3, 0, 158, 2, 0, 158, 1, 5, 160, 5, 3, 163, 1, 4, 166, 1, 2, 167, 3, 4, 168, 4, 5, 170, 1, 3, 171, 5, 2, 171, 4, 5, 178, 5, 0, 182, 4, 3, 183, 3, 1, 189, 2, 3, 190, 2, 1, 193, 2, 3, 194, 2, 3, 199, 5, 1, 201, 4, 1, 208, 1, 1, 208, 1, 5, 210, 3, 2, 211, 0, 2, 225, 3, 1, 226, 0, 4, 227, 3, 2, 228, 4, 1]);
