n_res = 4;
rc = [ 39, 42, 35, 25 ];
n_tasks = 92;
d = [0, 2, 8, 7, 10, 6, 7, 3, 3, 10, 7, 8, 7, 4, 3, 4, 9, 1, 1, 2, 7, 4, 9, 3, 1, 2, 1, 7, 7, 6, 1, 10, 8, 6, 10, 9, 8, 7, 2, 8, 4, 8, 10, 4, 4, 1, 4, 5, 5, 2, 7, 8, 9, 9, 2, 8, 3, 7, 1, 7, 1, 7, 2, 7, 6, 1, 10, 7, 8, 10, 2, 7, 5, 10, 7, 4, 3, 4, 5, 2, 10, 7, 10, 2, 5, 3, 4, 10, 4, 10, 8, 0];
rr = array2d(1..4, 1..92, [0, 5, 0, 0, 6, 0, 0, 0, 2, 0, 3, 4, 9, 0, 0, 4, 0, 4, 0, 0, 7, 4, 0, 0, 0, 5, 0, 0, 9, 6, 0, 9, 7, 0, 10, 0, 5, 10, 0, 3, 0, 0, 0, 6, 0, 0, 1, 0, 7, 8, 8, 2, 0, 9, 0, 6, 0, 4, 0, 5, 8, 7, 6, 8, 0, 0, 0, 6, 0, 1, 0, 9, 0, 10, 4, 0, 0, 0, 2, 5, 8, 0, 0, 0, 3, 1, 4, 7, 0, 0, 0, 0, 0, 0, 10, 0, 6, 4, 0, 4, 10, 0, 0, 1, 6, 9, 7, 0, 0, 8, 10, 9, 2, 9, 0, 0, 0, 0, 0, 7, 7, 8, 9, 6, 2, 6, 7, 2, 8, 0, 0, 9, 2, 0, 0, 7, 0, 0, 0, 6, 5, 0, 0, 8, 0, 0, 7, 7, 1, 10, 0, 0, 7, 3, 6, 0, 8, 4, 1, 0, 6, 10, 0, 5, 9, 1, 0, 0, 0, 6, 0, 7, 7, 1, 5, 0, 10, 0, 1, 0, 0, 3, 0, 0, 0, 0, 1, 0, 0, 0, 8, 0, 0, 0, 0, 0, 1, 0, 5, 5, 0, 3, 8, 0, 0, 1, 2, 9, 8, 0, 9, 5, 0, 5, 1, 8, 8, 2, 0, 0, 6, 7, 0, 4, 1, 7, 4, 0, 8, 0, 8, 10, 0, 0, 0, 0, 0, 0, 0, 0, 0, 1, 10, 9, 0, 0, 5, 0, 1, 4, 0, 0, 2, 7, 5, 7, 5, 0, 0, 10, 10, 10, 0, 0, 0, 0, 6, 0, 0, 0, 0, 0, 0, 0, 1, 0, 0, 0, 0, 7, 0, 0, 0, 8, 0, 1, 6, 0, 4, 3, 0, 10, 2, 0, 0, 0, 0, 0, 0, 0, 0, 0, 0, 2, 0, 2, 9, 9, 4, 0, 0, 0, 7, 0, 7, 4, 0, 0, 0, 0, 8, 2, 0, 1, 1, 0, 1, 0, 2, 0, 0, 1, 0, 5, 0, 9, 1, 0, 0, 0, 0, 0, 0, 0, 7, 0, 9, 0, 6, 0, 4, 0, 4, 6, 9, 0, 0, 5, 0, 8, 5, 9, 0, 0, 4, 10, 9, 0]);

suc = [
   {2, 3, 4},
   {16, 6, 7},
   {8, 17, 5},
   {33, 59, 71},
   {34, 85, 14},
   {9, 27, 12},
   {21, 28, 13},
   {24, 10, 11},
   {48, 18, 36},
   {48, 20, 79},
   {19, 52, 76},
   {44, 60, 15},
   {50, 38},
   {32, 36, 38},
   {40, 42},
   {58, 53, 22},
   {26},
   {43, 31},
   {56, 26, 23},
   {32, 34, 39},
   {25, 54, 31},
   {44, 38, 60},
   {43, 35, 47},
   {42, 68, 29},
   {89, 63},
   {40, 54, 47},
   {70, 30, 47},
   {57, 53, 55},
   {56, 75},
   {62, 41, 46},
   {74, 69},
   {56, 64},
   {40, 50},
   {78, 58, 54},
   {61, 59, 37},
   {43, 63, 55},
   {66, 79},
   {65, 52},
   {42, 45},
   {67, 62},
   {49, 63, 57},
   {81, 58, 77},
   {64, 82},
   {49, 59, 45},
   {80, 51, 62},
   {49, 82},
   {48, 82, 85},
   {81, 75},
   {75, 69, 71},
   {69, 52, 53},
   {76},
   {73},
   {88, 86},
   {70, 87},
   {66, 61},
   {65, 57, 80},
   {60},
   {65, 61},
   {77},
   {67},
   {73, 70, 71},
   {72, 78},
   {64, 66, 76},
   {67, 68},
   {87},
   {74, 68},
   {84},
   {73, 84},
   {83, 79},
   {72, 80},
   {72, 87},
   {74},
   {88},
   {86},
   {83, 77, 86},
   {84, 78},
   {91},
   {81},
   {85},
   {89},
   {90},
   {83},
   {89},
   {88},
   {91},
   {90},
   {90},
   {91},
   {92},
   {92},
   {92},
   {  } ];

deadline = array2d(1..92, 1..3, [2, 5, 4, 4, 4, 4, 12, 1, 1, 16, 3, 2, 17, 3, 1, 20, 1, 4, 20, 3, 5, 24, 4, 1, 27, 5, 5, 30, 5, 4, 32, 4, 3, 38, 4, 1, 39, 2, 0, 40, 4, 2, 41, 1, 4, 43, 3, 2, 49, 3, 5, 54, 2, 0, 57, 1, 1, 58, 4, 1, 59, 1, 5, 59, 4, 2, 61, 2, 4, 61, 2, 3, 61, 4, 0, 62, 3, 5, 78, 4, 5, 86, 4, 3, 90, 1, 1, 93, 2, 2, 93, 4, 0, 94, 3, 4, 96, 3, 0, 97, 0, 3, 101, 2, 0, 102, 0, 5, 104, 4, 3, 105, 0, 4, 106, 3, 4, 107, 3, 1, 109, 3, 5, 110, 3, 2, 110, 4, 3, 110, 1, 5, 112, 5, 4, 114, 2, 4, 117, 0, 4, 117, 4, 4, 118, 5, 5, 124, 0, 4, 125, 2, 3, 125, 2, 5, 126, 0, 3, 126, 3, 0, 130, 1, 0, 131, 5, 3, 134, 3, 5, 134, 2, 2, 137, 0, 3, 137, 2, 1, 141, 4, 4, 141, 2, 0, 142, 3, 2, 145, 5, 3, 146, 2, 4, 148, 4, 2, 149, 5, 1, 149, 3, 5, 154, 3, 2, 155, 3, 2, 155, 0, 4, 159, 4, 4, 164, 5, 0, 169, 4, 2, 169, 2, 1, 172, 5, 0, 175, 4, 1, 176, 4, 1, 179, 0, 3, 180, 4, 1, 183, 2, 2, 184, 0, 0, 184, 4, 5, 185, 3, 5, 191, 3, 0, 193, 2, 2, 193, 4, 0, 194, 4, 1, 197, 2, 0, 197, 5, 5, 198, 1, 2, 202, 0, 5]);
