n_res = 4;
rc = [ 31, 24, 39, 17 ];
n_tasks = 92;
d = [0, 2, 10, 3, 3, 6, 4, 8, 7, 6, 9, 1, 2, 6, 5, 4, 6, 1, 10, 6, 2, 5, 1, 8, 7, 7, 6, 7, 7, 4, 6, 4, 2, 8, 10, 9, 9, 6, 1, 3, 1, 9, 1, 1, 9, 3, 5, 9, 9, 2, 10, 8, 10, 6, 5, 1, 6, 9, 10, 6, 4, 7, 9, 6, 4, 4, 4, 7, 3, 10, 10, 8, 10, 9, 9, 1, 6, 1, 1, 6, 2, 9, 1, 8, 8, 10, 8, 1, 4, 2, 3, 0];
rr = array2d(1..4, 1..92, [0, 0, 0, 7, 0, 0, 0, 0, 0, 0, 0, 10, 0, 0, 0, 0, 0, 0, 9, 0, 0, 5, 0, 0, 0, 0, 0, 0, 0, 0, 0, 0, 0, 5, 0, 5, 0, 10, 0, 0, 0, 5, 0, 0, 0, 0, 0, 0, 0, 6, 0, 0, 0, 0, 0, 2, 6, 0, 0, 0, 0, 0, 0, 0, 7, 0, 0, 5, 0, 0, 0, 0, 0, 0, 0, 0, 0, 0, 10, 0, 0, 0, 6, 0, 9, 0, 0, 0, 0, 0, 0, 0, 0, 4, 0, 0, 7, 0, 0, 0, 0, 0, 0, 0, 0, 9, 0, 0, 0, 9, 0, 0, 0, 0, 0, 4, 3, 0, 0, 0, 10, 0, 0, 0, 10, 0, 0, 0, 3, 0, 0, 0, 8, 0, 7, 0, 7, 0, 0, 0, 0, 0, 0, 0, 0, 6, 0, 0, 0, 3, 0, 0, 0, 0, 0, 7, 0, 7, 0, 0, 2, 10, 0, 0, 0, 8, 0, 3, 0, 0, 0, 6, 4, 3, 0, 8, 0, 0, 8, 0, 3, 0, 4, 0, 0, 0, 5, 0, 0, 5, 7, 10, 8, 10, 3, 0, 7, 0, 9, 9, 0, 0, 0, 10, 3, 0, 5, 0, 0, 3, 5, 5, 0, 0, 0, 0, 0, 0, 9, 0, 0, 0, 0, 6, 0, 0, 0, 7, 0, 4, 9, 0, 2, 0, 10, 4, 0, 0, 7, 0, 0, 0, 0, 8, 7, 0, 10, 0, 0, 0, 2, 0, 0, 0, 3, 0, 0, 0, 2, 0, 7, 0, 0, 0, 0, 0, 0, 0, 0, 0, 0, 3, 0, 0, 0, 0, 0, 0, 0, 0, 0, 0, 0, 0, 0, 0, 0, 0, 0, 0, 0, 0, 3, 0, 0, 0, 0, 0, 0, 0, 0, 0, 0, 0, 0, 10, 6, 4, 0, 0, 0, 0, 0, 0, 5, 0, 0, 0, 0, 0, 0, 0, 0, 7, 0, 0, 0, 0, 6, 0, 0, 0, 0, 0, 9, 0, 0, 2, 0, 0, 0, 0, 0, 0, 0, 0, 0, 4, 6, 0, 0, 0, 0, 9, 0, 0, 0, 0, 0, 0, 0, 4, 0, 0, 0, 9, 0, 0]);

suc = [
   {2, 3, 4},
   {34, 42, 7},
   {14, 6, 7},
   {8, 11, 5},
   {10, 61},
   {24, 17, 22},
   {16, 9, 15},
   {45, 20, 13},
   {28, 68, 47},
   {35, 12},
   {44, 29, 31},
   {33, 20, 86},
   {34, 51},
   {27},
   {24, 40, 19},
   {18, 38},
   {32, 21, 39},
   {80, 65, 26},
   {65, 25, 23},
   {50, 36, 29},
   {48, 44, 30},
   {49, 43, 60},
   {41},
   {58},
   {57, 66, 55},
   {32, 83},
   {85, 53, 46},
   {75, 52, 61},
   {47},
   {35},
   {89},
   {90, 37},
   {76},
   {69},
   {67, 45},
   {48, 42, 72},
   {72, 41, 67},
   {53},
   {43, 63},
   {68},
   {75},
   {65, 59},
   {70},
   {62},
   {73, 52, 63},
   {84},
   {56, 73, 81},
   {58, 54},
   {80},
   {64},
   {81, 52, 84},
   {79},
   {61},
   {60, 85},
   {64, 62},
   {87},
   {86, 77, 78},
   {60, 69},
   {87},
   {66, 84},
   {79},
   {86},
   {64, 88},
   {68, 71},
   {91, 75, 71},
   {77},
   {74, 69, 71},
   {83},
   {82},
   {80, 81, 85},
   {78},
   {76, 79},
   {74},
   {76},
   {78},
   {77},
   {88},
   {89},
   {82},
   {83},
   {82},
   {88},
   {89},
   {87},
   {91},
   {90},
   {90},
   {91},
   {92},
   {92},
   {92},
   {  } ];

deadline = array2d(1..92, 1..3, [3, 1, 3, 10, 2, 2, 21, 3, 5, 21, 1, 4, 23, 3, 2, 23, 1, 2, 29, 4, 5, 32, 5, 4, 37, 0, 1, 38, 4, 1, 40, 4, 1, 40, 5, 2, 41, 5, 0, 43, 0, 5, 48, 3, 2, 54, 0, 2, 54, 3, 0, 59, 5, 0, 63, 3, 5, 64, 0, 2, 66, 3, 2, 67, 5, 4, 74, 5, 4, 77, 3, 5, 78, 5, 5, 79, 5, 3, 82, 5, 4, 82, 2, 2, 84, 5, 4, 87, 0, 1, 87, 1, 2, 89, 3, 1, 91, 0, 4, 91, 5, 3, 92, 1, 4, 92, 3, 0, 94, 0, 3, 96, 2, 5, 98, 4, 5, 99, 3, 3, 99, 4, 1, 101, 1, 4, 106, 2, 5, 106, 4, 2, 107, 2, 3, 108, 3, 3, 109, 1, 3, 111, 2, 0, 111, 2, 3, 111, 4, 5, 113, 2, 5, 114, 1, 3, 115, 4, 1, 115, 4, 2, 116, 0, 3, 119, 2, 0, 120, 5, 4, 121, 5, 4, 122, 0, 2, 123, 3, 5, 124, 2, 4, 126, 4, 0, 127, 0, 1, 128, 5, 3, 130, 3, 5, 135, 1, 3, 137, 2, 0, 138, 3, 5, 139, 3, 2, 142, 0, 3, 146, 5, 3, 150, 2, 0, 150, 4, 0, 152, 2, 4, 155, 4, 3, 156, 0, 2, 164, 3, 5, 164, 0, 1, 166, 1, 0, 171, 3, 2, 172, 4, 1, 175, 1, 3, 176, 1, 2, 178, 1, 4, 178, 3, 4, 179, 0, 4, 179, 4, 4, 182, 5, 4, 188, 4, 4, 188, 1, 0, 188, 3, 2, 192, 3, 1]);
