n_res = 4;
rc = [ 36, 31, 33, 30 ];
n_tasks = 92;
d = [0, 4, 2, 9, 3, 7, 7, 3, 8, 7, 7, 4, 7, 10, 5, 8, 8, 10, 6, 10, 4, 9, 8, 6, 8, 8, 6, 4, 3, 4, 5, 6, 1, 1, 2, 9, 3, 2, 4, 4, 4, 9, 10, 3, 8, 8, 4, 5, 10, 9, 2, 3, 8, 1, 7, 10, 10, 3, 2, 4, 3, 6, 3, 3, 2, 6, 4, 1, 2, 3, 1, 4, 10, 9, 3, 3, 6, 1, 6, 6, 6, 9, 9, 10, 6, 3, 6, 5, 3, 1, 6, 0];
rr = array2d(1..4, 1..92, [0, 4, 1, 6, 4, 0, 7, 7, 3, 0, 9, 10, 10, 5, 5, 4, 4, 4, 6, 2, 3, 10, 3, 6, 4, 1, 0, 0, 2, 10, 6, 1, 1, 10, 10, 5, 10, 5, 1, 5, 5, 3, 5, 10, 10, 4, 0, 9, 3, 0, 2, 7, 5, 3, 7, 3, 4, 6, 9, 2, 8, 4, 5, 0, 9, 0, 4, 0, 9, 2, 3, 0, 8, 4, 5, 2, 8, 0, 8, 0, 0, 0, 8, 3, 0, 4, 3, 1, 5, 10, 5, 0, 0, 0, 8, 6, 9, 1, 7, 9, 2, 0, 4, 0, 6, 5, 8, 0, 9, 0, 0, 0, 0, 7, 3, 0, 6, 5, 0, 9, 4, 2, 8, 1, 0, 2, 0, 7, 0, 6, 2, 9, 0, 3, 7, 0, 1, 0, 7, 0, 6, 0, 5, 10, 0, 0, 4, 2, 10, 8, 4, 0, 1, 1, 2, 6, 6, 4, 8, 6, 0, 6, 1, 2, 2, 2, 7, 10, 8, 0, 0, 1, 10, 4, 3, 3, 0, 0, 1, 7, 3, 1, 2, 0, 0, 10, 10, 3, 0, 0, 10, 0, 0, 8, 0, 3, 5, 5, 6, 4, 8, 6, 2, 0, 4, 7, 3, 4, 3, 2, 9, 0, 2, 0, 4, 10, 6, 0, 9, 5, 9, 5, 3, 4, 1, 0, 0, 8, 3, 4, 9, 3, 10, 7, 5, 8, 0, 6, 5, 9, 0, 8, 0, 0, 9, 0, 7, 3, 9, 1, 9, 0, 5, 6, 0, 2, 1, 0, 0, 2, 3, 2, 0, 0, 1, 0, 5, 7, 2, 2, 4, 7, 6, 5, 7, 0, 0, 0, 2, 2, 8, 5, 0, 1, 9, 6, 4, 1, 4, 3, 3, 2, 2, 0, 10, 1, 4, 0, 2, 0, 5, 9, 8, 6, 6, 7, 0, 3, 9, 9, 0, 0, 4, 4, 10, 4, 0, 5, 7, 1, 9, 0, 3, 0, 0, 3, 0, 9, 1, 9, 0, 8, 2, 4, 9, 4, 0, 10, 0, 6, 10, 7, 0, 0, 7, 0, 0, 0, 0, 10, 4, 4, 5, 8, 1, 0, 7, 3, 2, 0, 6, 5, 6, 3, 5, 8, 0, 0]);

suc = [
   {2, 3, 4},
   {40},
   {8, 26, 15},
   {10, 5, 6},
   {12, 21, 7},
   {33, 19},
   {9, 20, 13},
   {79},
   {30},
   {17, 11, 41},
   {28, 14},
   {32, 25, 35},
   {16, 25, 18},
   {22, 23},
   {33, 21},
   {65, 49, 75},
   {53},
   {24},
   {43, 45},
   {52},
   {51, 78},
   {73, 27, 29},
   {56},
   {49, 31},
   {48, 34, 44},
   {42},
   {89},
   {40},
   {38},
   {75, 47, 39},
   {44},
   {73, 50, 70},
   {76},
   {83},
   {36, 37},
   {43},
   {83, 69, 87},
   {67, 59, 55},
   {63},
   {46},
   {52, 45},
   {57},
   {81, 61},
   {91},
   {64},
   {57},
   {84},
   {68},
   {72, 58, 63},
   {60, 76},
   {66},
   {54},
   {56},
   {79},
   {71},
   {72},
   {74, 77},
   {71},
   {85},
   {62},
   {69},
   {80},
   {82},
   {72},
   {90},
   {73},
   {79},
   {91},
   {76},
   {75, 77},
   {82},
   {82, 86, 87},
   {80},
   {85},
   {80},
   {88},
   {78},
   {84},
   {88},
   {89},
   {83},
   {90},
   {88},
   {85},
   {86},
   {91},
   {89},
   {90},
   {92},
   {92},
   {92},
   {  } ];

deadline = array2d(1..92, 1..3, [1, 3, 4, 1, 5, 1, 5, 4, 2, 7, 4, 2, 9, 5, 4, 17, 2, 5, 19, 2, 4, 22, 5, 5, 22, 4, 1, 23, 5, 2, 23, 1, 3, 24, 5, 4, 26, 0, 0, 27, 2, 0, 33, 2, 4, 36, 4, 1, 38, 4, 3, 38, 0, 4, 41, 3, 1, 45, 1, 4, 48, 0, 2, 52, 5, 3, 52, 3, 0, 52, 5, 2, 53, 0, 5, 54, 0, 1, 57, 5, 1, 57, 5, 1, 58, 2, 0, 58, 2, 4, 59, 2, 1, 59, 0, 0, 60, 3, 5, 60, 4, 5, 66, 0, 3, 68, 2, 3, 71, 4, 5, 72, 2, 4, 73, 1, 5, 76, 3, 5, 77, 2, 2, 77, 4, 3, 79, 2, 4, 80, 4, 2, 83, 4, 4, 85, 1, 4, 91, 0, 2, 92, 3, 4, 96, 3, 4, 98, 5, 1, 99, 3, 0, 103, 5, 3, 105, 2, 3, 111, 3, 1, 111, 3, 1, 117, 2, 0, 118, 5, 0, 121, 2, 2, 127, 2, 0, 127, 5, 5, 134, 4, 3, 135, 3, 4, 138, 1, 5, 142, 5, 4, 142, 4, 0, 143, 1, 4, 145, 1, 5, 145, 5, 5, 148, 4, 2, 148, 4, 0, 150, 0, 3, 159, 5, 2, 160, 2, 1, 160, 0, 5, 161, 3, 1, 162, 3, 1, 164, 0, 1, 165, 0, 0, 168, 2, 5, 172, 1, 4, 174, 4, 3, 174, 1, 4, 174, 3, 2, 175, 0, 1, 176, 1, 5, 177, 5, 0, 182, 0, 1, 183, 1, 3, 184, 0, 5, 195, 3, 4, 201, 1, 3, 202, 3, 4]);
