n_res = 4;
rc = [ 45, 45, 46, 43 ];
n_tasks = 92;
d = [0, 6, 9, 1, 7, 10, 4, 2, 1, 5, 2, 4, 7, 9, 8, 2, 9, 1, 10, 1, 6, 9, 7, 5, 6, 4, 1, 9, 5, 5, 8, 4, 6, 8, 8, 2, 1, 4, 8, 2, 5, 9, 1, 4, 7, 3, 5, 4, 10, 7, 2, 4, 3, 2, 6, 2, 6, 1, 7, 10, 3, 3, 5, 6, 1, 6, 10, 4, 7, 3, 5, 3, 7, 10, 6, 5, 5, 7, 2, 9, 5, 3, 5, 8, 10, 4, 3, 3, 4, 9, 8, 0];
rr = array2d(1..4, 1..92, [0, 7, 1, 6, 2, 10, 8, 2, 7, 3, 7, 8, 8, 8, 3, 5, 2, 7, 8, 1, 6, 7, 10, 8, 1, 1, 2, 1, 2, 4, 10, 6, 4, 4, 7, 5, 3, 1, 2, 3, 2, 5, 10, 10, 2, 10, 4, 9, 5, 4, 5, 5, 1, 3, 5, 3, 3, 4, 5, 7, 9, 8, 8, 2, 9, 8, 10, 6, 9, 10, 6, 8, 6, 9, 10, 5, 3, 5, 4, 8, 5, 10, 5, 6, 9, 4, 1, 10, 8, 4, 4, 0, 0, 2, 5, 4, 8, 7, 8, 10, 9, 2, 2, 5, 1, 6, 2, 10, 2, 7, 10, 5, 1, 7, 4, 1, 1, 3, 10, 1, 2, 10, 1, 2, 10, 1, 3, 3, 5, 4, 5, 7, 2, 10, 1, 3, 3, 4, 1, 6, 7, 3, 4, 4, 8, 10, 6, 3, 10, 5, 7, 6, 9, 6, 1, 6, 6, 9, 2, 1, 4, 8, 9, 9, 1, 6, 3, 3, 1, 3, 4, 3, 6, 10, 3, 2, 10, 8, 4, 3, 6, 9, 1, 0, 0, 5, 10, 1, 10, 8, 2, 9, 4, 10, 10, 7, 2, 5, 1, 7, 5, 9, 3, 7, 7, 8, 1, 6, 5, 2, 5, 5, 2, 2, 9, 1, 10, 8, 3, 7, 3, 3, 7, 8, 2, 4, 9, 6, 10, 8, 2, 3, 7, 6, 8, 9, 7, 3, 7, 3, 8, 1, 5, 5, 4, 2, 6, 5, 2, 9, 8, 2, 4, 8, 2, 6, 5, 5, 3, 3, 9, 2, 5, 2, 1, 6, 7, 3, 2, 1, 5, 3, 8, 5, 2, 0, 0, 2, 7, 2, 10, 7, 4, 7, 9, 4, 10, 2, 6, 10, 2, 6, 5, 1, 8, 7, 4, 2, 3, 6, 4, 3, 7, 5, 4, 9, 3, 4, 7, 8, 8, 1, 6, 9, 3, 4, 5, 8, 5, 9, 2, 3, 10, 1, 3, 5, 9, 1, 6, 10, 3, 8, 1, 9, 6, 7, 7, 5, 3, 2, 10, 7, 2, 5, 3, 4, 1, 6, 9, 5, 6, 7, 2, 3, 1, 3, 10, 2, 6, 4, 4, 1, 5, 8, 3, 6, 10, 0]);

suc = [
   {2, 3, 4},
   {17, 21, 7},
   {8, 19},
   {9, 5, 6},
   {82, 67, 61},
   {10, 52},
   {16, 56},
   {64, 18, 29},
   {11, 13, 15},
   {27, 12, 53},
   {64, 75, 14},
   {40, 20},
   {24},
   {33},
   {28},
   {86, 36, 78},
   {26, 22, 23},
   {72, 62},
   {42, 52, 45},
   {44, 30},
   {65, 68},
   {36},
   {25, 60, 46},
   {78},
   {81, 41, 37},
   {35},
   {55},
   {89},
   {34, 31},
   {48, 58, 69},
   {32, 38},
   {44},
   {74},
   {59},
   {39},
   {64, 53},
   {63},
   {69},
   {73, 66, 43},
   {80, 47},
   {49},
   {59},
   {57},
   {76, 85, 84},
   {79},
   {79},
   {49, 54},
   {50, 51},
   {77},
   {72},
   {66},
   {59},
   {91},
   {67},
   {71},
   {86},
   {68},
   {62},
   {65},
   {91},
   {80},
   {82},
   {89, 67, 70},
   {76},
   {87},
   {70},
   {84},
   {87},
   {73},
   {82},
   {87},
   {74},
   {86},
   {78},
   {91},
   {77},
   {89},
   {85},
   {81},
   {83},
   {84},
   {85},
   {90},
   {88},
   {88},
   {88},
   {90},
   {90},
   {92},
   {92},
   {92},
   {  } ];

deadline = array2d(1..92, 1..3, [1, 0, 5, 2, 2, 3, 2, 1, 2, 5, 5, 4, 7, 0, 1, 8, 0, 5, 9, 1, 5, 12, 4, 4, 12, 3, 2, 14, 0, 1, 18, 1, 4, 19, 2, 4, 23, 3, 1, 24, 4, 1, 26, 3, 2, 26, 2, 3, 29, 3, 5, 30, 2, 5, 35, 2, 3, 37, 5, 1, 37, 1, 5, 40, 5, 5, 45, 0, 1, 45, 0, 3, 51, 5, 0, 53, 2, 2, 54, 5, 2, 54, 2, 2, 54, 0, 4, 54, 4, 0, 56, 4, 0, 57, 4, 2, 58, 0, 0, 59, 3, 3, 59, 0, 0, 60, 4, 3, 62, 2, 4, 68, 1, 4, 76, 0, 1, 77, 4, 3, 77, 0, 4, 86, 0, 3, 92, 1, 0, 93, 1, 2, 98, 3, 4, 102, 2, 1, 104, 0, 1, 105, 2, 3, 107, 1, 5, 108, 5, 3, 108, 0, 5, 108, 3, 0, 109, 5, 2, 109, 1, 3, 110, 5, 1, 113, 4, 4, 114, 5, 4, 119, 2, 3, 123, 5, 5, 124, 1, 1, 125, 5, 4, 125, 4, 2, 129, 4, 1, 131, 2, 2, 135, 2, 0, 136, 5, 0, 138, 5, 3, 141, 5, 3, 141, 3, 1, 143, 0, 4, 145, 2, 2, 147, 1, 2, 150, 4, 1, 153, 1, 0, 153, 3, 5, 155, 4, 1, 157, 0, 4, 161, 0, 2, 162, 0, 5, 163, 4, 1, 163, 0, 0, 163, 5, 3, 165, 5, 1, 172, 0, 3, 172, 4, 5, 174, 0, 1, 174, 3, 3, 175, 4, 0, 181, 5, 4, 187, 2, 1, 187, 2, 5, 188, 2, 0]);
