n_res = 4;
rc = [ 21, 15, 23, 27 ];
n_tasks = 92;
d = [0, 4, 5, 3, 5, 4, 9, 10, 1, 1, 6, 4, 1, 7, 5, 2, 5, 7, 6, 10, 10, 1, 5, 3, 7, 2, 7, 1, 3, 6, 4, 9, 5, 7, 1, 2, 10, 2, 5, 6, 9, 8, 6, 3, 10, 7, 5, 10, 8, 2, 1, 3, 4, 4, 5, 7, 4, 7, 3, 4, 6, 1, 4, 2, 4, 6, 5, 6, 7, 9, 10, 8, 4, 8, 10, 1, 3, 9, 7, 10, 8, 8, 9, 10, 1, 5, 8, 2, 7, 7, 6, 0];
rr = array2d(1..4, 1..92, [0, 0, 0, 0, 0, 0, 0, 0, 0, 0, 0, 3, 0, 0, 10, 2, 0, 0, 0, 0, 0, 0, 0, 2, 0, 6, 10, 0, 0, 0, 0, 5, 0, 0, 2, 0, 2, 0, 0, 0, 0, 3, 0, 0, 0, 0, 9, 0, 0, 0, 0, 0, 10, 1, 0, 0, 7, 7, 0, 0, 0, 2, 6, 0, 0, 0, 0, 0, 0, 9, 0, 8, 0, 0, 0, 0, 0, 0, 2, 7, 0, 0, 0, 0, 0, 0, 0, 0, 7, 0, 0, 0, 0, 0, 0, 0, 3, 0, 10, 0, 7, 0, 0, 0, 0, 0, 0, 0, 0, 0, 2, 0, 0, 0, 0, 0, 0, 0, 0, 0, 0, 0, 0, 0, 0, 0, 0, 9, 0, 5, 0, 0, 0, 0, 3, 0, 6, 0, 0, 0, 0, 1, 10, 0, 0, 0, 0, 0, 0, 0, 0, 0, 0, 0, 0, 4, 0, 6, 0, 0, 0, 0, 0, 0, 0, 0, 0, 0, 0, 0, 0, 0, 0, 0, 0, 7, 0, 5, 5, 5, 0, 0, 0, 0, 0, 0, 6, 7, 0, 0, 0, 0, 0, 0, 0, 0, 8, 0, 0, 0, 9, 0, 0, 0, 0, 4, 6, 0, 6, 0, 0, 10, 5, 5, 0, 0, 7, 5, 0, 0, 0, 0, 0, 0, 3, 0, 0, 1, 0, 1, 0, 0, 0, 0, 0, 0, 0, 0, 0, 1, 0, 0, 7, 0, 5, 0, 0, 0, 6, 0, 6, 0, 6, 0, 0, 0, 0, 9, 8, 0, 8, 7, 0, 0, 4, 0, 5, 0, 0, 0, 0, 0, 0, 0, 6, 0, 0, 5, 0, 0, 0, 8, 0, 4, 0, 2, 5, 0, 0, 2, 0, 0, 0, 10, 0, 10, 3, 0, 0, 0, 0, 0, 0, 0, 0, 0, 7, 0, 0, 0, 0, 0, 0, 0, 3, 2, 0, 0, 0, 0, 0, 0, 0, 10, 7, 0, 0, 7, 0, 0, 6, 0, 0, 0, 0, 3, 0, 0, 0, 0, 0, 0, 0, 9, 0, 0, 3, 0, 2, 0, 0, 6, 0, 0, 0, 0, 0, 8, 0, 0, 3, 0, 0, 0, 0, 2, 0, 0]);

suc = [
   {2, 3, 4},
   {8, 48, 7},
   {65, 60, 23},
   {9, 10, 5},
   {13, 6, 14},
   {20, 70},
   {25, 43, 12},
   {52, 55, 15},
   {61, 11, 37},
   {24, 34, 22},
   {17, 19, 68},
   {26, 53, 21},
   {16, 40, 43},
   {18, 60},
   {40, 38},
   {55, 54, 31},
   {56, 30, 47},
   {27, 30, 39},
   {32, 36, 69},
   {42, 69},
   {42, 31},
   {26, 28},
   {64, 25, 68},
   {66, 45, 29},
   {58, 35, 36},
   {57},
   {41, 82, 44},
   {33, 38},
   {40, 56, 38},
   {80, 41, 31},
   {88, 57, 62},
   {72},
   {49, 61},
   {83, 36},
   {44, 71, 47},
   {70},
   {48, 66, 53},
   {49, 54},
   {63},
   {78, 61, 62},
   {46},
   {59, 50, 51},
   {46, 63},
   {80, 46},
   {50, 60, 47},
   {49, 59, 62},
   {67, 51},
   {50, 54},
   {73, 67, 51},
   {56, 76, 55},
   {83, 75},
   {64, 67, 63},
   {64, 59, 71},
   {65, 91},
   {65, 91},
   {89, 82, 87},
   {72, 58, 66},
   {81, 76, 78},
   {76},
   {68, 69},
   {80, 75},
   {84},
   {81, 85, 77},
   {73, 79},
   {81, 75},
   {79},
   {77},
   {72, 70},
   {74, 71},
   {73},
   {84, 86},
   {74, 82},
   {88, 74, 78},
   {77, 86},
   {88},
   {79},
   {84},
   {86},
   {83},
   {85},
   {90},
   {90},
   {85},
   {90, 87},
   {87},
   {89},
   {91},
   {89},
   {92},
   {92},
   {92},
   {  } ];

deadline = array2d(1..92, 1..3, [1, 5, 0, 4, 2, 0, 4, 4, 3, 6, 0, 1, 9, 2, 0, 10, 3, 0, 15, 0, 5, 17, 5, 4, 21, 4, 2, 22, 4, 2, 24, 3, 2, 28, 4, 1, 37, 1, 2, 40, 3, 2, 41, 1, 5, 41, 3, 4, 44, 0, 5, 45, 1, 0, 50, 2, 3, 56, 2, 3, 57, 4, 3, 59, 1, 1, 69, 0, 5, 71, 3, 3, 75, 2, 1, 75, 5, 0, 76, 4, 2, 78, 5, 4, 78, 2, 5, 81, 2, 3, 83, 3, 2, 86, 5, 1, 95, 1, 3, 99, 5, 2, 100, 1, 0, 106, 3, 0, 106, 2, 1, 108, 5, 4, 109, 4, 5, 111, 3, 0, 112, 3, 5, 116, 4, 2, 117, 0, 2, 124, 2, 5, 124, 2, 2, 125, 5, 3, 134, 2, 2, 136, 0, 1, 138, 1, 1, 138, 5, 0, 139, 5, 2, 143, 4, 1, 143, 5, 3, 145, 0, 3, 148, 4, 1, 149, 1, 0, 149, 1, 1, 150, 2, 0, 151, 4, 0, 152, 2, 3, 153, 0, 1, 154, 3, 2, 155, 5, 1, 161, 1, 3, 162, 3, 5, 164, 5, 5, 165, 0, 0, 171, 0, 2, 171, 2, 0, 173, 0, 1, 177, 3, 4, 177, 0, 4, 178, 1, 4, 181, 4, 4, 182, 1, 3, 184, 1, 0, 184, 2, 0, 185, 0, 1, 187, 2, 1, 188, 3, 2, 190, 4, 0, 194, 4, 3, 195, 4, 3, 202, 5, 1, 202, 1, 5, 203, 1, 1, 204, 5, 1, 205, 4, 4, 213, 1, 5, 221, 5, 0, 229, 1, 2, 230, 5, 5]);
