n_res = 4;
rc = [ 62, 61, 58, 66 ];
n_tasks = 92;
d = [0, 8, 2, 2, 2, 2, 5, 6, 6, 6, 6, 8, 5, 8, 5, 7, 10, 8, 6, 1, 3, 5, 9, 1, 5, 10, 9, 3, 7, 8, 2, 5, 7, 9, 5, 5, 1, 9, 5, 9, 9, 4, 5, 9, 7, 3, 2, 4, 8, 5, 8, 7, 4, 10, 10, 10, 6, 7, 7, 2, 2, 5, 2, 10, 2, 6, 10, 6, 8, 3, 5, 4, 4, 5, 1, 4, 5, 4, 4, 6, 3, 4, 7, 3, 9, 1, 1, 1, 3, 2, 8, 0];
rr = array2d(1..4, 1..92, [0, 2, 10, 9, 3, 5, 4, 5, 3, 7, 9, 9, 4, 3, 1, 1, 7, 9, 6, 5, 3, 9, 8, 1, 5, 5, 10, 5, 5, 3, 5, 1, 4, 4, 8, 9, 5, 7, 8, 2, 7, 8, 8, 2, 9, 2, 8, 2, 5, 7, 10, 5, 3, 6, 7, 2, 4, 6, 6, 2, 6, 3, 5, 6, 8, 2, 7, 1, 7, 3, 4, 6, 8, 10, 5, 1, 10, 5, 10, 3, 6, 1, 8, 6, 5, 8, 9, 6, 4, 8, 8, 0, 0, 6, 7, 8, 6, 8, 7, 6, 1, 6, 4, 8, 1, 5, 2, 4, 4, 2, 7, 5, 9, 1, 3, 8, 3, 3, 2, 5, 10, 2, 3, 8, 8, 4, 10, 1, 6, 6, 10, 2, 9, 7, 6, 7, 3, 5, 10, 7, 6, 1, 3, 10, 9, 10, 8, 7, 2, 9, 10, 2, 5, 4, 2, 1, 6, 5, 1, 3, 6, 10, 9, 2, 6, 6, 1, 5, 2, 10, 2, 2, 9, 10, 10, 8, 10, 3, 4, 9, 10, 6, 1, 0, 0, 3, 5, 4, 1, 8, 5, 6, 6, 6, 1, 3, 5, 4, 8, 1, 5, 6, 8, 8, 6, 3, 3, 3, 4, 5, 5, 4, 10, 3, 3, 1, 2, 10, 5, 2, 1, 6, 2, 1, 6, 10, 1, 7, 9, 7, 10, 8, 8, 6, 7, 9, 4, 7, 8, 10, 3, 3, 7, 4, 6, 10, 1, 9, 4, 8, 2, 2, 4, 6, 8, 5, 7, 4, 5, 10, 1, 4, 7, 9, 7, 4, 3, 4, 4, 3, 5, 5, 3, 5, 2, 0, 0, 1, 10, 5, 8, 8, 7, 10, 7, 1, 8, 5, 3, 6, 9, 3, 9, 9, 1, 4, 10, 2, 6, 10, 1, 10, 4, 9, 1, 5, 7, 3, 7, 6, 5, 9, 9, 7, 3, 9, 2, 10, 7, 4, 4, 6, 10, 2, 6, 1, 6, 5, 10, 1, 1, 7, 10, 2, 1, 1, 1, 3, 6, 2, 5, 7, 5, 10, 9, 1, 7, 3, 5, 2, 9, 7, 4, 2, 3, 10, 7, 7, 4, 1, 5, 7, 5, 2, 5, 5, 1, 0]);

suc = [
   {2, 3, 4},
   {74, 6, 7},
   {18, 13, 6},
   {8, 5, 39},
   {48, 34, 82},
   {9, 11, 12},
   {25, 10, 23},
   {26, 76, 37},
   {59, 35, 15},
   {28, 14},
   {16, 19, 36},
   {17, 66, 25},
   {41, 42, 61},
   {16, 24, 20},
   {62, 58, 30},
   {57, 67, 22},
   {34, 27, 31},
   {21, 31},
   {50, 66, 47},
   {77, 29},
   {40, 29, 47},
   {32, 33, 43},
   {32, 45, 55},
   {32, 46, 79},
   {87, 86, 71},
   {67, 44, 52},
   {48, 28, 77},
   {35, 38, 47},
   {50, 60},
   {43, 37, 38},
   {48, 57, 37},
   {82, 52, 60},
   {60, 78, 76},
   {73},
   {43, 45, 46},
   {52, 69, 38},
   {69},
   {56},
   {64, 44, 46},
   {44},
   {51, 53, 79},
   {51, 84, 53},
   {88, 49},
   {77, 54, 63},
   {49, 50, 58},
   {56, 65, 55},
   {72, 59, 63},
   {69, 55},
   {56, 65},
   {75, 61},
   {64, 73, 54},
   {72, 91},
   {64},
   {90, 70},
   {67},
   {81, 63},
   {58, 59, 71},
   {75},
   {73, 65, 61},
   {62},
   {76},
   {66},
   {80, 83, 78},
   {68},
   {80, 81},
   {72, 71},
   {81},
   {70},
   {85, 79},
   {74},
   {91, 83},
   {89},
   {87},
   {75},
   {80, 78},
   {88, 84},
   {88},
   {85, 86},
   {91, 83},
   {82},
   {84},
   {86},
   {90},
   {85},
   {87},
   {89},
   {89},
   {90},
   {92},
   {92},
   {92},
   {  } ];

deadline = array2d(1..92, 1..3, [4, 5, 4, 5, 4, 3, 7, 4, 3, 8, 0, 2, 10, 2, 3, 11, 3, 5, 11, 3, 0, 17, 2, 3, 18, 3, 2, 19, 4, 4, 20, 0, 5, 21, 4, 0, 22, 0, 2, 23, 3, 1, 23, 3, 0, 26, 0, 1, 27, 2, 2, 28, 4, 3, 29, 4, 5, 31, 3, 3, 34, 2, 5, 36, 1, 3, 38, 2, 0, 42, 2, 2, 43, 0, 3, 43, 0, 3, 44, 1, 2, 49, 2, 1, 50, 2, 4, 55, 4, 2, 59, 5, 2, 59, 0, 5, 60, 3, 1, 60, 2, 5, 67, 3, 0, 67, 4, 3, 70, 2, 2, 71, 0, 5, 72, 0, 0, 85, 1, 1, 90, 5, 1, 94, 0, 4, 94, 5, 4, 96, 1, 3, 97, 2, 2, 98, 4, 3, 102, 4, 1, 102, 1, 4, 105, 5, 0, 107, 2, 4, 113, 3, 5, 115, 5, 5, 116, 3, 1, 117, 4, 3, 119, 2, 1, 123, 4, 3, 125, 5, 5, 125, 3, 2, 134, 5, 4, 136, 3, 3, 139, 0, 4, 144, 3, 4, 145, 4, 1, 147, 4, 1, 149, 1, 2, 152, 5, 4, 152, 0, 2, 164, 5, 5, 165, 1, 2, 165, 3, 3, 166, 0, 4, 168, 1, 4, 172, 3, 2, 173, 0, 1, 175, 3, 5, 175, 0, 4, 180, 1, 2, 180, 0, 2, 183, 2, 0, 188, 3, 0, 194, 0, 0, 199, 1, 5, 199, 3, 5, 202, 3, 0, 204, 0, 1, 208, 1, 1, 209, 4, 5, 214, 4, 1, 215, 4, 2, 217, 4, 4, 218, 0, 5, 222, 2, 5]);
