n_res = 4;
rc = [ 26, 29, 41, 50 ];
n_tasks = 92;
d = [0, 7, 2, 5, 2, 9, 9, 3, 8, 9, 10, 3, 2, 8, 4, 2, 7, 5, 1, 9, 1, 2, 6, 4, 3, 6, 9, 1, 6, 3, 4, 1, 9, 2, 8, 3, 1, 10, 9, 4, 8, 9, 4, 7, 2, 10, 2, 5, 9, 2, 9, 7, 5, 8, 4, 2, 1, 9, 5, 1, 6, 3, 3, 3, 1, 3, 7, 2, 8, 10, 1, 5, 6, 10, 10, 3, 8, 7, 4, 2, 8, 9, 3, 2, 1, 10, 4, 9, 9, 1, 6, 0];
rr = array2d(1..4, 1..92, [0, 7, 0, 2, 0, 0, 1, 1, 5, 2, 10, 0, 0, 0, 0, 1, 0, 0, 1, 0, 0, 0, 4, 0, 0, 0, 6, 7, 7, 0, 0, 8, 0, 7, 0, 3, 0, 0, 1, 0, 0, 0, 0, 0, 0, 0, 0, 0, 2, 4, 0, 0, 0, 4, 5, 0, 0, 0, 0, 10, 8, 0, 0, 10, 0, 5, 1, 0, 1, 5, 0, 8, 6, 5, 0, 0, 0, 8, 4, 0, 10, 0, 10, 6, 3, 4, 9, 7, 0, 0, 0, 0, 0, 10, 4, 4, 7, 8, 0, 2, 0, 8, 0, 10, 5, 8, 0, 0, 10, 2, 0, 6, 0, 0, 8, 10, 0, 0, 0, 2, 0, 0, 0, 0, 0, 8, 0, 0, 8, 4, 1, 0, 0, 7, 0, 0, 0, 0, 0, 0, 10, 5, 7, 0, 0, 4, 0, 0, 0, 0, 0, 0, 2, 0, 8, 9, 0, 4, 0, 6, 4, 7, 3, 0, 8, 0, 7, 8, 7, 1, 4, 3, 0, 0, 2, 0, 0, 6, 0, 2, 6, 4, 3, 0, 0, 4, 10, 0, 0, 5, 8, 0, 0, 0, 0, 3, 2, 7, 8, 0, 0, 0, 0, 4, 0, 7, 7, 0, 0, 5, 5, 0, 0, 7, 1, 0, 0, 0, 10, 10, 4, 0, 8, 3, 0, 6, 2, 5, 0, 10, 0, 0, 0, 0, 0, 4, 4, 7, 5, 9, 4, 0, 8, 0, 0, 1, 1, 8, 0, 5, 0, 0, 0, 0, 0, 0, 0, 0, 5, 0, 1, 0, 6, 0, 0, 0, 0, 0, 0, 0, 0, 0, 4, 6, 0, 0, 0, 0, 3, 0, 4, 7, 5, 10, 5, 7, 2, 2, 8, 9, 0, 7, 0, 0, 0, 3, 8, 6, 0, 0, 9, 0, 0, 0, 9, 3, 4, 0, 10, 9, 3, 0, 0, 3, 0, 9, 10, 0, 0, 6, 2, 0, 5, 5, 0, 4, 0, 0, 1, 0, 0, 10, 10, 5, 1, 0, 8, 0, 5, 2, 5, 0, 6, 9, 0, 0, 6, 1, 8, 0, 6, 9, 0, 0, 4, 0, 6, 5, 8, 0, 3, 5, 5, 0, 1, 9, 0, 0]);

suc = [
   {2, 3, 4},
   {50, 45, 7},
   {9, 10, 11},
   {8, 5, 6},
   {16, 36},
   {27, 28, 31},
   {63},
   {52},
   {20, 14},
   {17, 30},
   {12, 13, 15},
   {33},
   {34, 19, 22},
   {90},
   {58, 69, 23},
   {69, 46},
   {24, 18},
   {67, 44, 21},
   {40, 25, 53},
   {54},
   {26},
   {79},
   {70},
   {29},
   {47},
   {43},
   {48, 91, 39},
   {41},
   {83, 38, 55},
   {32, 56, 82},
   {37},
   {42},
   {54},
   {51, 35},
   {89, 59},
   {65},
   {64, 74, 67},
   {58},
   {62},
   {49},
   {59},
   {49, 77},
   {68, 63},
   {47},
   {73},
   {80, 88, 71},
   {66, 59},
   {84},
   {57, 78},
   {53},
   {66},
   {70},
   {76},
   {64, 65},
   {68},
   {74},
   {65, 60},
   {61},
   {86},
   {85},
   {62},
   {86},
   {76},
   {83},
   {69},
   {83, 75},
   {72},
   {70},
   {85},
   {73},
   {81, 91},
   {90, 76},
   {87},
   {81},
   {84},
   {88, 79},
   {87},
   {80},
   {85},
   {81},
   {86},
   {88},
   {84},
   {89},
   {91},
   {87},
   {90},
   {89},
   {92},
   {92},
   {92},
   {  } ];

deadline = array2d(1..92, 1..3, [1, 0, 5, 2, 5, 2, 3, 3, 3, 4, 1, 1, 6, 3, 4, 7, 1, 2, 9, 5, 3, 9, 0, 0, 10, 4, 5, 11, 5, 3, 13, 3, 3, 17, 0, 2, 19, 1, 1, 22, 2, 4, 26, 0, 3, 27, 4, 1, 28, 5, 4, 28, 0, 2, 29, 1, 2, 31, 0, 1, 31, 3, 5, 32, 1, 4, 32, 0, 3, 33, 5, 3, 35, 4, 0, 36, 2, 1, 36, 0, 0, 37, 0, 3, 39, 3, 3, 40, 4, 3, 40, 3, 1, 42, 4, 0, 42, 4, 2, 45, 0, 2, 46, 1, 4, 49, 3, 2, 49, 3, 1, 51, 5, 1, 51, 3, 4, 51, 5, 5, 52, 5, 1, 53, 0, 3, 56, 1, 3, 61, 0, 5, 61, 2, 2, 62, 3, 5, 62, 4, 2, 69, 5, 3, 72, 5, 5, 72, 2, 0, 74, 1, 1, 75, 5, 1, 75, 4, 5, 75, 3, 2, 76, 5, 5, 78, 3, 1, 81, 3, 3, 86, 1, 1, 86, 1, 5, 90, 0, 5, 91, 5, 1, 99, 4, 4, 100, 0, 2, 104, 4, 0, 105, 1, 1, 108, 5, 0, 108, 5, 1, 110, 5, 0, 110, 2, 2, 111, 3, 3, 112, 0, 3, 113, 2, 2, 115, 1, 2, 120, 1, 4, 124, 2, 0, 127, 3, 5, 131, 2, 4, 136, 5, 4, 141, 4, 2, 142, 5, 2, 144, 1, 4, 148, 1, 0, 151, 0, 4, 153, 1, 0, 154, 0, 1, 155, 1, 5, 159, 2, 2, 160, 1, 0, 163, 5, 4, 163, 2, 4, 167, 5, 1, 177, 0, 3]);
