n_res = 4;
rc = [ 44, 50, 50, 48 ];
n_tasks = 92;
d = [0, 5, 5, 3, 6, 8, 4, 8, 1, 2, 6, 10, 4, 7, 1, 8, 1, 1, 10, 9, 7, 1, 6, 3, 2, 6, 4, 10, 8, 6, 6, 3, 7, 8, 2, 7, 8, 10, 2, 3, 3, 3, 3, 7, 4, 1, 9, 2, 8, 8, 4, 10, 1, 6, 3, 5, 10, 8, 10, 1, 8, 4, 6, 8, 9, 10, 1, 8, 9, 8, 8, 5, 5, 2, 7, 2, 7, 9, 8, 7, 7, 9, 8, 8, 7, 6, 9, 9, 7, 7, 6, 0];
rr = array2d(1..4, 1..92, [0, 1, 10, 3, 10, 0, 9, 1, 0, 4, 5, 0, 5, 3, 8, 5, 5, 1, 7, 1, 0, 0, 2, 5, 4, 4, 4, 6, 0, 3, 1, 7, 9, 0, 0, 7, 9, 7, 6, 10, 4, 0, 0, 10, 0, 3, 8, 8, 8, 7, 6, 0, 5, 0, 4, 4, 3, 0, 10, 1, 0, 0, 2, 2, 0, 2, 10, 4, 2, 4, 9, 0, 7, 7, 9, 1, 5, 0, 0, 1, 4, 0, 5, 4, 4, 3, 3, 8, 5, 5, 9, 0, 0, 8, 10, 0, 1, 6, 0, 10, 0, 10, 8, 3, 0, 1, 0, 5, 4, 3, 1, 6, 4, 1, 6, 0, 3, 8, 4, 9, 5, 9, 9, 3, 0, 3, 6, 0, 4, 7, 0, 4, 10, 1, 0, 0, 10, 3, 6, 4, 0, 8, 0, 5, 10, 0, 7, 2, 6, 5, 2, 6, 4, 9, 5, 0, 2, 3, 4, 6, 9, 0, 4, 0, 10, 0, 0, 8, 0, 0, 7, 4, 8, 3, 6, 3, 5, 7, 0, 2, 7, 4, 0, 0, 0, 3, 0, 0, 0, 0, 0, 2, 9, 0, 1, 9, 5, 8, 5, 7, 0, 0, 2, 9, 2, 2, 0, 6, 0, 3, 6, 4, 0, 5, 6, 3, 4, 3, 8, 0, 7, 1, 6, 9, 4, 2, 6, 5, 8, 7, 7, 0, 1, 0, 1, 0, 9, 2, 10, 2, 0, 1, 10, 6, 3, 7, 2, 8, 8, 5, 0, 4, 10, 2, 6, 1, 0, 7, 4, 8, 0, 10, 3, 4, 8, 8, 6, 0, 4, 0, 6, 9, 0, 5, 7, 0, 0, 6, 8, 3, 10, 0, 1, 9, 6, 3, 9, 4, 3, 0, 1, 10, 0, 8, 10, 2, 2, 10, 9, 7, 0, 7, 0, 7, 5, 5, 0, 7, 0, 0, 0, 10, 1, 5, 2, 7, 1, 1, 4, 8, 0, 0, 9, 8, 1, 8, 8, 10, 4, 0, 3, 2, 7, 4, 1, 2, 0, 0, 6, 0, 0, 7, 9, 1, 0, 5, 0, 0, 1, 9, 0, 3, 10, 7, 0, 10, 0, 4, 5, 8, 0, 3, 2, 3, 6, 2, 2, 0]);

suc = [
   {2, 3, 4},
   {59, 5, 6},
   {32, 10, 22},
   {12, 7},
   {8, 13, 14},
   {9, 34, 35},
   {33, 11, 57},
   {68},
   {16, 27, 20},
   {28, 15},
   {82},
   {17, 26, 19},
   {18, 85, 21},
   {82},
   {42},
   {49, 68},
   {37, 87},
   {24, 43},
   {29},
   {30},
   {75, 47},
   {49, 23},
   {65},
   {25, 58, 45},
   {48, 36},
   {55},
   {41, 86, 31},
   {60, 53},
   {39},
   {91},
   {44},
   {38, 71},
   {56, 65},
   {52},
   {40, 50, 55},
   {51, 54},
   {55},
   {51},
   {72},
   {72, 83},
   {73},
   {50, 46},
   {61, 63},
   {89, 62},
   {64},
   {56},
   {56},
   {63},
   {77, 69},
   {61, 87},
   {66, 53},
   {72},
   {74, 63},
   {60},
   {78},
   {81},
   {67},
   {90},
   {78},
   {66},
   {81},
   {75, 78},
   {81},
   {70},
   {80},
   {74},
   {83, 75},
   {74},
   {76},
   {87},
   {82},
   {90},
   {83},
   {77},
   {79},
   {86},
   {84},
   {79},
   {90},
   {84, 85},
   {89},
   {86},
   {88},
   {88},
   {91},
   {88},
   {91},
   {89},
   {92},
   {92},
   {92},
   {  } ];

deadline = array2d(1..92, 1..3, [1, 3, 2, 1, 2, 1, 2, 4, 2, 5, 2, 3, 6, 2, 4, 6, 0, 2, 8, 5, 3, 13, 1, 3, 13, 0, 5, 14, 3, 3, 19, 4, 4, 21, 0, 0, 22, 1, 5, 24, 5, 5, 25, 2, 3, 25, 4, 4, 29, 4, 3, 31, 1, 3, 37, 4, 5, 41, 0, 1, 42, 5, 0, 43, 3, 5, 44, 2, 3, 47, 0, 2, 49, 5, 1, 49, 3, 4, 51, 5, 1, 58, 5, 3, 58, 5, 3, 60, 2, 4, 60, 5, 4, 61, 4, 3, 64, 1, 4, 67, 4, 4, 69, 0, 2, 73, 2, 2, 74, 1, 5, 75, 4, 0, 77, 5, 0, 77, 5, 3, 80, 1, 1, 81, 3, 5, 81, 0, 5, 85, 4, 3, 85, 2, 5, 86, 1, 2, 87, 4, 2, 89, 3, 5, 90, 5, 5, 96, 4, 0, 99, 3, 0, 102, 0, 0, 104, 2, 2, 105, 5, 1, 107, 5, 0, 115, 2, 1, 115, 4, 1, 118, 3, 5, 120, 5, 3, 122, 4, 1, 123, 5, 5, 123, 3, 5, 126, 0, 0, 130, 0, 0, 131, 0, 1, 134, 5, 0, 135, 4, 5, 141, 0, 5, 143, 3, 1, 146, 2, 3, 147, 4, 5, 150, 4, 4, 150, 0, 2, 155, 0, 1, 156, 3, 5, 156, 0, 4, 161, 4, 1, 163, 5, 5, 166, 1, 2, 167, 2, 3, 175, 2, 2, 178, 1, 1, 179, 4, 2, 179, 3, 0, 181, 3, 4, 181, 5, 1, 182, 3, 5, 183, 4, 5, 185, 0, 1, 186, 5, 0, 192, 1, 4, 194, 3, 0]);
