n_res = 4;
rc = [ 100, 99, 96, 103 ];
n_tasks = 92;
d = [0, 6, 9, 2, 8, 8, 5, 6, 7, 7, 8, 8, 3, 8, 1, 10, 3, 5, 1, 1, 3, 4, 6, 3, 5, 3, 1, 5, 4, 10, 6, 4, 8, 1, 7, 4, 3, 9, 8, 1, 7, 9, 5, 7, 7, 6, 10, 7, 10, 3, 10, 6, 9, 7, 2, 4, 2, 6, 10, 7, 7, 2, 4, 9, 4, 8, 5, 8, 9, 6, 9, 1, 7, 2, 8, 10, 5, 10, 5, 1, 4, 2, 1, 8, 10, 7, 4, 3, 9, 2, 8, 0];
rr = array2d(1..4, 1..92, [0, 9, 5, 5, 4, 7, 2, 9, 3, 8, 9, 3, 3, 2, 3, 5, 5, 2, 9, 5, 5, 2, 10, 6, 5, 4, 7, 10, 10, 7, 4, 4, 8, 4, 10, 3, 4, 4, 6, 1, 5, 2, 6, 8, 7, 5, 10, 9, 3, 3, 10, 4, 4, 10, 10, 1, 5, 2, 2, 9, 8, 10, 1, 9, 7, 6, 4, 5, 1, 7, 5, 6, 3, 3, 1, 6, 8, 8, 9, 6, 2, 8, 4, 4, 8, 5, 2, 7, 10, 6, 10, 0, 0, 6, 4, 2, 5, 7, 6, 7, 8, 3, 6, 4, 2, 2, 4, 7, 4, 9, 10, 9, 6, 6, 7, 9, 1, 6, 10, 4, 5, 3, 4, 3, 5, 5, 3, 3, 10, 4, 7, 5, 2, 3, 5, 10, 9, 2, 9, 5, 9, 5, 8, 6, 8, 5, 8, 2, 2, 7, 7, 7, 7, 9, 3, 9, 6, 8, 4, 5, 6, 1, 6, 9, 6, 4, 2, 4, 3, 4, 5, 2, 6, 9, 4, 6, 6, 5, 4, 10, 9, 3, 9, 0, 0, 3, 9, 10, 5, 10, 9, 2, 1, 5, 6, 8, 5, 3, 5, 9, 9, 9, 5, 2, 9, 5, 3, 1, 3, 9, 8, 2, 10, 6, 8, 8, 8, 9, 4, 7, 2, 9, 10, 4, 2, 2, 8, 7, 3, 2, 2, 9, 5, 10, 9, 3, 4, 8, 1, 7, 7, 3, 1, 2, 7, 8, 9, 2, 7, 6, 8, 3, 2, 7, 8, 8, 3, 2, 5, 10, 2, 7, 8, 8, 6, 4, 9, 1, 1, 2, 7, 9, 6, 6, 8, 0, 0, 7, 4, 7, 1, 7, 3, 3, 6, 3, 6, 3, 7, 8, 10, 4, 4, 1, 8, 10, 5, 10, 9, 10, 9, 6, 1, 6, 1, 4, 7, 7, 6, 8, 8, 8, 10, 8, 2, 1, 3, 3, 7, 3, 9, 7, 6, 2, 5, 8, 2, 9, 1, 3, 10, 3, 5, 4, 8, 1, 3, 10, 1, 10, 2, 10, 3, 1, 4, 2, 1, 6, 9, 3, 5, 2, 6, 8, 6, 7, 4, 8, 3, 8, 4, 8, 5, 9, 5, 7, 9, 0]);

suc = [
   {2, 3, 4},
   {13, 6},
   {10, 11, 14},
   {83, 5, 38},
   {8, 9, 18},
   {16, 20, 7},
   {35},
   {66, 46, 71},
   {43, 52, 30},
   {33, 19},
   {17, 12, 68},
   {42, 45},
   {48, 29, 15},
   {24, 22},
   {24, 27, 45},
   {25, 57, 41},
   {61},
   {26, 21, 23},
   {37, 21},
   {52},
   {47},
   {36, 77, 54},
   {25, 60, 39},
   {72, 28, 53},
   {91, 43},
   {41, 62, 39},
   {63, 31},
   {81, 67, 54},
   {32, 40, 44},
   {71, 39},
   {66, 36, 47},
   {34, 53},
   {34, 76},
   {58, 84, 78},
   {89},
   {51, 55},
   {58, 87},
   {55},
   {64, 70, 79},
   {77},
   {49, 85},
   {72, 50, 78},
   {89},
   {83},
   {56, 76},
   {62},
   {50},
   {60},
   {64},
   {88, 65},
   {69},
   {55},
   {64, 59, 69},
   {68, 69},
   {87},
   {80},
   {80, 75},
   {65},
   {70},
   {61, 62},
   {84, 79},
   {72},
   {65, 68},
   {80, 88},
   {74},
   {74, 67, 87},
   {70},
   {89},
   {73, 71},
   {82, 84},
   {88, 79},
   {74, 76},
   {90, 75},
   {81, 77},
   {78},
   {81},
   {82},
   {83},
   {82},
   {86},
   {85},
   {86},
   {85},
   {91},
   {86},
   {91},
   {90},
   {90},
   {92},
   {92},
   {92},
   {  } ];

deadline = array2d(1..92, 1..3, [2, 4, 4, 2, 1, 2, 3, 5, 3, 3, 5, 4, 7, 3, 4, 13, 2, 5, 18, 1, 5, 18, 0, 3, 19, 3, 1, 20, 0, 5, 20, 2, 0, 24, 2, 1, 27, 0, 0, 32, 2, 0, 39, 4, 2, 42, 4, 0, 42, 5, 4, 45, 0, 0, 46, 3, 1, 46, 2, 1, 48, 2, 3, 59, 3, 5, 69, 2, 0, 73, 4, 4, 74, 3, 4, 74, 5, 0, 74, 0, 1, 74, 5, 2, 75, 1, 4, 85, 0, 1, 90, 4, 4, 92, 0, 2, 96, 0, 1, 98, 0, 2, 99, 5, 4, 103, 0, 3, 106, 0, 2, 108, 1, 1, 109, 4, 5, 110, 5, 3, 110, 5, 3, 110, 2, 4, 111, 0, 2, 114, 4, 1, 116, 0, 4, 120, 1, 1, 122, 5, 5, 123, 1, 4, 123, 0, 0, 125, 5, 3, 128, 4, 0, 129, 3, 2, 129, 2, 1, 133, 1, 1, 138, 1, 3, 140, 0, 4, 141, 0, 5, 143, 5, 5, 145, 5, 5, 146, 1, 5, 149, 4, 2, 150, 4, 3, 150, 5, 4, 150, 3, 2, 153, 4, 4, 154, 1, 5, 155, 3, 5, 157, 4, 1, 157, 3, 4, 166, 1, 5, 166, 5, 5, 167, 0, 3, 168, 0, 3, 170, 1, 3, 173, 5, 2, 188, 5, 5, 188, 2, 4, 195, 5, 3, 198, 4, 1, 199, 5, 5, 209, 1, 5, 210, 4, 5, 211, 2, 0, 215, 4, 1, 217, 3, 4, 220, 3, 2, 221, 4, 2, 225, 0, 5, 227, 5, 3, 227, 3, 2, 227, 5, 5, 235, 1, 3]);
