n_res = 4;
rc = [ 20, 19, 21, 19 ];
n_tasks = 92;
d = [0, 2, 5, 7, 5, 6, 7, 7, 5, 5, 6, 5, 10, 2, 4, 7, 2, 7, 3, 7, 8, 9, 6, 8, 3, 8, 9, 5, 5, 9, 9, 6, 6, 1, 1, 1, 4, 10, 7, 9, 4, 3, 8, 7, 1, 1, 10, 9, 8, 10, 8, 3, 3, 2, 6, 1, 2, 8, 4, 2, 4, 6, 8, 5, 10, 2, 1, 2, 3, 7, 6, 9, 8, 1, 8, 3, 9, 4, 7, 2, 6, 10, 4, 9, 6, 4, 2, 1, 5, 7, 6, 0];
rr = array2d(1..4, 1..92, [0, 3, 2, 4, 7, 1, 3, 3, 3, 6, 10, 6, 7, 0, 10, 3, 9, 0, 8, 0, 0, 3, 4, 9, 2, 0, 5, 0, 10, 9, 0, 10, 0, 7, 1, 5, 7, 4, 8, 4, 7, 8, 6, 5, 0, 1, 0, 2, 8, 2, 0, 0, 2, 10, 6, 0, 0, 7, 2, 2, 5, 5, 7, 8, 0, 5, 0, 0, 8, 1, 10, 0, 1, 4, 7, 0, 4, 7, 9, 7, 7, 7, 5, 3, 1, 2, 0, 0, 6, 0, 4, 0, 0, 4, 0, 7, 2, 8, 0, 5, 3, 4, 9, 5, 4, 3, 0, 6, 9, 7, 10, 0, 1, 2, 0, 10, 6, 0, 7, 8, 3, 9, 1, 6, 0, 6, 1, 9, 7, 0, 6, 2, 0, 7, 6, 6, 7, 7, 4, 0, 1, 10, 8, 2, 6, 7, 6, 0, 5, 0, 0, 2, 3, 0, 0, 10, 5, 10, 6, 8, 0, 10, 3, 7, 1, 9, 9, 0, 5, 0, 6, 7, 1, 9, 8, 0, 0, 5, 0, 5, 0, 2, 0, 0, 0, 7, 2, 0, 3, 0, 1, 5, 10, 5, 9, 5, 2, 4, 9, 0, 5, 0, 5, 7, 1, 9, 5, 3, 1, 1, 8, 3, 10, 4, 0, 1, 5, 0, 8, 6, 0, 2, 0, 1, 0, 1, 0, 10, 7, 9, 4, 0, 3, 4, 2, 7, 0, 8, 0, 4, 2, 0, 0, 3, 0, 2, 2, 0, 10, 5, 6, 2, 7, 8, 4, 10, 6, 9, 1, 1, 10, 4, 0, 0, 6, 3, 2, 0, 0, 9, 9, 8, 10, 10, 1, 0, 0, 9, 7, 8, 2, 7, 0, 6, 7, 7, 5, 3, 10, 2, 0, 7, 3, 0, 0, 6, 0, 4, 2, 10, 0, 9, 0, 1, 5, 0, 0, 4, 5, 2, 2, 9, 8, 9, 1, 6, 8, 6, 10, 8, 2, 9, 0, 5, 7, 0, 0, 3, 6, 3, 5, 3, 3, 1, 0, 8, 8, 9, 4, 1, 6, 10, 10, 0, 0, 0, 7, 5, 6, 0, 3, 8, 6, 3, 0, 6, 0, 0, 10, 10, 10, 0, 7, 6, 1, 0, 0, 0]);

suc = [
   {2, 3, 4},
   {8, 5, 7},
   {9, 11, 12},
   {46, 29, 6},
   {57, 35, 54},
   {16, 51, 60},
   {27, 20, 23},
   {10, 34, 21},
   {38},
   {53, 13},
   {49, 14, 22},
   {25, 15},
   {17, 18, 28},
   {27, 78},
   {33, 82, 69},
   {58, 74},
   {49, 67, 52},
   {24, 19, 30},
   {56, 68},
   {34, 44, 77},
   {89, 42},
   {26},
   {48, 66},
   {85},
   {42, 27, 36},
   {57, 44, 63},
   {68, 39},
   {37},
   {65, 60, 70},
   {32, 41, 31},
   {59},
   {64, 83, 45},
   {80},
   {40, 72, 38},
   {62, 71},
   {59, 55},
   {80, 76},
   {56, 47},
   {43, 55},
   {57},
   {72, 42, 70},
   {56, 50},
   {67, 53},
   {65, 58, 90},
   {47},
   {58},
   {82},
   {61},
   {88, 73, 87},
   {52},
   {89},
   {65},
   {82, 63},
   {81, 83, 78},
   {73},
   {86},
   {76},
   {79},
   {66, 68},
   {66, 71},
   {88, 75},
   {75},
   {74, 69},
   {73, 79},
   {69},
   {83},
   {81},
   {88, 70},
   {79},
   {81},
   {72},
   {76},
   {74, 75},
   {77},
   {85, 77},
   {78},
   {80, 84, 86},
   {91, 87},
   {85},
   {91},
   {84},
   {84},
   {87},
   {89},
   {86},
   {91},
   {90},
   {90},
   {92},
   {92},
   {92},
   {  } ];

deadline = array2d(1..92, 1..3, [2, 0, 1, 4, 3, 4, 4, 2, 4, 9, 4, 0, 10, 2, 0, 13, 5, 4, 14, 3, 4, 17, 5, 2, 19, 0, 1, 34, 3, 2, 37, 1, 1, 40, 3, 1, 40, 1, 0, 41, 3, 3, 41, 5, 2, 42, 2, 4, 43, 0, 0, 44, 0, 4, 45, 2, 3, 47, 5, 2, 49, 2, 2, 53, 2, 0, 54, 5, 4, 57, 0, 3, 61, 3, 2, 64, 2, 0, 64, 2, 4, 68, 5, 0, 72, 0, 2, 76, 4, 4, 81, 4, 2, 83, 3, 0, 84, 4, 1, 86, 2, 1, 88, 2, 4, 88, 0, 3, 90, 5, 0, 91, 5, 2, 92, 5, 0, 97, 1, 0, 104, 5, 5, 105, 0, 4, 108, 1, 0, 112, 1, 0, 116, 1, 3, 117, 3, 5, 118, 4, 4, 119, 0, 4, 120, 3, 1, 126, 4, 1, 139, 5, 5, 139, 1, 4, 142, 4, 5, 146, 2, 1, 147, 0, 1, 152, 5, 4, 155, 1, 3, 157, 0, 2, 160, 3, 1, 164, 3, 0, 164, 4, 4, 164, 5, 2, 170, 1, 0, 178, 4, 2, 181, 4, 4, 182, 4, 2, 186, 4, 4, 186, 2, 5, 188, 3, 4, 190, 3, 4, 192, 3, 4, 192, 5, 4, 194, 2, 4, 196, 2, 4, 198, 4, 0, 200, 5, 1, 200, 1, 3, 201, 3, 5, 202, 4, 0, 207, 3, 1, 208, 2, 3, 209, 1, 3, 213, 0, 2, 217, 0, 4, 219, 0, 4, 221, 2, 1, 227, 4, 0, 230, 4, 0, 230, 1, 3, 231, 1, 2, 236, 3, 5, 237, 2, 2]);
