n_res = 4;
rc = [ 30, 20, 24, 26 ];
n_tasks = 92;
d = [0, 7, 1, 10, 5, 7, 2, 10, 9, 1, 9, 1, 10, 6, 2, 8, 6, 1, 6, 4, 6, 2, 9, 6, 10, 5, 1, 5, 2, 4, 7, 2, 4, 8, 4, 7, 3, 4, 1, 4, 4, 10, 6, 7, 2, 2, 6, 9, 10, 5, 4, 9, 9, 10, 9, 7, 10, 3, 8, 1, 4, 9, 1, 6, 7, 3, 2, 10, 9, 5, 1, 2, 7, 2, 7, 8, 3, 6, 3, 2, 3, 7, 4, 2, 3, 2, 1, 5, 4, 4, 4, 0];
rr = array2d(1..4, 1..92, [0, 0, 0, 9, 2, 0, 0, 1, 9, 0, 5, 0, 0, 0, 3, 0, 9, 0, 0, 0, 0, 10, 0, 0, 10, 0, 0, 8, 1, 0, 2, 7, 0, 0, 0, 0, 0, 7, 0, 7, 0, 3, 0, 4, 0, 0, 0, 0, 3, 0, 0, 0, 0, 0, 0, 7, 0, 0, 0, 0, 0, 0, 0, 6, 4, 0, 0, 0, 0, 0, 7, 0, 0, 10, 0, 0, 0, 10, 0, 0, 0, 0, 8, 0, 0, 0, 0, 0, 0, 0, 0, 0, 0, 0, 0, 0, 0, 0, 0, 0, 0, 0, 0, 0, 1, 0, 0, 0, 0, 0, 0, 0, 3, 0, 0, 0, 0, 3, 0, 0, 0, 0, 0, 0, 10, 0, 3, 0, 0, 0, 0, 0, 0, 0, 0, 0, 0, 10, 0, 0, 0, 10, 0, 6, 0, 0, 7, 0, 0, 0, 0, 0, 0, 0, 0, 0, 0, 0, 0, 0, 0, 0, 0, 0, 0, 0, 0, 0, 0, 0, 0, 0, 4, 0, 0, 0, 0, 2, 0, 0, 0, 0, 7, 0, 0, 4, 1, 0, 0, 5, 2, 0, 0, 3, 0, 4, 0, 0, 0, 0, 0, 6, 0, 9, 0, 0, 6, 9, 0, 0, 6, 0, 0, 0, 0, 0, 0, 2, 0, 0, 4, 0, 0, 0, 0, 0, 9, 0, 2, 0, 6, 0, 0, 0, 7, 0, 0, 0, 0, 0, 4, 0, 9, 9, 8, 0, 5, 0, 0, 0, 7, 0, 0, 7, 0, 2, 0, 0, 9, 7, 6, 0, 0, 2, 0, 0, 0, 3, 0, 0, 2, 0, 5, 0, 0, 0, 0, 0, 0, 0, 0, 0, 0, 0, 0, 0, 0, 0, 0, 6, 0, 8, 0, 0, 8, 0, 0, 0, 0, 0, 0, 0, 0, 0, 0, 10, 0, 0, 0, 0, 0, 9, 0, 0, 9, 0, 3, 0, 0, 0, 0, 0, 0, 6, 0, 0, 0, 0, 9, 7, 0, 0, 0, 9, 0, 0, 0, 7, 0, 0, 0, 1, 0, 4, 10, 0, 0, 0, 7, 0, 0, 0, 0, 0, 10, 0, 0, 10, 0, 0, 5, 0, 0, 10, 0, 9, 0, 0]);

suc = [
   {2, 3, 4},
   {49, 44, 5},
   {8, 9, 10},
   {19, 14, 31},
   {16, 11, 6},
   {41, 62, 7},
   {27, 12, 13},
   {23, 45, 15},
   {24, 27},
   {25, 26},
   {40, 17, 21},
   {28, 22, 52},
   {36},
   {18, 36, 77},
   {74, 53},
   {64, 20, 30},
   {41},
   {27},
   {34, 60},
   {65, 29, 38},
   {84},
   {70, 55},
   {33, 47},
   {36, 37},
   {56, 42},
   {75},
   {48, 59, 63},
   {68},
   {48, 82},
   {32, 57, 35},
   {87},
   {47},
   {39},
   {38, 63},
   {58, 47},
   {80},
   {54},
   {76, 79},
   {89, 46},
   {43},
   {73},
   {72, 57},
   {90, 68, 55},
   {52},
   {81},
   {56, 67, 78},
   {56, 51, 77},
   {67, 69, 87},
   {50, 61, 79},
   {65, 51, 53},
   {82},
   {60, 69},
   {75, 62, 55},
   {58},
   {57, 60, 76},
   {90},
   {69},
   {66, 61},
   {64, 73},
   {71},
   {87, 70, 63},
   {68, 71},
   {73, 71},
   {65, 70},
   {67, 76},
   {80, 74, 79},
   {88},
   {85},
   {84},
   {84},
   {83, 78},
   {80, 88},
   {82},
   {85, 77},
   {78},
   {83},
   {83},
   {81},
   {91},
   {90},
   {85},
   {86},
   {89, 86},
   {91},
   {86},
   {88},
   {89},
   {91},
   {92},
   {92},
   {92},
   {  } ];

deadline = array2d(1..92, 1..3, [6, 2, 5, 8, 0, 0, 9, 3, 2, 11, 3, 4, 17, 1, 5, 18, 5, 2, 19, 5, 5, 21, 0, 0, 22, 5, 5, 23, 2, 4, 23, 4, 4, 23, 2, 0, 27, 1, 3, 27, 1, 3, 33, 3, 5, 34, 5, 1, 38, 1, 4, 38, 3, 4, 40, 1, 3, 41, 5, 2, 46, 2, 5, 47, 1, 1, 47, 0, 1, 48, 0, 2, 49, 1, 0, 49, 0, 0, 55, 0, 2, 55, 1, 0, 60, 5, 3, 61, 0, 3, 66, 5, 0, 67, 2, 4, 69, 4, 2, 70, 5, 1, 72, 0, 3, 72, 0, 4, 76, 0, 5, 76, 4, 3, 81, 5, 0, 81, 1, 5, 85, 4, 5, 85, 2, 1, 86, 5, 3, 88, 1, 4, 91, 1, 1, 93, 1, 4, 93, 2, 4, 94, 4, 0, 94, 0, 1, 95, 0, 5, 98, 0, 1, 100, 1, 5, 103, 2, 5, 104, 1, 3, 106, 5, 4, 106, 3, 1, 108, 2, 1, 112, 1, 1, 116, 3, 4, 118, 3, 1, 119, 0, 3, 121, 1, 2, 122, 3, 1, 123, 3, 2, 123, 0, 5, 124, 3, 5, 127, 3, 5, 129, 2, 4, 129, 2, 5, 130, 3, 1, 132, 5, 3, 134, 0, 5, 135, 3, 3, 137, 5, 4, 138, 0, 3, 139, 4, 2, 140, 0, 5, 141, 2, 2, 141, 2, 1, 143, 3, 2, 146, 3, 1, 149, 4, 0, 149, 0, 4, 149, 0, 4, 150, 0, 1, 152, 4, 3, 153, 1, 3, 158, 1, 0, 159, 5, 3, 160, 0, 4, 161, 5, 2, 164, 1, 0]);
