n_res = 4;
rc = [ 25, 17, 20, 24 ];
n_tasks = 92;
d = [0, 5, 7, 3, 8, 2, 1, 10, 6, 4, 8, 6, 8, 10, 3, 4, 4, 2, 2, 7, 2, 9, 6, 4, 7, 5, 6, 9, 4, 4, 4, 3, 6, 10, 2, 8, 8, 2, 5, 4, 3, 9, 10, 6, 6, 5, 2, 7, 4, 10, 8, 10, 7, 9, 8, 8, 9, 9, 5, 1, 9, 10, 4, 2, 9, 10, 5, 1, 3, 5, 2, 6, 1, 8, 7, 6, 6, 8, 3, 9, 10, 9, 5, 1, 7, 4, 4, 9, 8, 2, 1, 0];
rr = array2d(1..4, 1..92, [0, 0, 8, 0, 0, 8, 8, 8, 0, 0, 0, 0, 0, 8, 0, 0, 1, 0, 7, 0, 5, 8, 9, 9, 7, 0, 0, 2, 0, 0, 4, 1, 0, 0, 0, 0, 0, 0, 0, 0, 3, 0, 0, 9, 9, 0, 8, 7, 0, 10, 5, 8, 8, 0, 5, 0, 9, 1, 7, 0, 7, 0, 4, 0, 0, 0, 6, 9, 0, 0, 0, 1, 0, 0, 3, 5, 2, 0, 4, 8, 5, 7, 0, 0, 0, 0, 0, 0, 6, 8, 0, 0, 0, 0, 4, 10, 6, 9, 0, 0, 0, 0, 0, 10, 8, 0, 8, 0, 0, 3, 0, 8, 7, 0, 0, 8, 0, 4, 0, 0, 8, 0, 4, 6, 0, 4, 7, 10, 0, 8, 0, 0, 0, 10, 2, 0, 5, 2, 0, 7, 2, 10, 10, 0, 0, 3, 0, 2, 10, 0, 4, 0, 0, 0, 0, 4, 7, 2, 10, 0, 1, 5, 5, 3, 8, 6, 5, 0, 0, 9, 0, 0, 0, 2, 8, 0, 5, 0, 0, 6, 1, 4, 0, 0, 0, 0, 0, 8, 0, 7, 4, 5, 4, 2, 7, 0, 0, 3, 8, 1, 8, 0, 9, 0, 0, 0, 8, 5, 0, 0, 10, 0, 9, 0, 0, 1, 6, 10, 9, 0, 0, 10, 9, 3, 0, 0, 6, 8, 10, 10, 7, 0, 0, 0, 0, 0, 0, 0, 0, 6, 1, 0, 0, 9, 0, 0, 0, 0, 0, 10, 8, 0, 4, 9, 7, 0, 4, 0, 8, 0, 0, 0, 0, 0, 5, 0, 5, 0, 0, 0, 10, 8, 3, 7, 8, 0, 0, 7, 4, 8, 0, 2, 6, 2, 9, 0, 1, 10, 8, 2, 0, 0, 9, 9, 0, 8, 10, 9, 5, 0, 0, 3, 4, 0, 2, 1, 10, 0, 10, 0, 9, 10, 1, 0, 0, 7, 3, 0, 0, 10, 0, 0, 0, 10, 0, 0, 0, 0, 10, 0, 0, 0, 0, 10, 0, 0, 0, 9, 0, 0, 0, 7, 0, 3, 0, 0, 0, 0, 0, 8, 0, 8, 0, 0, 7, 8, 3, 0, 0, 3, 8, 2, 8, 3, 0, 0, 0, 0]);

suc = [
   {2, 3, 4},
   {21, 5, 6},
   {73, 78},
   {19, 11, 13},
   {9, 12, 7},
   {24, 42, 15},
   {8, 17, 20},
   {39},
   {10, 14},
   {50, 28, 60},
   {16, 18, 74},
   {48, 75, 47},
   {29},
   {36},
   {33, 22, 23},
   {72, 35, 27},
   {58},
   {51, 29},
   {60},
   {25, 69, 79},
   {34},
   {26, 59},
   {74},
   {68, 77},
   {65, 37},
   {32, 45, 30},
   {40, 57, 44},
   {31},
   {76, 63},
   {82},
   {41, 38},
   {34},
   {49},
   {58},
   {85},
   {43},
   {64, 46},
   {65},
   {67},
   {50},
   {70},
   {53, 71},
   {67},
   {91, 54},
   {77},
   {59},
   {55},
   {80},
   {52},
   {51},
   {79},
   {62},
   {56},
   {84},
   {76},
   {76},
   {73},
   {82, 83},
   {86},
   {61},
   {63},
   {71},
   {89},
   {86},
   {81, 66, 67},
   {80},
   {72},
   {72},
   {73},
   {71},
   {77, 78},
   {90},
   {85},
   {85, 78},
   {90, 91},
   {87},
   {82, 91},
   {79},
   {80},
   {84},
   {86},
   {87},
   {88},
   {87},
   {88},
   {88},
   {89},
   {89, 90},
   {92},
   {92},
   {92},
   {  } ];

deadline = array2d(1..92, 1..3, [4, 1, 5, 5, 5, 0, 6, 5, 2, 11, 1, 0, 12, 3, 2, 18, 3, 3, 19, 1, 0, 20, 1, 0, 20, 3, 4, 21, 3, 4, 21, 3, 0, 23, 3, 2, 23, 1, 2, 26, 1, 2, 29, 0, 4, 29, 3, 1, 33, 4, 5, 38, 1, 5, 38, 5, 0, 39, 2, 4, 42, 3, 3, 45, 5, 0, 45, 0, 5, 46, 0, 2, 47, 4, 3, 48, 5, 3, 49, 3, 4, 50, 1, 4, 55, 5, 4, 66, 5, 5, 67, 0, 1, 69, 3, 2, 69, 5, 4, 70, 2, 3, 70, 0, 1, 70, 3, 1, 72, 2, 1, 75, 5, 1, 76, 0, 4, 78, 5, 4, 79, 5, 1, 81, 3, 3, 82, 4, 1, 83, 1, 1, 87, 5, 5, 87, 2, 5, 90, 1, 3, 91, 0, 3, 93, 4, 5, 93, 5, 5, 93, 5, 5, 94, 1, 2, 100, 1, 0, 100, 2, 2, 100, 0, 5, 111, 1, 4, 113, 3, 3, 115, 1, 2, 120, 5, 0, 124, 2, 2, 124, 5, 5, 129, 2, 3, 131, 1, 0, 131, 0, 5, 134, 0, 2, 141, 2, 2, 142, 1, 0, 146, 3, 0, 146, 5, 3, 147, 4, 3, 149, 2, 2, 154, 0, 3, 158, 4, 3, 159, 4, 5, 160, 3, 0, 161, 0, 0, 161, 3, 2, 162, 3, 4, 163, 1, 5, 163, 5, 2, 166, 0, 3, 171, 1, 5, 176, 2, 5, 176, 1, 2, 176, 2, 3, 178, 0, 0, 178, 3, 5, 178, 1, 0, 182, 3, 4, 192, 5, 2, 194, 5, 1, 197, 1, 1]);
