n_res = 4;
rc = [ 27, 47, 48, 35 ];
n_tasks = 92;
d = [0, 8, 10, 5, 5, 3, 6, 5, 10, 8, 10, 1, 1, 10, 2, 7, 1, 8, 10, 3, 3, 2, 8, 5, 10, 6, 7, 2, 6, 4, 4, 6, 2, 8, 8, 5, 3, 1, 5, 10, 5, 7, 2, 7, 9, 10, 9, 3, 1, 5, 5, 10, 8, 9, 3, 9, 7, 9, 8, 6, 2, 9, 3, 7, 10, 6, 3, 9, 10, 5, 1, 6, 4, 10, 10, 6, 6, 1, 6, 9, 5, 9, 4, 4, 9, 2, 9, 7, 4, 4, 10, 0];
rr = array2d(1..4, 1..92, [0, 4, 4, 0, 0, 5, 0, 0, 0, 4, 6, 4, 0, 1, 0, 5, 9, 0, 7, 6, 0, 0, 0, 8, 0, 0, 2, 5, 4, 0, 0, 0, 2, 6, 0, 4, 7, 9, 0, 0, 3, 0, 0, 8, 0, 8, 0, 0, 1, 0, 0, 4, 8, 0, 10, 8, 10, 2, 0, 0, 6, 0, 9, 2, 2, 0, 0, 7, 2, 0, 0, 1, 0, 4, 6, 0, 3, 2, 0, 0, 0, 0, 0, 0, 0, 4, 6, 5, 0, 0, 0, 0, 0, 6, 8, 0, 7, 5, 4, 0, 0, 10, 0, 0, 9, 9, 0, 2, 0, 0, 5, 0, 0, 0, 0, 1, 9, 8, 0, 5, 0, 10, 1, 9, 1, 0, 0, 0, 4, 1, 1, 0, 2, 4, 3, 0, 0, 2, 4, 0, 0, 1, 9, 0, 0, 0, 8, 7, 0, 10, 10, 2, 10, 0, 2, 10, 2, 9, 0, 0, 0, 9, 3, 4, 0, 0, 0, 9, 5, 1, 10, 0, 0, 6, 7, 0, 9, 0, 2, 4, 5, 6, 0, 0, 0, 3, 0, 2, 0, 8, 0, 6, 0, 10, 3, 0, 0, 9, 8, 9, 7, 1, 5, 0, 0, 6, 5, 0, 0, 0, 7, 0, 0, 10, 3, 6, 2, 7, 10, 3, 7, 0, 2, 0, 0, 6, 0, 5, 8, 0, 0, 0, 0, 4, 10, 0, 7, 8, 0, 0, 4, 5, 3, 0, 0, 7, 0, 5, 0, 0, 5, 6, 10, 10, 6, 9, 0, 0, 0, 1, 0, 4, 1, 5, 10, 0, 0, 10, 0, 4, 0, 3, 0, 0, 1, 0, 0, 0, 0, 0, 0, 9, 8, 0, 6, 0, 0, 0, 0, 0, 8, 0, 4, 0, 0, 0, 4, 0, 0, 1, 0, 0, 4, 0, 0, 9, 0, 3, 0, 3, 10, 0, 0, 8, 0, 10, 0, 0, 3, 0, 8, 0, 2, 4, 0, 0, 0, 5, 0, 0, 0, 1, 10, 7, 3, 10, 3, 0, 0, 8, 0, 0, 1, 6, 0, 0, 0, 3, 3, 2, 0, 0, 0, 0, 0, 0, 0, 0, 7, 0, 5, 0, 0, 0, 3, 0, 0, 0]);

suc = [
   {2, 3, 4},
   {8, 5, 6},
   {14},
   {24, 18, 15},
   {9, 12, 21},
   {64, 43, 7},
   {16, 56, 11},
   {17, 35, 22},
   {72, 10, 26},
   {13},
   {32, 19, 30},
   {28},
   {51, 27},
   {36, 84, 23},
   {59, 20, 68},
   {83},
   {30},
   {55},
   {34, 29, 31},
   {65},
   {25},
   {83},
   {48, 70},
   {76},
   {33, 42, 46},
   {66, 67},
   {57},
   {75, 45},
   {73, 69},
   {37},
   {40},
   {48, 66, 47},
   {84},
   {57, 44, 38},
   {70, 54, 39},
   {41},
   {53},
   {59, 77},
   {67},
   {62},
   {49, 58, 69},
   {52, 79},
   {48},
   {50},
   {46},
   {76},
   {86},
   {78},
   {87},
   {69, 55},
   {61},
   {78},
   {89},
   {65},
   {67},
   {71},
   {84},
   {80},
   {66, 60},
   {78},
   {82, 63},
   {74},
   {85},
   {76},
   {81},
   {73, 75},
   {80},
   {81},
   {89},
   {77},
   {85},
   {91, 85},
   {80, 90},
   {77},
   {87},
   {82},
   {90},
   {81},
   {88},
   {83},
   {88},
   {91},
   {86},
   {88},
   {89},
   {87},
   {91},
   {90},
   {92},
   {92},
   {92},
   {  } ];

deadline = array2d(1..92, 1..3, [2, 4, 5, 2, 1, 3, 5, 4, 5, 7, 5, 2, 10, 0, 1, 15, 1, 4, 16, 2, 3, 19, 3, 2, 22, 1, 0, 31, 0, 5, 31, 4, 1, 39, 4, 4, 42, 5, 3, 43, 4, 1, 45, 4, 4, 46, 2, 4, 54, 1, 1, 55, 3, 4, 59, 5, 4, 59, 1, 5, 60, 0, 1, 61, 1, 0, 62, 0, 1, 65, 2, 1, 68, 0, 5, 73, 4, 3, 74, 2, 5, 75, 0, 0, 77, 5, 3, 85, 0, 1, 86, 2, 2, 87, 5, 0, 88, 1, 4, 89, 5, 4, 90, 4, 3, 91, 0, 3, 92, 1, 4, 95, 2, 0, 97, 4, 2, 99, 3, 0, 101, 3, 0, 107, 4, 0, 109, 1, 5, 109, 5, 3, 112, 1, 4, 113, 2, 0, 123, 5, 2, 126, 2, 2, 127, 4, 4, 130, 0, 1, 134, 2, 5, 140, 1, 5, 142, 0, 3, 144, 2, 1, 148, 4, 4, 155, 0, 5, 156, 0, 3, 161, 1, 5, 161, 1, 5, 162, 3, 2, 164, 2, 2, 173, 1, 5, 174, 3, 1, 175, 3, 4, 175, 2, 0, 176, 1, 0, 182, 5, 0, 182, 4, 0, 184, 0, 4, 184, 1, 1, 185, 4, 4, 190, 5, 5, 192, 4, 1, 193, 3, 0, 194, 3, 4, 196, 0, 5, 197, 1, 4, 204, 1, 1, 205, 4, 0, 205, 3, 0, 207, 1, 1, 209, 4, 5, 213, 0, 1, 217, 4, 5, 218, 0, 0, 219, 4, 2, 220, 3, 4, 220, 0, 2, 223, 1, 2, 225, 5, 3, 232, 3, 3, 242, 2, 4]);
