n_res = 4;
rc = [ 17, 18, 21, 20 ];
n_tasks = 92;
d = [0, 7, 1, 8, 2, 2, 10, 5, 6, 1, 1, 8, 9, 1, 2, 4, 1, 3, 9, 3, 3, 3, 8, 3, 9, 2, 7, 6, 1, 3, 4, 1, 9, 5, 5, 6, 2, 10, 1, 6, 1, 6, 7, 1, 7, 9, 9, 4, 4, 4, 4, 3, 8, 7, 6, 7, 10, 6, 5, 1, 2, 3, 9, 1, 2, 8, 3, 5, 5, 10, 7, 8, 8, 3, 9, 4, 3, 4, 7, 10, 1, 7, 2, 7, 2, 9, 7, 5, 4, 8, 8, 0];
rr = array2d(1..4, 1..92, [0, 0, 0, 0, 7, 0, 5, 2, 0, 9, 3, 0, 0, 5, 0, 0, 2, 0, 0, 0, 1, 10, 0, 0, 0, 0, 1, 0, 5, 1, 4, 0, 0, 0, 8, 3, 5, 0, 0, 1, 0, 0, 0, 0, 0, 0, 0, 0, 0, 0, 10, 0, 0, 0, 4, 1, 9, 4, 0, 0, 9, 2, 0, 3, 0, 3, 3, 0, 0, 0, 0, 0, 10, 1, 10, 9, 0, 5, 0, 5, 1, 0, 4, 2, 0, 6, 0, 0, 0, 8, 0, 0, 0, 7, 0, 2, 1, 10, 9, 1, 6, 0, 9, 5, 7, 4, 0, 1, 0, 0, 0, 0, 0, 4, 0, 4, 0, 0, 0, 0, 0, 0, 0, 0, 0, 3, 0, 0, 1, 2, 9, 0, 0, 3, 0, 0, 7, 0, 4, 4, 9, 6, 1, 5, 0, 0, 0, 0, 0, 7, 0, 9, 10, 0, 0, 0, 0, 5, 5, 0, 10, 0, 7, 0, 0, 0, 0, 7, 10, 0, 0, 9, 0, 9, 0, 9, 0, 10, 0, 0, 0, 0, 5, 0, 0, 6, 1, 0, 0, 5, 0, 0, 0, 9, 2, 8, 0, 0, 9, 0, 0, 0, 3, 10, 10, 5, 3, 6, 3, 0, 0, 10, 0, 0, 0, 5, 0, 0, 1, 0, 0, 0, 9, 7, 9, 4, 4, 7, 8, 3, 6, 10, 10, 9, 0, 0, 9, 7, 0, 0, 0, 1, 9, 6, 7, 4, 8, 5, 6, 10, 4, 1, 4, 9, 3, 0, 6, 9, 0, 0, 5, 0, 2, 7, 0, 0, 8, 0, 4, 0, 7, 8, 6, 0, 1, 0, 0, 4, 3, 3, 0, 0, 0, 0, 0, 0, 0, 10, 3, 0, 10, 0, 7, 6, 0, 0, 9, 0, 0, 9, 1, 2, 0, 0, 0, 4, 3, 2, 5, 0, 4, 0, 0, 6, 5, 0, 0, 6, 0, 5, 5, 0, 0, 10, 0, 0, 9, 8, 7, 1, 9, 4, 5, 9, 3, 0, 0, 0, 2, 10, 9, 9, 1, 0, 0, 8, 0, 1, 4, 4, 0, 0, 0, 0, 0, 0, 10, 0, 0, 6, 0, 0, 7, 4, 0, 8, 10, 0]);

suc = [
   {2, 3, 4},
   {10, 13, 5},
   {33, 27, 12},
   {40, 45, 6},
   {8, 17, 31},
   {9, 11, 7},
   {14, 55},
   {78, 21, 30},
   {18, 26, 34},
   {35, 19, 29},
   {72, 86, 15},
   {50, 22},
   {24, 20, 23},
   {16, 60, 38},
   {73, 67},
   {52},
   {28},
   {42},
   {72},
   {25, 68, 76},
   {85},
   {57, 74},
   {32, 76, 54},
   {53},
   {81},
   {49, 46, 47},
   {28},
   {75, 59, 69},
   {36},
   {39},
   {63},
   {37},
   {56, 82},
   {56, 65},
   {64, 41, 79},
   {51},
   {48},
   {83},
   {45},
   {53},
   {62},
   {43, 71},
   {44},
   {60, 47},
   {81},
   {66},
   {90},
   {70, 87},
   {67},
   {90},
   {58},
   {58},
   {61, 70},
   {61},
   {60, 70},
   {85},
   {63},
   {91},
   {84},
   {79},
   {88},
   {80},
   {82},
   {76},
   {68},
   {87},
   {82},
   {71},
   {84},
   {75},
   {77},
   {90},
   {85},
   {75, 84},
   {77},
   {81},
   {88},
   {80, 87},
   {88},
   {86},
   {83},
   {83},
   {91},
   {86},
   {89},
   {91},
   {89},
   {89},
   {92},
   {92},
   {92},
   {  } ];

deadline = array2d(1..92, 1..3, [3, 3, 1, 4, 2, 5, 7, 3, 0, 9, 2, 5, 13, 1, 1, 14, 3, 1, 19, 3, 4, 19, 0, 3, 19, 1, 4, 20, 1, 5, 20, 5, 0, 22, 1, 0, 22, 5, 5, 23, 1, 1, 25, 3, 0, 26, 4, 4, 27, 5, 3, 28, 0, 4, 28, 0, 4, 30, 5, 4, 32, 4, 0, 41, 4, 0, 43, 1, 0, 44, 1, 2, 45, 0, 0, 47, 1, 0, 47, 3, 3, 49, 4, 5, 50, 2, 5, 50, 3, 5, 51, 3, 0, 52, 4, 3, 56, 3, 5, 58, 4, 3, 59, 1, 2, 63, 1, 1, 65, 5, 4, 67, 3, 4, 67, 4, 2, 70, 2, 3, 70, 4, 0, 71, 5, 5, 72, 0, 2, 73, 0, 4, 75, 1, 4, 80, 1, 2, 80, 5, 2, 82, 2, 4, 82, 4, 1, 83, 0, 0, 83, 0, 5, 85, 0, 0, 94, 1, 3, 94, 2, 2, 94, 4, 5, 97, 5, 5, 98, 5, 3, 98, 1, 1, 99, 1, 4, 100, 2, 2, 102, 0, 0, 103, 0, 3, 104, 3, 0, 109, 3, 0, 111, 0, 3, 112, 2, 4, 120, 3, 2, 126, 0, 1, 126, 5, 0, 127, 5, 3, 132, 5, 0, 133, 3, 4, 134, 0, 0, 136, 4, 0, 137, 0, 1, 138, 4, 4, 138, 2, 4, 139, 4, 2, 141, 0, 0, 146, 1, 4, 146, 5, 5, 147, 3, 0, 147, 4, 4, 148, 1, 5, 148, 3, 3, 148, 3, 3, 150, 1, 1, 152, 5, 1, 153, 3, 1, 154, 0, 5, 154, 2, 4, 155, 5, 5]);
