n_res = 4;
rc = [ 50, 45, 47, 54 ];
n_tasks = 92;
d = [0, 3, 1, 6, 2, 3, 5, 10, 6, 5, 4, 10, 1, 6, 6, 9, 8, 2, 8, 2, 7, 9, 9, 6, 10, 8, 6, 6, 2, 7, 4, 6, 7, 4, 2, 8, 4, 1, 7, 3, 9, 9, 8, 9, 8, 3, 9, 10, 9, 3, 4, 9, 8, 10, 1, 3, 7, 6, 7, 6, 8, 6, 9, 8, 1, 3, 10, 1, 6, 2, 5, 10, 9, 10, 10, 5, 8, 8, 7, 9, 1, 2, 3, 8, 1, 9, 7, 2, 4, 6, 7, 0];
rr = array2d(1..4, 1..92, [0, 1, 4, 6, 9, 5, 1, 5, 7, 7, 3, 10, 2, 7, 9, 5, 8, 9, 1, 4, 1, 4, 2, 7, 8, 9, 7, 3, 6, 9, 3, 9, 6, 1, 10, 4, 5, 8, 5, 8, 7, 10, 6, 8, 9, 8, 4, 10, 10, 5, 1, 1, 1, 1, 5, 5, 7, 9, 3, 4, 10, 6, 6, 4, 10, 3, 8, 3, 3, 9, 2, 3, 1, 2, 3, 10, 5, 4, 10, 5, 8, 10, 9, 5, 7, 1, 8, 2, 8, 6, 4, 0, 0, 1, 1, 4, 6, 10, 3, 9, 2, 6, 10, 10, 8, 1, 4, 7, 3, 1, 2, 10, 8, 7, 3, 1, 2, 3, 3, 9, 2, 7, 2, 2, 4, 7, 4, 4, 8, 3, 3, 10, 8, 8, 3, 9, 5, 8, 6, 7, 2, 3, 3, 3, 8, 10, 2, 4, 8, 5, 10, 2, 1, 6, 1, 2, 7, 6, 8, 8, 8, 9, 2, 7, 4, 6, 7, 10, 1, 10, 1, 1, 9, 10, 1, 1, 9, 1, 2, 3, 7, 5, 1, 0, 0, 9, 6, 8, 9, 9, 9, 7, 5, 3, 3, 8, 6, 7, 4, 3, 4, 8, 4, 1, 5, 3, 6, 2, 4, 1, 6, 6, 4, 6, 4, 3, 2, 9, 9, 7, 4, 5, 9, 7, 8, 9, 6, 9, 1, 3, 2, 5, 5, 6, 6, 1, 3, 1, 9, 8, 2, 2, 3, 1, 7, 3, 9, 4, 5, 8, 5, 7, 5, 7, 1, 7, 6, 8, 6, 5, 6, 8, 9, 1, 10, 10, 1, 7, 2, 3, 3, 7, 7, 9, 3, 0, 0, 4, 4, 8, 5, 1, 9, 10, 1, 10, 4, 3, 9, 6, 4, 8, 6, 10, 7, 4, 4, 9, 4, 3, 3, 6, 5, 5, 6, 2, 6, 4, 3, 1, 8, 5, 3, 7, 8, 9, 5, 8, 4, 2, 5, 5, 9, 9, 9, 7, 4, 6, 3, 2, 3, 8, 6, 2, 5, 5, 9, 3, 6, 4, 10, 2, 1, 3, 1, 10, 6, 5, 5, 4, 7, 2, 3, 7, 9, 3, 4, 3, 1, 1, 9, 3, 6, 7, 5, 7, 9, 0]);

suc = [
   {2, 3, 4},
   {8, 6, 7},
   {19, 11, 14},
   {5},
   {9, 12, 17},
   {34},
   {10, 18, 46},
   {56, 49, 13},
   {91, 51},
   {16, 22, 23},
   {52, 37, 15},
   {48, 61, 21},
   {74, 19, 20},
   {64, 15},
   {42, 27, 78},
   {58, 38, 39},
   {54},
   {24, 53, 31},
   {26, 30},
   {36},
   {33, 28},
   {33, 85},
   {81, 66, 75},
   {25, 29, 47},
   {66, 45, 55},
   {65, 75, 77},
   {32, 50, 35},
   {40, 34},
   {41},
   {88},
   {57, 44, 52},
   {54, 57, 38},
   {89, 74},
   {68},
   {43, 71},
   {51, 37},
   {80},
   {84, 69},
   {59},
   {43},
   {48},
   {76, 62},
   {67},
   {51, 69, 63},
   {64},
   {76, 54},
   {67, 68},
   {71},
   {64, 60},
   {91},
   {81, 61, 62},
   {61},
   {60},
   {73},
   {70},
   {57},
   {91},
   {78},
   {84, 86},
   {79},
   {86, 70},
   {65, 66, 70},
   {73},
   {69, 78},
   {67},
   {72, 71},
   {87},
   {73, 74},
   {72, 81, 76},
   {72},
   {89, 82},
   {83, 77},
   {77, 79},
   {75, 86},
   {84, 87},
   {80, 83},
   {88, 82},
   {80, 79},
   {82},
   {89},
   {83},
   {85},
   {85},
   {88},
   {87},
   {90},
   {90},
   {90},
   {92},
   {92},
   {92},
   {  } ];

deadline = array2d(1..92, 1..3, [4, 4, 1, 7, 1, 3, 9, 0, 1, 12, 0, 4, 16, 3, 5, 23, 3, 4, 23, 5, 4, 24, 2, 5, 24, 3, 3, 28, 2, 3, 29, 2, 5, 32, 1, 2, 43, 0, 0, 44, 3, 0, 48, 3, 3, 49, 4, 5, 50, 1, 2, 51, 5, 0, 52, 3, 2, 52, 5, 3, 54, 5, 0, 55, 2, 3, 55, 5, 2, 58, 3, 5, 64, 2, 5, 64, 3, 2, 66, 1, 5, 72, 3, 2, 79, 5, 3, 81, 1, 4, 81, 0, 0, 81, 4, 4, 83, 4, 2, 84, 4, 3, 84, 0, 0, 85, 3, 1, 88, 3, 3, 89, 1, 5, 89, 5, 2, 92, 2, 5, 93, 1, 5, 93, 1, 4, 94, 3, 1, 95, 2, 0, 104, 2, 4, 104, 2, 5, 104, 1, 2, 105, 2, 2, 107, 0, 1, 115, 5, 5, 115, 1, 4, 116, 2, 1, 116, 2, 4, 117, 5, 5, 120, 1, 1, 121, 2, 5, 128, 3, 5, 129, 4, 4, 129, 0, 5, 133, 1, 3, 134, 4, 4, 136, 2, 3, 136, 0, 5, 138, 4, 1, 139, 5, 1, 139, 3, 0, 140, 1, 1, 140, 5, 5, 144, 5, 3, 146, 4, 1, 146, 1, 4, 147, 2, 2, 153, 1, 5, 153, 0, 2, 161, 5, 4, 166, 2, 3, 167, 3, 2, 176, 4, 3, 177, 2, 3, 178, 4, 1, 179, 3, 2, 180, 0, 3, 180, 0, 3, 182, 0, 1, 183, 2, 1, 185, 4, 2, 187, 1, 1, 187, 3, 2, 192, 5, 0, 195, 0, 5, 203, 5, 5, 205, 3, 4]);
