n_res = 4;
rc = [ 54, 39, 61, 60 ];
n_tasks = 92;
d = [0, 4, 6, 3, 7, 6, 5, 7, 6, 3, 5, 2, 10, 1, 8, 3, 7, 5, 6, 10, 5, 9, 2, 6, 2, 2, 1, 6, 6, 9, 6, 7, 1, 1, 1, 9, 2, 3, 6, 6, 7, 1, 10, 7, 10, 6, 9, 6, 3, 6, 5, 10, 3, 5, 8, 5, 5, 2, 7, 7, 1, 10, 2, 7, 5, 7, 5, 1, 6, 5, 2, 9, 7, 7, 7, 6, 4, 10, 7, 3, 4, 4, 6, 5, 5, 1, 1, 9, 1, 1, 6, 0];
rr = array2d(1..4, 1..92, [0, 8, 5, 2, 10, 6, 9, 10, 4, 8, 4, 3, 9, 9, 4, 1, 7, 0, 3, 1, 4, 4, 7, 0, 4, 0, 0, 0, 8, 3, 0, 6, 10, 3, 8, 8, 1, 3, 0, 1, 5, 3, 7, 4, 2, 0, 0, 3, 0, 5, 10, 7, 0, 6, 0, 5, 9, 0, 3, 0, 4, 2, 3, 10, 4, 4, 1, 5, 1, 0, 2, 2, 0, 0, 8, 7, 0, 3, 9, 0, 2, 0, 0, 7, 8, 10, 2, 0, 2, 3, 7, 0, 0, 8, 0, 9, 4, 6, 0, 5, 6, 5, 6, 5, 4, 0, 1, 0, 4, 5, 10, 7, 0, 5, 0, 0, 4, 5, 0, 8, 1, 5, 0, 3, 7, 8, 3, 5, 6, 9, 0, 5, 0, 2, 4, 3, 4, 10, 8, 6, 9, 3, 3, 7, 4, 1, 9, 3, 10, 3, 10, 0, 1, 7, 7, 5, 7, 9, 7, 10, 8, 1, 2, 0, 8, 10, 3, 0, 1, 6, 0, 8, 1, 0, 4, 10, 0, 0, 0, 6, 0, 1, 0, 0, 0, 2, 9, 0, 1, 7, 5, 0, 10, 7, 9, 2, 2, 0, 10, 10, 0, 9, 5, 4, 6, 3, 9, 7, 10, 10, 10, 1, 0, 6, 0, 9, 4, 1, 0, 0, 0, 0, 1, 8, 6, 0, 7, 0, 0, 10, 9, 2, 4, 2, 10, 9, 0, 3, 1, 0, 0, 8, 6, 6, 2, 0, 0, 0, 5, 1, 7, 0, 0, 7, 1, 6, 3, 10, 3, 5, 7, 0, 0, 9, 2, 6, 4, 5, 10, 1, 6, 8, 1, 5, 0, 0, 0, 6, 0, 3, 5, 0, 8, 10, 6, 7, 1, 9, 3, 1, 5, 9, 1, 8, 5, 7, 6, 0, 6, 6, 4, 5, 0, 3, 0, 3, 10, 1, 2, 0, 5, 10, 5, 0, 3, 3, 5, 0, 4, 4, 0, 0, 3, 8, 0, 5, 8, 0, 0, 2, 1, 5, 10, 6, 0, 4, 3, 5, 8, 1, 0, 0, 8, 2, 0, 8, 4, 3, 5, 4, 7, 0, 0, 0, 1, 9, 2, 2, 8, 0, 2, 5, 0, 1, 3, 2, 3, 0]);

suc = [
   {2, 3, 4},
   {49, 75, 5},
   {10, 14, 31},
   {8, 7},
   {32, 18, 6},
   {9, 11, 23},
   {25, 27, 41},
   {17, 35, 46},
   {12, 13, 79},
   {65, 58, 55},
   {85},
   {52, 38},
   {19, 20, 78},
   {15},
   {16, 69, 29},
   {83},
   {34, 39},
   {42, 37},
   {43, 45},
   {28, 21, 22},
   {33},
   {24},
   {43, 31},
   {46},
   {48, 26, 37},
   {52, 30, 60},
   {54, 50, 46},
   {81, 37},
   {74, 51},
   {35, 36, 54},
   {87},
   {50},
   {58, 44, 61},
   {40, 67, 45},
   {57, 44},
   {71},
   {73, 63, 47},
   {45},
   {52},
   {64},
   {76, 77, 55},
   {82, 43, 86},
   {68, 71, 55},
   {47},
   {64, 90},
   {48},
   {69},
   {59, 53},
   {60},
   {72, 84, 77},
   {79},
   {89, 78},
   {56, 58},
   {56},
   {88},
   {64, 62},
   {77},
   {91},
   {80, 63},
   {66, 67, 68},
   {65, 67, 63},
   {80, 65, 66},
   {68, 69},
   {74, 86},
   {76},
   {71},
   {70},
   {84},
   {82, 83},
   {73, 74},
   {72},
   {81, 73, 87},
   {89},
   {76},
   {88},
   {82},
   {83},
   {81, 85, 87},
   {80},
   {90},
   {88},
   {84},
   {85},
   {89},
   {86},
   {91},
   {91},
   {90},
   {92},
   {92},
   {92},
   {  } ];

deadline = array2d(1..92, 1..3, [2, 4, 0, 7, 2, 5, 8, 2, 4, 12, 3, 1, 15, 4, 4, 16, 2, 4, 22, 1, 0, 25, 4, 5, 34, 3, 0, 35, 5, 1, 41, 3, 3, 56, 0, 3, 58, 5, 4, 60, 4, 0, 60, 3, 0, 63, 0, 0, 66, 4, 1, 70, 5, 4, 77, 4, 5, 89, 3, 5, 93, 1, 4, 95, 3, 3, 99, 4, 0, 100, 3, 1, 106, 5, 0, 108, 0, 5, 109, 0, 4, 111, 1, 2, 116, 4, 5, 122, 3, 4, 123, 5, 0, 125, 0, 5, 127, 0, 2, 130, 5, 1, 134, 2, 0, 136, 5, 4, 137, 1, 2, 138, 3, 2, 142, 0, 1, 142, 4, 2, 143, 5, 5, 144, 5, 3, 151, 4, 0, 160, 1, 0, 160, 3, 2, 162, 2, 1, 165, 3, 1, 165, 1, 4, 165, 2, 4, 168, 0, 1, 169, 4, 1, 173, 0, 4, 180, 0, 2, 185, 1, 0, 190, 0, 3, 190, 2, 2, 191, 2, 3, 194, 2, 2, 206, 4, 0, 209, 4, 0, 210, 4, 3, 211, 1, 3, 214, 3, 5, 217, 3, 4, 219, 5, 3, 219, 1, 2, 220, 2, 2, 222, 2, 1, 224, 2, 4, 225, 2, 2, 240, 0, 1, 247, 3, 0, 250, 1, 2, 251, 3, 2, 253, 1, 0, 255, 1, 4, 258, 3, 4, 259, 2, 4, 261, 5, 2, 261, 1, 4, 262, 0, 1, 263, 0, 3, 265, 5, 2, 267, 1, 2, 275, 4, 1, 277, 3, 4, 283, 0, 3, 286, 0, 1, 288, 4, 5, 297, 0, 2, 297, 4, 5, 300, 0, 4]);
