n_res = 4;
rc = [ 30, 31, 34, 28 ];
n_tasks = 92;
d = [0, 8, 7, 10, 8, 5, 9, 9, 2, 7, 8, 3, 7, 2, 8, 8, 1, 1, 5, 8, 4, 2, 3, 3, 8, 4, 4, 6, 8, 6, 2, 7, 4, 2, 9, 4, 6, 8, 10, 2, 10, 1, 5, 1, 8, 2, 5, 3, 6, 6, 9, 10, 6, 10, 6, 8, 2, 9, 6, 7, 9, 3, 7, 4, 3, 5, 2, 7, 7, 1, 8, 9, 9, 10, 8, 2, 2, 1, 8, 2, 9, 9, 1, 7, 6, 9, 7, 4, 2, 9, 1, 0];
rr = array2d(1..4, 1..92, [0, 6, 0, 4, 5, 1, 10, 9, 2, 7, 0, 8, 0, 6, 3, 0, 10, 7, 0, 1, 3, 9, 1, 7, 0, 1, 0, 0, 0, 5, 0, 8, 5, 0, 9, 2, 8, 0, 1, 9, 10, 7, 2, 7, 1, 0, 2, 7, 3, 7, 0, 4, 3, 1, 6, 5, 9, 2, 0, 8, 2, 8, 4, 4, 1, 0, 9, 0, 9, 1, 1, 0, 7, 5, 6, 10, 3, 3, 10, 0, 2, 0, 6, 9, 5, 3, 9, 0, 0, 0, 6, 0, 0, 3, 1, 2, 3, 2, 0, 1, 0, 10, 5, 6, 0, 0, 0, 0, 0, 4, 9, 3, 0, 10, 1, 6, 9, 5, 0, 8, 0, 0, 0, 3, 9, 9, 10, 0, 0, 0, 1, 3, 0, 5, 10, 3, 5, 0, 5, 10, 0, 9, 5, 7, 9, 6, 9, 8, 0, 9, 6, 4, 8, 8, 7, 1, 1, 0, 0, 1, 4, 5, 10, 10, 10, 6, 0, 10, 2, 9, 3, 9, 10, 0, 0, 0, 6, 3, 0, 5, 8, 8, 9, 0, 0, 5, 7, 1, 6, 7, 6, 8, 0, 3, 0, 9, 1, 0, 0, 3, 10, 0, 7, 1, 0, 6, 9, 0, 10, 6, 3, 9, 8, 4, 6, 10, 1, 6, 9, 7, 9, 9, 10, 10, 2, 5, 5, 10, 9, 0, 2, 10, 4, 6, 9, 9, 7, 6, 2, 9, 9, 7, 8, 10, 10, 8, 8, 0, 2, 3, 4, 6, 6, 7, 6, 5, 8, 0, 0, 0, 2, 3, 6, 3, 0, 0, 1, 3, 0, 0, 3, 0, 0, 7, 1, 0, 0, 10, 1, 0, 2, 4, 2, 8, 9, 0, 10, 6, 10, 2, 7, 2, 4, 0, 9, 0, 8, 7, 3, 0, 6, 0, 4, 0, 7, 0, 0, 0, 8, 2, 5, 5, 0, 8, 7, 0, 0, 9, 6, 9, 3, 6, 7, 1, 5, 0, 4, 9, 0, 8, 2, 5, 7, 4, 9, 0, 7, 10, 4, 5, 0, 6, 1, 5, 6, 4, 3, 0, 2, 6, 4, 2, 6, 4, 1, 0, 7, 6, 0, 5, 0, 9, 8, 1, 5, 0, 9, 0]);

suc = [
   {2, 3, 4},
   {17, 21, 7},
   {8, 5, 6},
   {19, 23},
   {9, 45, 23},
   {49, 18, 13},
   {10, 19, 38},
   {75, 54},
   {12, 30, 31},
   {27, 11, 20},
   {33, 46, 15},
   {16, 57, 14},
   {67, 55},
   {77, 53},
   {67, 28},
   {25, 42, 29},
   {24, 22},
   {42, 66, 47},
   {37, 22},
   {35, 68, 69},
   {26, 52, 69},
   {64, 28, 53},
   {47, 86, 39},
   {43, 60},
   {32, 28, 60},
   {44, 37, 31},
   {81, 65, 79},
   {83, 63, 47},
   {40, 46},
   {40, 74, 54},
   {66, 35, 68},
   {65, 41, 71},
   {34, 36, 44},
   {73, 49, 35},
   {88, 51, 71},
   {59, 61},
   {73, 58, 90},
   {48, 70, 55},
   {57, 53, 78},
   {41, 51},
   {49, 43, 52},
   {88, 44},
   {81, 50, 55},
   {61},
   {48, 50, 61},
   {65, 59, 77},
   {73, 84},
   {58, 51, 71},
   {64, 59, 86},
   {75, 84},
   {76},
   {70, 62, 79},
   {56},
   {56, 57, 63},
   {64, 58},
   {60, 85},
   {85},
   {78},
   {62, 63},
   {67, 69, 62},
   {89, 76},
   {72},
   {78, 70},
   {66, 68},
   {80},
   {72, 80},
   {84},
   {83},
   {91},
   {72, 88},
   {74, 75, 76},
   {87},
   {80, 74},
   {82},
   {77},
   {81, 79},
   {82, 90},
   {82},
   {86},
   {87},
   {83},
   {87},
   {85},
   {89},
   {90},
   {91},
   {89},
   {91},
   {92},
   {92},
   {92},
   {  } ];

deadline = array2d(1..92, 1..3, [6, 0, 3, 9, 0, 1, 11, 1, 1, 12, 5, 5, 14, 3, 5, 20, 5, 3, 22, 0, 4, 27, 2, 4, 30, 3, 2, 31, 5, 0, 32, 0, 5, 38, 0, 1, 39, 0, 1, 39, 3, 5, 40, 0, 2, 40, 3, 2, 40, 0, 2, 42, 1, 3, 44, 2, 0, 48, 2, 5, 50, 2, 5, 55, 0, 2, 58, 2, 4, 63, 0, 4, 65, 0, 2, 66, 0, 3, 75, 2, 1, 77, 4, 4, 78, 3, 2, 79, 0, 1, 80, 1, 3, 84, 4, 5, 85, 2, 4, 85, 5, 0, 85, 1, 2, 90, 5, 1, 94, 4, 5, 97, 2, 3, 104, 5, 0, 106, 1, 0, 107, 5, 3, 120, 3, 2, 123, 3, 4, 126, 3, 1, 126, 3, 5, 133, 1, 4, 135, 3, 1, 135, 4, 4, 137, 3, 4, 139, 3, 3, 140, 4, 0, 142, 1, 5, 145, 4, 4, 149, 5, 1, 150, 1, 5, 155, 3, 2, 155, 1, 2, 156, 3, 1, 160, 5, 5, 166, 3, 3, 166, 1, 4, 167, 4, 5, 168, 3, 4, 173, 2, 1, 175, 0, 5, 176, 4, 0, 178, 3, 5, 178, 1, 0, 180, 2, 2, 185, 4, 0, 186, 4, 0, 188, 1, 5, 189, 4, 4, 190, 3, 2, 192, 2, 3, 192, 4, 0, 195, 5, 5, 197, 4, 4, 198, 3, 4, 208, 1, 3, 208, 1, 0, 209, 4, 2, 211, 4, 0, 213, 0, 4, 217, 4, 5, 219, 0, 1, 220, 3, 5, 222, 3, 3, 225, 4, 3, 225, 0, 3, 226, 4, 5, 230, 5, 1]);
