n_res = 4;
rc = [ 14, 13, 12, 14 ];
n_tasks = 92;
d = [0, 3, 9, 8, 4, 10, 3, 2, 1, 9, 2, 2, 2, 6, 6, 5, 4, 1, 10, 9, 5, 10, 8, 10, 4, 1, 7, 7, 9, 1, 3, 5, 10, 9, 6, 3, 2, 8, 8, 2, 2, 4, 10, 1, 9, 5, 3, 10, 1, 10, 7, 1, 10, 3, 1, 9, 1, 3, 1, 9, 10, 2, 9, 6, 5, 3, 7, 1, 9, 9, 6, 7, 1, 8, 7, 2, 3, 8, 7, 5, 1, 2, 3, 6, 10, 8, 3, 10, 8, 7, 9, 0];
rr = array2d(1..4, 1..92, [0, 0, 0, 0, 0, 0, 0, 0, 10, 0, 0, 0, 0, 0, 0, 0, 0, 10, 0, 0, 9, 0, 0, 1, 3, 2, 0, 0, 0, 0, 0, 0, 0, 0, 0, 6, 0, 0, 0, 0, 0, 4, 0, 10, 0, 0, 0, 0, 0, 0, 0, 0, 6, 0, 0, 0, 0, 0, 0, 1, 0, 0, 0, 4, 10, 0, 0, 4, 0, 0, 1, 2, 0, 0, 0, 0, 0, 0, 0, 0, 0, 2, 0, 0, 0, 0, 0, 0, 3, 0, 0, 0, 0, 0, 6, 4, 0, 0, 10, 0, 0, 0, 10, 0, 10, 4, 9, 0, 5, 0, 1, 0, 0, 0, 0, 0, 0, 0, 7, 0, 0, 0, 4, 0, 0, 0, 0, 0, 0, 0, 0, 0, 0, 0, 0, 0, 0, 0, 4, 3, 0, 0, 0, 0, 0, 3, 0, 5, 0, 4, 0, 0, 0, 0, 0, 0, 0, 8, 1, 0, 10, 0, 0, 0, 3, 5, 4, 0, 0, 9, 10, 0, 0, 0, 1, 0, 0, 9, 0, 0, 0, 0, 0, 0, 0, 0, 0, 0, 0, 3, 0, 4, 0, 9, 0, 7, 0, 0, 0, 0, 0, 0, 0, 0, 0, 6, 0, 0, 0, 0, 0, 9, 0, 0, 0, 0, 0, 3, 0, 0, 7, 0, 1, 0, 0, 0, 9, 0, 0, 0, 0, 0, 0, 0, 0, 0, 0, 0, 4, 0, 3, 0, 7, 0, 0, 0, 0, 0, 0, 0, 0, 0, 0, 0, 0, 0, 0, 0, 0, 0, 5, 0, 0, 0, 3, 0, 0, 0, 0, 0, 9, 0, 0, 5, 5, 0, 0, 10, 0, 0, 1, 0, 0, 0, 0, 0, 0, 0, 0, 0, 0, 8, 0, 0, 0, 7, 0, 0, 7, 0, 0, 0, 0, 0, 3, 8, 0, 5, 10, 0, 7, 0, 0, 5, 0, 1, 1, 0, 0, 0, 2, 7, 0, 0, 7, 4, 5, 6, 0, 0, 0, 0, 0, 0, 0, 0, 10, 4, 3, 0, 0, 0, 0, 0, 0, 7, 0, 0, 0, 0, 0, 7, 0, 0, 0, 10, 0, 0, 0, 5, 6, 0, 0, 9, 0, 0, 0, 0]);

suc = [
   {2, 3, 4},
   {8, 58, 44},
   {67, 6},
   {16, 5, 14},
   {80},
   {33, 31, 7},
   {9, 18, 12},
   {24, 10, 11},
   {35, 13, 47},
   {15},
   {27, 46},
   {20, 14, 52},
   {26, 19, 71},
   {87},
   {17, 21, 39},
   {48, 85, 23},
   {40, 25, 22},
   {51, 70},
   {32, 28, 30},
   {38},
   {75},
   {60, 68},
   {60},
   {26},
   {36, 29, 62},
   {83, 76},
   {50, 83, 60},
   {41, 34, 45},
   {42, 35, 37},
   {81, 69},
   {69},
   {49, 58, 54},
   {58, 61, 38},
   {78, 62},
   {49, 84, 86},
   {56, 38},
   {73, 66},
   {47},
   {72},
   {53},
   {64, 43, 54},
   {46, 87},
   {80},
   {48, 69, 55},
   {77},
   {65, 70, 71},
   {66, 78},
   {90},
   {64, 51, 52},
   {82},
   {59},
   {79, 70, 55},
   {74},
   {77, 86},
   {75},
   {73, 57, 66},
   {83, 59, 68},
   {74, 59, 76},
   {81},
   {67, 71},
   {62},
   {89, 65, 63},
   {68, 86},
   {77},
   {72, 81, 82},
   {76},
   {78},
   {72},
   {79},
   {89},
   {75},
   {84},
   {74, 82},
   {80},
   {91},
   {91},
   {89},
   {79},
   {91},
   {85},
   {85},
   {84},
   {87},
   {90},
   {88},
   {88},
   {88},
   {90},
   {92},
   {92},
   {92},
   {  } ];

deadline = array2d(1..92, 1..3, [4, 4, 1, 5, 3, 2, 8, 5, 2, 10, 3, 2, 11, 0, 1, 19, 0, 2, 26, 4, 1, 33, 3, 3, 34, 3, 1, 35, 0, 4, 39, 1, 5, 39, 1, 3, 42, 3, 5, 45, 1, 5, 47, 1, 3, 49, 0, 0, 49, 2, 1, 54, 3, 4, 55, 2, 2, 58, 5, 2, 67, 5, 4, 68, 2, 4, 69, 4, 2, 71, 4, 4, 71, 4, 2, 73, 0, 2, 75, 5, 4, 82, 4, 1, 82, 5, 3, 82, 5, 0, 82, 0, 1, 83, 4, 1, 85, 4, 0, 86, 1, 1, 86, 5, 1, 95, 2, 4, 98, 1, 4, 100, 1, 5, 101, 3, 5, 105, 0, 3, 107, 0, 2, 107, 2, 0, 109, 2, 5, 111, 3, 2, 112, 1, 3, 113, 4, 3, 114, 4, 4, 122, 0, 1, 124, 1, 4, 126, 0, 3, 135, 5, 3, 136, 3, 2, 137, 3, 1, 137, 1, 0, 137, 3, 0, 137, 3, 3, 137, 2, 4, 137, 2, 2, 143, 0, 1, 144, 3, 2, 151, 4, 4, 151, 3, 0, 153, 5, 3, 154, 0, 4, 154, 3, 1, 169, 4, 0, 171, 4, 4, 173, 4, 2, 175, 2, 1, 177, 1, 1, 178, 4, 5, 183, 3, 4, 184, 4, 4, 185, 0, 5, 187, 3, 4, 187, 2, 2, 188, 1, 4, 191, 3, 5, 193, 3, 4, 194, 4, 4, 195, 5, 1, 197, 1, 2, 197, 2, 2, 197, 4, 3, 198, 2, 1, 198, 2, 3, 198, 2, 4, 199, 0, 4, 200, 5, 0, 200, 4, 2, 209, 4, 3, 214, 2, 4]);
