n_res = 4;
rc = [ 19, 20, 18, 19 ];
n_tasks = 92;
d = [0, 3, 1, 9, 9, 9, 5, 10, 8, 6, 10, 6, 5, 10, 3, 10, 4, 9, 5, 2, 1, 8, 6, 5, 2, 6, 4, 3, 5, 7, 4, 6, 7, 8, 3, 9, 10, 5, 7, 9, 6, 10, 2, 2, 8, 6, 4, 7, 6, 10, 3, 10, 8, 3, 1, 4, 10, 8, 3, 8, 6, 6, 8, 10, 4, 7, 2, 8, 3, 1, 3, 8, 1, 4, 6, 5, 10, 4, 10, 2, 10, 7, 8, 2, 10, 5, 5, 5, 10, 9, 3, 0];
rr = array2d(1..4, 1..92, [0, 0, 0, 10, 6, 0, 1, 3, 0, 0, 6, 1, 0, 4, 3, 0, 0, 9, 0, 1, 3, 7, 6, 0, 0, 0, 0, 4, 0, 0, 3, 0, 0, 0, 9, 7, 0, 8, 0, 0, 0, 0, 1, 0, 2, 9, 3, 0, 8, 1, 3, 4, 10, 1, 10, 0, 0, 2, 3, 1, 0, 7, 2, 0, 0, 0, 7, 4, 5, 0, 2, 0, 9, 5, 2, 0, 0, 0, 3, 0, 0, 0, 3, 3, 5, 1, 5, 0, 0, 8, 1, 0, 0, 9, 0, 4, 0, 8, 0, 0, 3, 0, 0, 2, 0, 9, 9, 8, 0, 0, 4, 0, 8, 7, 7, 9, 0, 1, 0, 0, 2, 6, 5, 3, 0, 0, 7, 0, 0, 0, 0, 0, 0, 7, 3, 8, 0, 2, 0, 9, 0, 0, 0, 9, 0, 1, 0, 0, 10, 9, 0, 5, 3, 10, 0, 0, 0, 7, 0, 0, 8, 3, 0, 7, 0, 0, 0, 0, 9, 7, 0, 4, 5, 10, 3, 0, 0, 0, 7, 0, 0, 5, 8, 0, 0, 0, 9, 3, 4, 0, 0, 0, 3, 2, 0, 0, 10, 6, 4, 0, 5, 0, 0, 0, 0, 0, 10, 0, 10, 4, 0, 9, 5, 0, 5, 8, 6, 2, 0, 0, 7, 0, 0, 9, 0, 2, 0, 0, 0, 0, 1, 0, 0, 0, 0, 4, 0, 0, 0, 0, 0, 2, 9, 10, 0, 0, 2, 0, 7, 9, 0, 0, 0, 0, 0, 0, 8, 0, 4, 8, 0, 0, 7, 0, 3, 2, 0, 0, 0, 0, 4, 0, 9, 0, 0, 0, 0, 4, 0, 4, 0, 0, 10, 5, 0, 9, 10, 0, 0, 0, 0, 0, 7, 0, 0, 0, 5, 5, 6, 0, 3, 0, 8, 0, 8, 0, 9, 1, 7, 0, 4, 10, 0, 0, 5, 4, 4, 0, 6, 9, 10, 0, 0, 9, 0, 5, 6, 8, 0, 0, 5, 8, 5, 0, 9, 0, 1, 8, 3, 7, 1, 0, 8, 3, 3, 0, 0, 0, 3, 0, 1, 1, 6, 4, 0, 1, 3, 0, 0, 4, 0, 0, 0, 7, 4, 2, 0, 0]);

suc = [
   {2, 3, 4},
   {8, 17, 15},
   {12, 5, 6},
   {24, 9, 31},
   {10, 59, 7},
   {61, 7},
   {49, 18},
   {57},
   {82, 30},
   {11, 20, 13},
   {40, 54},
   {66, 36, 14},
   {34},
   {26, 44, 39},
   {16, 80},
   {45, 19, 21},
   {46, 51, 22},
   {28},
   {52},
   {23},
   {27, 37},
   {84, 61, 55},
   {25, 29, 33},
   {35},
   {60},
   {89},
   {56, 64, 38},
   {75},
   {80},
   {42},
   {32},
   {50, 76, 53},
   {41, 43},
   {38},
   {50},
   {67, 63, 47},
   {57, 44},
   {74},
   {78},
   {53},
   {48, 75},
   {52, 70},
   {52},
   {50},
   {57, 79},
   {65},
   {77, 71},
   {72},
   {71},
   {51},
   {79},
   {89},
   {83, 62},
   {69},
   {58},
   {70},
   {73, 91},
   {86},
   {85},
   {68},
   {62},
   {70},
   {74},
   {86},
   {80},
   {84},
   {90},
   {69},
   {79},
   {72, 87},
   {73},
   {78},
   {83},
   {82},
   {88},
   {81, 84},
   {78},
   {81},
   {91},
   {87},
   {85},
   {89},
   {87},
   {86},
   {88},
   {88, 90},
   {90},
   {91},
   {92},
   {92},
   {92},
   {  } ];

deadline = array2d(1..92, 1..3, [1, 1, 4, 1, 3, 0, 3, 4, 5, 5, 5, 1, 5, 2, 0, 6, 1, 4, 6, 5, 4, 6, 5, 0, 11, 4, 0, 12, 0, 4, 13, 4, 1, 14, 0, 3, 14, 0, 3, 15, 2, 3, 16, 2, 5, 16, 1, 1, 20, 5, 4, 23, 1, 4, 28, 1, 0, 28, 2, 5, 29, 1, 2, 31, 4, 0, 32, 5, 3, 37, 1, 4, 44, 2, 4, 46, 0, 0, 49, 5, 2, 49, 1, 1, 56, 5, 4, 57, 0, 5, 57, 1, 1, 57, 1, 4, 57, 0, 1, 61, 2, 4, 63, 2, 4, 65, 0, 4, 70, 5, 5, 73, 2, 2, 76, 3, 2, 79, 0, 1, 81, 2, 2, 85, 1, 1, 85, 5, 0, 85, 2, 1, 87, 5, 1, 91, 3, 5, 93, 5, 5, 93, 2, 1, 93, 3, 5, 93, 2, 1, 100, 1, 1, 103, 5, 2, 104, 4, 0, 108, 5, 3, 108, 0, 5, 108, 4, 4, 112, 1, 1, 118, 1, 5, 121, 0, 0, 121, 2, 2, 122, 2, 1, 122, 1, 0, 124, 3, 3, 127, 0, 0, 129, 2, 0, 131, 2, 0, 132, 2, 2, 132, 0, 3, 135, 0, 2, 135, 5, 4, 139, 2, 4, 146, 3, 1, 146, 2, 5, 151, 0, 1, 152, 2, 0, 173, 2, 5, 175, 4, 0, 179, 5, 4, 183, 1, 1, 184, 1, 3, 193, 2, 3, 199, 3, 5, 202, 1, 5, 202, 5, 0, 203, 1, 4, 204, 0, 2, 207, 2, 3, 214, 2, 1, 215, 1, 2, 216, 0, 0, 218, 3, 4, 225, 3, 3]);
