n_res = 4;
rc = [ 34, 41, 39, 36 ];
n_tasks = 92;
d = [0, 2, 6, 10, 7, 9, 9, 5, 3, 9, 2, 2, 8, 1, 2, 7, 8, 6, 10, 8, 1, 8, 2, 8, 4, 3, 3, 7, 5, 10, 7, 10, 8, 5, 9, 4, 7, 2, 7, 7, 8, 1, 9, 5, 6, 8, 5, 1, 10, 3, 7, 1, 7, 5, 3, 4, 8, 2, 5, 1, 8, 8, 4, 8, 6, 8, 10, 2, 1, 1, 4, 1, 9, 1, 1, 2, 1, 2, 7, 5, 5, 2, 10, 1, 3, 1, 1, 4, 7, 6, 7, 0];
rr = array2d(1..4, 1..92, [0, 10, 10, 2, 3, 2, 2, 0, 7, 7, 0, 8, 7, 0, 1, 1, 10, 3, 1, 7, 9, 1, 0, 9, 4, 1, 0, 2, 0, 2, 9, 0, 5, 10, 5, 8, 1, 7, 0, 7, 0, 0, 9, 7, 6, 0, 7, 4, 6, 0, 4, 2, 3, 0, 0, 4, 0, 8, 0, 0, 0, 8, 7, 8, 4, 0, 1, 10, 4, 1, 4, 9, 0, 5, 9, 7, 2, 3, 6, 10, 6, 3, 0, 6, 0, 2, 6, 1, 2, 0, 0, 0, 0, 2, 0, 9, 10, 7, 6, 8, 7, 7, 2, 9, 9, 2, 3, 2, 0, 6, 5, 1, 2, 10, 1, 7, 9, 0, 7, 6, 0, 0, 9, 7, 5, 7, 7, 0, 0, 4, 7, 9, 10, 1, 8, 9, 0, 5, 5, 3, 2, 1, 0, 4, 0, 0, 1, 0, 4, 0, 7, 0, 2, 3, 7, 9, 0, 3, 0, 1, 2, 6, 1, 10, 0, 0, 5, 6, 0, 0, 0, 3, 0, 0, 0, 7, 2, 4, 0, 4, 7, 10, 4, 0, 0, 10, 0, 7, 10, 7, 8, 8, 8, 8, 3, 0, 9, 4, 3, 5, 6, 4, 10, 5, 2, 0, 8, 0, 1, 6, 10, 2, 9, 9, 0, 0, 3, 4, 0, 7, 0, 10, 5, 0, 1, 0, 2, 7, 0, 6, 7, 0, 10, 1, 7, 0, 7, 5, 4, 8, 0, 1, 1, 9, 0, 1, 0, 7, 8, 4, 9, 0, 7, 10, 3, 6, 9, 8, 2, 2, 3, 4, 3, 0, 9, 1, 0, 3, 0, 1, 1, 3, 1, 9, 4, 0, 0, 0, 6, 9, 3, 6, 5, 10, 5, 0, 7, 0, 0, 6, 4, 10, 3, 7, 9, 0, 0, 1, 10, 0, 3, 0, 5, 7, 2, 5, 0, 4, 5, 10, 5, 3, 0, 6, 8, 5, 5, 3, 4, 0, 8, 0, 6, 0, 7, 0, 5, 8, 5, 2, 6, 0, 7, 8, 6, 3, 6, 10, 2, 5, 1, 2, 5, 1, 0, 4, 2, 3, 9, 4, 0, 0, 9, 3, 5, 8, 0, 1, 1, 4, 9, 1, 8, 0, 9, 1, 8, 0]);

suc = [
   {2, 3, 4},
   {10, 5, 7},
   {9, 66, 11},
   {16, 25, 12},
   {40, 64, 6},
   {35, 76, 15},
   {8, 13, 38},
   {67, 19},
   {27},
   {33, 21, 23},
   {52},
   {24, 18, 20},
   {17, 82, 14},
   {39},
   {44, 22, 71},
   {57, 46},
   {80, 34, 30},
   {70},
   {36},
   {29},
   {48, 56, 22},
   {28, 77},
   {29},
   {26, 50, 31},
   {51, 43, 31},
   {32, 27, 52},
   {40, 82, 91},
   {59, 62},
   {68, 45, 55},
   {41, 42, 61},
   {69, 54},
   {54},
   {59},
   {56, 43, 87},
   {72, 44, 37},
   {89, 75},
   {60},
   {51, 62, 47},
   {88, 75},
   {84, 78},
   {58},
   {81, 49},
   {58},
   {46},
   {71},
   {82, 61, 47},
   {56, 50, 79},
   {50, 53},
   {68, 77},
   {90},
   {68, 55},
   {55},
   {60},
   {61, 70},
   {80},
   {74},
   {73},
   {88, 69},
   {63},
   {75},
   {65, 79},
   {63},
   {72, 80},
   {72, 65},
   {73, 66, 67},
   {90, 83},
   {81, 74},
   {78, 71},
   {73, 77, 70},
   {85, 79},
   {74},
   {81},
   {86},
   {84},
   {83},
   {88},
   {84, 78},
   {85},
   {89},
   {83},
   {86, 87},
   {86},
   {87},
   {85},
   {89},
   {90},
   {91},
   {91},
   {92},
   {92},
   {92},
   {  } ];

deadline = array2d(1..92, 1..3, [1, 0, 2, 4, 4, 3, 5, 3, 1, 7, 0, 0, 8, 2, 5, 10, 1, 3, 11, 3, 0, 11, 1, 5, 15, 1, 2, 15, 5, 5, 18, 1, 3, 19, 2, 5, 23, 3, 1, 26, 3, 4, 27, 4, 3, 29, 0, 0, 29, 4, 0, 35, 5, 5, 41, 0, 0, 41, 1, 3, 42, 4, 1, 43, 1, 3, 43, 0, 2, 43, 5, 0, 44, 2, 2, 46, 4, 2, 51, 2, 2, 51, 5, 0, 55, 4, 1, 55, 1, 1, 55, 2, 0, 56, 3, 0, 56, 5, 1, 62, 2, 5, 62, 0, 2, 64, 3, 2, 67, 2, 3, 70, 1, 5, 72, 3, 1, 72, 4, 0, 73, 5, 1, 74, 0, 0, 79, 4, 2, 81, 3, 5, 84, 0, 1, 86, 5, 0, 87, 3, 3, 87, 2, 0, 91, 3, 2, 94, 4, 4, 95, 5, 4, 96, 2, 1, 96, 2, 1, 96, 0, 2, 108, 3, 5, 111, 1, 0, 114, 5, 5, 114, 4, 0, 118, 5, 4, 119, 4, 5, 120, 3, 4, 120, 4, 0, 122, 5, 5, 122, 1, 3, 124, 2, 4, 124, 5, 3, 131, 3, 5, 136, 4, 1, 139, 2, 5, 140, 5, 2, 141, 3, 2, 142, 0, 1, 143, 3, 1, 145, 3, 0, 155, 5, 1, 157, 2, 2, 158, 0, 2, 159, 4, 1, 168, 2, 1, 169, 5, 4, 176, 0, 5, 177, 3, 2, 179, 3, 1, 189, 0, 3, 189, 4, 4, 190, 2, 4, 192, 4, 3, 193, 2, 1, 195, 1, 3, 196, 0, 1, 198, 0, 5, 199, 1, 5]);
