n_res = 4;
rc = [ 15, 16, 31, 15 ];
n_tasks = 92;
d = [0, 9, 7, 10, 1, 9, 2, 4, 5, 9, 3, 4, 7, 10, 2, 2, 10, 6, 7, 1, 9, 1, 10, 10, 5, 8, 6, 10, 7, 5, 3, 10, 2, 9, 3, 6, 4, 10, 5, 8, 9, 7, 5, 7, 4, 4, 4, 4, 5, 4, 2, 6, 10, 8, 3, 8, 1, 4, 5, 8, 8, 10, 1, 8, 8, 1, 5, 8, 1, 2, 1, 7, 4, 1, 10, 2, 9, 6, 4, 4, 4, 10, 7, 6, 3, 8, 6, 10, 3, 5, 2, 0];
rr = array2d(1..4, 1..92, [0, 0, 0, 0, 0, 0, 0, 0, 0, 0, 0, 5, 0, 0, 0, 0, 0, 0, 0, 0, 0, 0, 0, 0, 0, 0, 0, 1, 0, 1, 0, 0, 0, 10, 2, 5, 0, 0, 0, 0, 0, 0, 0, 0, 0, 0, 5, 0, 9, 0, 7, 5, 0, 4, 10, 0, 0, 0, 0, 0, 0, 0, 0, 0, 0, 0, 0, 0, 0, 0, 0, 7, 0, 0, 0, 0, 0, 0, 2, 0, 0, 3, 0, 0, 3, 8, 0, 0, 0, 0, 0, 0, 0, 10, 0, 0, 7, 0, 0, 0, 0, 0, 1, 0, 0, 8, 7, 0, 3, 0, 7, 3, 0, 0, 0, 0, 7, 0, 0, 0, 0, 0, 0, 0, 0, 0, 0, 0, 3, 0, 0, 0, 10, 0, 0, 0, 0, 0, 0, 0, 0, 0, 0, 0, 0, 0, 0, 0, 0, 0, 4, 0, 0, 4, 0, 0, 0, 0, 0, 0, 0, 0, 3, 0, 0, 0, 7, 7, 0, 0, 0, 0, 0, 0, 0, 0, 0, 0, 0, 7, 0, 0, 0, 0, 0, 0, 7, 4, 0, 0, 0, 0, 0, 0, 0, 0, 0, 0, 0, 4, 0, 7, 0, 0, 9, 4, 2, 2, 0, 0, 10, 0, 3, 0, 1, 7, 2, 0, 0, 0, 0, 0, 0, 0, 0, 10, 0, 5, 6, 0, 0, 6, 0, 10, 0, 0, 0, 0, 0, 1, 0, 10, 0, 8, 10, 0, 0, 0, 8, 0, 3, 10, 2, 0, 0, 0, 0, 0, 0, 0, 5, 2, 0, 3, 0, 0, 0, 0, 0, 0, 3, 0, 0, 0, 0, 0, 0, 0, 0, 0, 0, 1, 10, 2, 1, 3, 0, 0, 3, 0, 0, 0, 0, 0, 0, 0, 0, 0, 0, 0, 0, 1, 0, 0, 0, 0, 0, 0, 0, 0, 0, 0, 0, 2, 6, 4, 0, 0, 8, 0, 0, 8, 0, 0, 0, 0, 0, 0, 9, 0, 0, 0, 7, 0, 0, 0, 0, 0, 8, 4, 0, 2, 0, 0, 0, 5, 0, 0, 3, 8, 0, 0, 0, 0, 0, 0, 9, 0, 9, 7, 0, 0, 0, 0, 4, 6, 5, 0]);

suc = [
   {2, 3, 4},
   {8, 14, 7},
   {18, 26, 13},
   {5, 6, 22},
   {11, 12},
   {25, 82},
   {10, 55},
   {9},
   {89, 28},
   {30},
   {48, 79},
   {40, 60},
   {16, 42, 38},
   {51, 35, 15},
   {17, 19, 39},
   {36, 23},
   {41},
   {56, 20, 61},
   {72, 27, 21},
   {46},
   {24},
   {29},
   {32, 37, 62},
   {65, 33},
   {43, 47, 31},
   {56, 49},
   {33, 29},
   {58},
   {44},
   {83},
   {48, 86},
   {34, 54},
   {49},
   {44},
   {45},
   {64},
   {50, 76},
   {72},
   {49},
   {80},
   {71, 63},
   {57, 59},
   {53, 86},
   {70},
   {50, 58},
   {52},
   {67},
   {73},
   {75},
   {52},
   {74},
   {74, 83},
   {87},
   {60, 69},
   {68},
   {75},
   {90},
   {80},
   {64},
   {67, 68},
   {66},
   {76, 69},
   {76},
   {85},
   {66},
   {69},
   {84},
   {80},
   {88, 79},
   {79},
   {81, 85},
   {77},
   {89},
   {84},
   {81, 84},
   {78},
   {88},
   {91},
   {85},
   {81},
   {82},
   {91, 83},
   {88},
   {89},
   {86},
   {90},
   {91},
   {90},
   {92},
   {92},
   {92},
   {  } ];

deadline = array2d(1..92, 1..3, [5, 4, 2, 12, 1, 2, 15, 4, 3, 16, 2, 2, 18, 2, 0, 21, 4, 3, 26, 0, 0, 31, 3, 3, 41, 0, 2, 44, 4, 4, 49, 4, 4, 51, 3, 0, 53, 3, 0, 53, 2, 0, 54, 3, 3, 55, 4, 5, 56, 1, 4, 63, 5, 4, 63, 5, 0, 63, 2, 4, 63, 1, 1, 66, 1, 3, 69, 5, 3, 69, 1, 0, 78, 1, 4, 80, 3, 3, 81, 4, 4, 82, 3, 5, 84, 0, 2, 86, 1, 5, 87, 5, 1, 91, 4, 0, 95, 3, 0, 95, 0, 4, 98, 5, 0, 99, 2, 1, 100, 5, 4, 102, 3, 4, 106, 3, 3, 107, 4, 4, 113, 1, 0, 122, 0, 4, 122, 0, 0, 122, 3, 3, 123, 1, 1, 123, 1, 0, 124, 1, 4, 126, 0, 2, 129, 0, 5, 131, 1, 5, 135, 2, 3, 138, 3, 3, 141, 5, 3, 142, 2, 3, 146, 4, 2, 147, 5, 4, 158, 0, 0, 160, 5, 0, 161, 0, 5, 164, 2, 0, 167, 2, 1, 173, 2, 1, 176, 4, 4, 180, 1, 0, 182, 1, 5, 183, 1, 0, 185, 4, 3, 187, 1, 4, 187, 1, 1, 187, 2, 4, 187, 4, 2, 188, 0, 1, 192, 2, 5, 199, 4, 5, 205, 2, 3, 207, 0, 3, 207, 2, 2, 214, 3, 2, 215, 0, 2, 222, 5, 4, 223, 0, 4, 223, 2, 3, 224, 2, 1, 225, 2, 3, 227, 1, 1, 232, 4, 0, 235, 2, 0, 236, 1, 3, 240, 2, 2, 242, 4, 0, 249, 1, 0, 250, 3, 0]);
