n_res = 4;
rc = [ 31, 44, 25, 26 ];
n_tasks = 92;
d = [0, 1, 2, 9, 9, 3, 4, 8, 1, 4, 4, 2, 9, 6, 5, 6, 7, 3, 3, 7, 10, 6, 8, 10, 5, 8, 9, 1, 7, 7, 8, 3, 1, 2, 1, 3, 3, 5, 3, 10, 9, 5, 9, 7, 7, 9, 1, 9, 6, 2, 9, 7, 3, 10, 3, 8, 4, 1, 7, 2, 8, 4, 9, 10, 4, 6, 5, 2, 8, 8, 6, 10, 2, 10, 6, 2, 5, 6, 5, 9, 6, 1, 3, 4, 4, 5, 5, 3, 6, 5, 5, 0];
rr = array2d(1..4, 1..92, [0, 7, 3, 6, 0, 0, 0, 0, 6, 5, 3, 0, 0, 0, 8, 0, 0, 8, 0, 0, 3, 6, 7, 1, 8, 10, 5, 4, 0, 0, 2, 3, 0, 6, 0, 8, 2, 0, 10, 2, 0, 0, 10, 0, 0, 0, 0, 6, 0, 5, 0, 7, 2, 7, 0, 0, 7, 7, 5, 7, 3, 0, 0, 5, 0, 6, 3, 0, 10, 5, 0, 0, 10, 0, 3, 2, 9, 0, 0, 9, 0, 1, 0, 9, 0, 0, 0, 4, 0, 0, 0, 0, 0, 7, 3, 10, 10, 6, 9, 2, 0, 0, 3, 5, 10, 0, 0, 0, 7, 9, 10, 0, 0, 0, 0, 0, 0, 3, 0, 0, 0, 0, 0, 7, 5, 8, 0, 0, 0, 7, 0, 2, 1, 9, 0, 2, 9, 4, 0, 0, 4, 9, 0, 0, 0, 0, 0, 10, 8, 9, 0, 10, 0, 10, 2, 0, 9, 5, 2, 5, 6, 0, 0, 0, 9, 7, 0, 6, 0, 4, 3, 3, 8, 0, 4, 0, 0, 7, 1, 8, 8, 3, 6, 0, 0, 9, 0, 0, 2, 0, 0, 0, 5, 0, 0, 0, 0, 10, 10, 3, 7, 0, 3, 0, 0, 0, 8, 0, 10, 0, 0, 0, 6, 0, 2, 0, 6, 9, 7, 4, 8, 9, 0, 0, 9, 3, 8, 0, 0, 0, 0, 0, 0, 5, 0, 0, 5, 6, 3, 0, 10, 8, 7, 0, 0, 0, 2, 0, 8, 0, 1, 3, 0, 0, 10, 8, 10, 0, 8, 0, 2, 0, 0, 0, 0, 0, 0, 0, 5, 4, 0, 2, 0, 0, 0, 0, 0, 1, 10, 0, 5, 0, 9, 0, 0, 7, 0, 10, 7, 5, 0, 0, 0, 0, 10, 8, 0, 3, 0, 0, 0, 1, 0, 0, 3, 3, 3, 0, 0, 0, 2, 2, 8, 6, 0, 9, 0, 0, 0, 0, 0, 1, 4, 7, 2, 5, 7, 5, 0, 0, 0, 6, 6, 1, 0, 0, 0, 9, 0, 0, 0, 10, 1, 0, 0, 3, 4, 6, 3, 0, 7, 8, 0, 0, 0, 5, 0, 0, 0, 0, 0, 0, 0, 10, 0, 5, 5, 0]);

suc = [
   {2, 3, 4},
   {8, 16, 14},
   {12, 5, 6},
   {24, 13, 7},
   {11, 20, 45},
   {26},
   {9, 10, 25},
   {17, 58, 22},
   {30},
   {66},
   {76, 31},
   {33, 15},
   {32, 59},
   {56, 43, 78},
   {28},
   {19, 21},
   {18, 35, 34},
   {27, 39, 23},
   {25, 66},
   {65, 39},
   {90, 38},
   {30},
   {52, 69},
   {30, 79},
   {84, 29},
   {49, 74},
   {46},
   {29},
   {68},
   {40, 44, 31},
   {41},
   {72, 36, 85},
   {80, 42, 37},
   {81},
   {60},
   {70},
   {84},
   {77, 53},
   {81, 54},
   {41},
   {51},
   {48},
   {63},
   {47},
   {47},
   {50},
   {82},
   {55},
   {62},
   {59},
   {91},
   {76},
   {72, 57},
   {71},
   {87},
   {64, 73},
   {83},
   {78, 62},
   {60},
   {82, 67, 61},
   {75},
   {80},
   {88},
   {82},
   {71},
   {68},
   {68},
   {69},
   {70},
   {79},
   {83},
   {73},
   {76},
   {86},
   {83},
   {88},
   {87},
   {84},
   {86},
   {81, 85},
   {91, 87},
   {90, 86},
   {85},
   {88},
   {89},
   {91},
   {89},
   {89},
   {92},
   {92},
   {92},
   {  } ];

deadline = array2d(1..92, 1..3, [1, 1, 4, 1, 4, 1, 2, 0, 3, 2, 2, 4, 7, 0, 4, 8, 0, 4, 10, 5, 1, 11, 2, 1, 13, 2, 2, 15, 2, 3, 20, 5, 4, 22, 0, 4, 23, 4, 2, 23, 4, 2, 26, 5, 4, 33, 1, 1, 36, 2, 0, 37, 2, 2, 39, 5, 1, 41, 1, 5, 41, 5, 3, 42, 2, 5, 42, 4, 2, 51, 2, 5, 51, 4, 2, 54, 4, 3, 62, 0, 3, 63, 1, 4, 68, 5, 0, 71, 1, 2, 76, 4, 5, 81, 4, 0, 82, 4, 0, 87, 5, 2, 87, 0, 4, 89, 2, 5, 97, 2, 3, 99, 2, 5, 100, 3, 1, 100, 2, 2, 102, 1, 2, 104, 3, 2, 105, 3, 0, 105, 4, 5, 106, 4, 4, 108, 0, 2, 110, 5, 3, 117, 3, 1, 118, 2, 5, 121, 3, 2, 123, 4, 1, 125, 1, 5, 125, 1, 4, 128, 0, 0, 129, 0, 2, 132, 2, 5, 133, 2, 1, 134, 2, 4, 140, 2, 0, 142, 4, 4, 143, 4, 5, 143, 4, 5, 145, 1, 4, 146, 1, 3, 148, 2, 0, 153, 4, 3, 160, 4, 4, 161, 1, 1, 161, 4, 4, 164, 3, 4, 167, 3, 3, 173, 2, 4, 174, 2, 5, 174, 5, 5, 175, 1, 1, 175, 1, 2, 178, 2, 1, 179, 0, 5, 186, 3, 5, 187, 3, 4, 188, 0, 4, 190, 4, 5, 191, 2, 5, 193, 2, 0, 194, 5, 3, 197, 5, 5, 200, 5, 3, 201, 3, 4, 205, 2, 2, 208, 0, 5, 208, 2, 2, 208, 0, 2]);
