n_res = 4;
rc = [ 47, 43, 51, 41 ];
n_tasks = 92;
d = [0, 2, 1, 9, 8, 3, 7, 8, 1, 2, 10, 7, 3, 3, 4, 8, 7, 9, 1, 5, 8, 6, 9, 9, 9, 3, 6, 2, 10, 1, 2, 4, 10, 2, 8, 6, 10, 6, 7, 5, 1, 10, 8, 9, 6, 5, 3, 1, 1, 5, 9, 4, 1, 7, 1, 4, 6, 4, 1, 10, 9, 7, 3, 8, 4, 4, 8, 5, 5, 1, 8, 5, 6, 6, 5, 4, 10, 4, 9, 5, 6, 10, 9, 8, 1, 9, 7, 5, 4, 7, 1, 0];
rr = array2d(1..4, 1..92, [0, 1, 3, 10, 5, 2, 3, 5, 4, 1, 9, 2, 2, 3, 4, 7, 2, 5, 4, 7, 6, 7, 5, 6, 8, 5, 3, 9, 10, 9, 8, 5, 1, 5, 6, 4, 9, 6, 2, 6, 2, 3, 3, 9, 2, 4, 7, 8, 1, 1, 9, 4, 2, 5, 6, 5, 10, 8, 10, 1, 2, 4, 4, 2, 2, 4, 6, 5, 1, 10, 8, 1, 10, 7, 1, 7, 8, 8, 7, 9, 10, 7, 6, 2, 9, 3, 7, 7, 5, 7, 8, 0, 0, 7, 9, 3, 2, 3, 8, 5, 2, 1, 8, 1, 8, 3, 1, 10, 1, 6, 2, 10, 10, 4, 8, 8, 7, 5, 2, 5, 1, 4, 6, 3, 1, 4, 8, 1, 2, 1, 7, 6, 2, 1, 3, 4, 3, 5, 10, 9, 5, 5, 7, 3, 2, 5, 5, 9, 10, 7, 2, 7, 2, 10, 6, 1, 1, 5, 10, 10, 2, 5, 10, 5, 10, 6, 5, 6, 4, 3, 10, 8, 6, 5, 8, 9, 7, 5, 1, 4, 3, 9, 1, 0, 0, 4, 10, 10, 1, 5, 10, 7, 1, 5, 2, 8, 1, 10, 8, 1, 6, 6, 9, 5, 8, 2, 10, 9, 8, 8, 10, 3, 1, 6, 6, 5, 5, 3, 7, 8, 5, 9, 2, 10, 7, 7, 6, 8, 10, 3, 2, 7, 6, 8, 9, 1, 3, 8, 2, 3, 3, 4, 7, 10, 8, 5, 8, 4, 5, 6, 2, 8, 6, 7, 10, 10, 10, 1, 4, 2, 6, 4, 2, 8, 10, 3, 2, 7, 3, 9, 9, 6, 10, 5, 9, 0, 0, 7, 7, 7, 4, 8, 2, 4, 6, 6, 9, 2, 7, 4, 4, 6, 7, 2, 7, 6, 3, 1, 9, 6, 8, 1, 3, 10, 1, 4, 1, 8, 9, 9, 7, 5, 3, 4, 3, 8, 8, 2, 5, 7, 9, 5, 4, 1, 10, 9, 9, 5, 1, 10, 8, 4, 4, 3, 5, 9, 1, 1, 6, 2, 7, 4, 4, 3, 3, 5, 5, 3, 10, 1, 1, 9, 7, 1, 7, 2, 4, 9, 4, 1, 6, 9, 1, 8, 5, 7, 9, 0]);

suc = [
   {2, 3, 4},
   {54, 6},
   {9, 35},
   {8, 69, 5},
   {11, 13, 7},
   {17, 46},
   {67, 39, 31},
   {24, 19, 36},
   {16, 10, 12},
   {64},
   {28, 77, 15},
   {80},
   {20, 21, 14},
   {48},
   {44},
   {18, 22},
   {25, 23},
   {40},
   {33, 71, 23},
   {65, 34, 42},
   {26, 43},
   {62, 69, 30},
   {49, 37},
   {58, 27},
   {61, 29, 78},
   {46, 71},
   {45},
   {73},
   {32, 51, 85},
   {83, 45},
   {85},
   {66, 38, 47},
   {70},
   {57},
   {41},
   {64, 81},
   {61},
   {56, 50},
   {71},
   {73},
   {76},
   {67, 63},
   {55},
   {73, 52},
   {74, 59},
   {82},
   {56},
   {53},
   {70},
   {68},
   {75},
   {60},
   {79, 55},
   {75},
   {70},
   {91},
   {90},
   {72},
   {82},
   {81},
   {62},
   {81},
   {76},
   {84},
   {88},
   {68},
   {88},
   {72},
   {76},
   {80},
   {88},
   {89},
   {84, 78},
   {77},
   {86},
   {86, 78, 79},
   {91},
   {85},
   {83},
   {86},
   {82},
   {84},
   {89},
   {87},
   {87},
   {87},
   {89},
   {91},
   {92},
   {92},
   {92},
   {  } ];

deadline = array2d(1..92, 1..3, [5, 4, 5, 6, 5, 3, 9, 5, 5, 11, 5, 3, 12, 4, 3, 14, 4, 1, 19, 3, 3, 24, 3, 3, 28, 3, 1, 31, 2, 2, 35, 0, 2, 43, 3, 5, 44, 5, 5, 50, 0, 1, 52, 2, 3, 55, 2, 2, 60, 2, 5, 63, 1, 3, 67, 0, 2, 67, 2, 5, 68, 1, 0, 71, 5, 4, 73, 3, 0, 74, 1, 0, 75, 5, 3, 76, 1, 5, 76, 0, 0, 77, 1, 4, 81, 5, 3, 87, 0, 3, 87, 2, 5, 88, 4, 3, 89, 0, 4, 89, 5, 0, 92, 0, 1, 96, 1, 3, 98, 3, 5, 99, 4, 0, 100, 0, 0, 102, 1, 2, 104, 2, 5, 109, 4, 3, 110, 0, 3, 111, 2, 3, 118, 4, 4, 119, 0, 3, 121, 4, 5, 123, 5, 4, 124, 2, 5, 125, 2, 5, 125, 3, 0, 125, 4, 0, 126, 0, 2, 128, 5, 4, 133, 1, 3, 133, 5, 5, 134, 3, 5, 137, 1, 1, 138, 2, 1, 139, 4, 1, 142, 2, 0, 146, 2, 2, 150, 0, 5, 152, 2, 2, 153, 5, 5, 160, 5, 4, 164, 3, 0, 164, 5, 5, 165, 0, 0, 166, 3, 2, 166, 0, 0, 168, 0, 1, 169, 3, 5, 169, 2, 0, 172, 3, 3, 174, 0, 4, 174, 3, 4, 176, 0, 5, 183, 4, 0, 185, 0, 2, 186, 3, 1, 197, 2, 0, 197, 0, 4, 199, 4, 5, 209, 0, 4, 209, 5, 1, 212, 0, 0, 215, 0, 0, 217, 2, 4, 218, 0, 5, 219, 4, 5, 222, 3, 2]);
