n_res = 4;
rc = [ 18, 12, 19, 19 ];
n_tasks = 92;
d = [0, 7, 5, 4, 7, 8, 3, 5, 7, 10, 9, 1, 7, 8, 7, 3, 2, 4, 4, 9, 6, 7, 10, 2, 8, 5, 10, 8, 5, 5, 3, 5, 4, 7, 5, 10, 10, 1, 5, 5, 1, 5, 8, 3, 2, 5, 7, 4, 1, 1, 8, 5, 4, 4, 5, 9, 1, 4, 7, 3, 4, 6, 5, 9, 9, 7, 7, 10, 4, 7, 4, 9, 8, 1, 6, 5, 4, 10, 6, 3, 6, 4, 3, 3, 9, 4, 10, 10, 4, 7, 10, 0];
rr = array2d(1..4, 1..92, [0, 0, 0, 0, 0, 0, 10, 10, 0, 0, 0, 0, 4, 0, 0, 1, 0, 0, 0, 4, 0, 0, 8, 0, 0, 0, 0, 0, 0, 5, 0, 0, 0, 0, 0, 0, 8, 0, 0, 10, 0, 0, 4, 0, 4, 0, 0, 0, 0, 0, 0, 0, 0, 9, 0, 0, 8, 8, 0, 0, 0, 8, 0, 0, 0, 3, 9, 2, 0, 1, 0, 0, 0, 2, 0, 0, 0, 0, 0, 0, 0, 2, 7, 0, 0, 8, 0, 2, 2, 0, 4, 0, 0, 0, 7, 0, 0, 0, 0, 0, 0, 0, 0, 0, 0, 0, 0, 0, 0, 0, 0, 0, 0, 7, 0, 0, 0, 0, 0, 0, 3, 0, 0, 0, 1, 0, 0, 0, 0, 8, 0, 0, 1, 0, 0, 0, 0, 8, 0, 0, 0, 0, 0, 0, 0, 0, 0, 0, 0, 0, 0, 0, 3, 0, 0, 0, 2, 0, 0, 0, 0, 0, 0, 6, 0, 0, 0, 0, 0, 0, 0, 1, 0, 0, 0, 0, 2, 0, 7, 0, 0, 0, 0, 0, 0, 0, 0, 0, 8, 9, 0, 0, 0, 0, 10, 0, 0, 5, 0, 0, 8, 10, 7, 0, 4, 0, 0, 0, 0, 0, 3, 0, 0, 0, 0, 3, 0, 0, 8, 0, 0, 0, 1, 0, 0, 1, 0, 6, 0, 0, 3, 0, 8, 8, 0, 7, 5, 0, 0, 0, 0, 0, 0, 1, 0, 0, 0, 0, 0, 0, 0, 0, 9, 0, 8, 0, 0, 0, 0, 6, 3, 10, 4, 0, 5, 0, 0, 0, 0, 0, 0, 0, 0, 0, 0, 0, 0, 3, 0, 2, 0, 0, 0, 0, 6, 7, 0, 3, 0, 0, 6, 0, 0, 0, 0, 0, 0, 0, 0, 6, 6, 3, 0, 8, 0, 0, 7, 0, 0, 4, 0, 10, 0, 0, 0, 0, 0, 0, 0, 0, 0, 0, 0, 8, 0, 0, 4, 0, 0, 0, 2, 6, 0, 0, 10, 0, 0, 0, 10, 1, 0, 0, 0, 0, 0, 0, 0, 0, 1, 0, 9, 0, 0, 0, 0, 0, 0, 0, 0, 6, 0, 0, 0, 0, 0, 6, 0, 0]);

suc = [
   {2, 3, 4},
   {40, 6, 7},
   {9, 22, 41},
   {10, 19, 5},
   {37, 62, 63},
   {16, 12, 21},
   {8, 11, 29},
   {32, 80},
   {25, 28, 15},
   {36, 45, 15},
   {32, 13, 14},
   {17, 76, 49},
   {75, 36},
   {24, 18, 22},
   {50, 54, 39},
   {44},
   {80, 58, 31},
   {26, 77},
   {26, 20, 23},
   {83, 67, 62},
   {56, 34, 60},
   {27, 38, 31},
   {25, 46},
   {42, 52, 37},
   {40, 62, 39},
   {67},
   {66, 45, 54},
   {40, 30, 39},
   {59, 36, 45},
   {33, 37, 49},
   {34, 35, 68},
   {48, 51, 46},
   {73, 38, 55},
   {63},
   {57, 74, 55},
   {49, 61, 47},
   {53, 86},
   {82, 44, 54},
   {47},
   {64, 43},
   {65, 50, 70},
   {48, 72, 78},
   {72, 74, 44},
   {84, 53},
   {56, 60, 53},
   {57, 68, 69},
   {66, 76, 74},
   {59, 55},
   {58, 83},
   {78},
   {88, 59},
   {56, 58, 60},
   {81, 57, 70},
   {71},
   {64, 61},
   {64, 73, 78},
   {87},
   {87},
   {91},
   {72, 65, 67},
   {65, 66, 63},
   {71},
   {91},
   {75, 70},
   {82},
   {77},
   {84, 69},
   {75, 77, 86},
   {73, 71},
   {91},
   {81},
   {76, 84},
   {82},
   {79},
   {81},
   {80},
   {83, 79},
   {79},
   {89, 90},
   {85},
   {85},
   {89, 86},
   {85},
   {88},
   {90, 87},
   {90},
   {88},
   {89},
   {92},
   {92},
   {92},
   {  } ];

deadline = array2d(1..92, 1..3, [1, 0, 0, 2, 4, 5, 7, 0, 0, 7, 2, 3, 13, 0, 1, 16, 0, 5, 16, 0, 3, 17, 2, 4, 19, 1, 2, 21, 3, 4, 39, 4, 0, 39, 0, 3, 43, 4, 5, 50, 1, 3, 53, 1, 5, 54, 1, 1, 61, 4, 0, 72, 3, 3, 75, 0, 1, 75, 1, 0, 76, 5, 5, 77, 4, 4, 79, 2, 4, 85, 5, 5, 88, 0, 5, 92, 0, 4, 94, 0, 0, 94, 1, 0, 105, 1, 4, 107, 2, 2, 109, 2, 5, 110, 0, 0, 114, 5, 1, 119, 3, 0, 128, 4, 1, 135, 3, 5, 140, 4, 0, 142, 4, 1, 145, 0, 5, 151, 3, 5, 152, 2, 2, 154, 5, 4, 166, 5, 2, 170, 1, 5, 174, 5, 3, 183, 5, 5, 191, 1, 4, 193, 1, 3, 194, 2, 3, 195, 3, 1, 196, 0, 4, 196, 3, 5, 199, 3, 1, 199, 1, 3, 201, 2, 0, 203, 1, 2, 206, 3, 3, 206, 0, 1, 210, 0, 3, 211, 5, 1, 212, 5, 2, 212, 5, 3, 214, 1, 2, 214, 3, 4, 215, 5, 0, 220, 4, 2, 223, 5, 5, 223, 1, 1, 225, 4, 3, 228, 2, 4, 229, 3, 5, 231, 4, 5, 231, 0, 0, 232, 2, 4, 239, 5, 0, 242, 2, 5, 243, 4, 1, 246, 2, 2, 246, 2, 0, 247, 0, 2, 247, 1, 1, 247, 1, 3, 254, 0, 1, 254, 2, 2, 256, 0, 5, 256, 0, 2, 265, 0, 4, 265, 2, 0, 265, 1, 2, 266, 3, 5, 270, 4, 5, 271, 2, 2]);
