n_res = 4;
rc = [ 23, 24, 32, 21 ];
n_tasks = 92;
d = [0, 6, 7, 2, 1, 1, 3, 6, 3, 8, 9, 5, 7, 10, 7, 5, 6, 7, 8, 2, 3, 8, 2, 4, 8, 9, 4, 10, 9, 9, 9, 6, 1, 4, 7, 10, 1, 9, 9, 3, 2, 10, 6, 10, 3, 2, 2, 2, 9, 1, 4, 9, 4, 1, 8, 7, 2, 3, 1, 1, 8, 7, 6, 6, 1, 10, 2, 3, 1, 2, 8, 6, 4, 3, 4, 10, 3, 4, 8, 5, 7, 9, 9, 9, 8, 8, 2, 3, 10, 10, 6, 0];
rr = array2d(1..4, 1..92, [0, 1, 0, 0, 1, 0, 0, 0, 0, 0, 0, 7, 0, 0, 2, 0, 0, 7, 7, 0, 0, 8, 0, 0, 0, 3, 5, 0, 0, 0, 3, 0, 0, 0, 0, 0, 1, 0, 0, 0, 0, 0, 4, 0, 0, 7, 0, 0, 2, 0, 0, 0, 0, 7, 0, 0, 0, 0, 0, 0, 9, 0, 0, 0, 8, 0, 0, 0, 9, 0, 0, 0, 0, 1, 0, 0, 0, 6, 0, 0, 1, 0, 6, 0, 0, 0, 0, 8, 0, 0, 0, 0, 0, 0, 0, 6, 0, 3, 0, 2, 8, 0, 0, 0, 0, 0, 0, 7, 0, 0, 0, 8, 0, 0, 5, 6, 0, 0, 0, 0, 9, 6, 0, 0, 0, 0, 8, 4, 0, 0, 0, 0, 0, 0, 0, 0, 0, 0, 0, 0, 0, 0, 0, 0, 0, 0, 0, 6, 0, 4, 0, 0, 0, 0, 0, 0, 0, 6, 0, 0, 0, 0, 0, 10, 0, 0, 0, 0, 0, 0, 0, 0, 0, 0, 0, 0, 0, 0, 0, 0, 5, 0, 0, 0, 0, 0, 0, 0, 0, 0, 3, 0, 0, 2, 1, 0, 1, 0, 0, 0, 10, 0, 0, 0, 0, 0, 0, 0, 2, 0, 0, 1, 0, 0, 0, 0, 5, 0, 0, 0, 0, 2, 2, 0, 0, 7, 0, 7, 0, 0, 0, 0, 0, 5, 0, 8, 0, 0, 6, 0, 0, 0, 9, 0, 0, 3, 10, 1, 0, 0, 6, 0, 0, 0, 2, 0, 4, 0, 8, 0, 7, 0, 0, 0, 0, 0, 0, 5, 0, 0, 0, 0, 0, 6, 1, 0, 0, 0, 2, 0, 0, 0, 0, 0, 0, 0, 0, 0, 0, 7, 0, 0, 0, 0, 0, 0, 5, 0, 0, 0, 0, 0, 0, 0, 0, 0, 0, 4, 0, 8, 0, 0, 0, 0, 0, 1, 5, 0, 0, 0, 3, 0, 5, 2, 0, 0, 1, 0, 6, 0, 0, 0, 4, 0, 0, 3, 0, 0, 0, 0, 0, 0, 0, 5, 0, 3, 0, 0, 0, 0, 0, 2, 0, 0, 10, 3, 0, 1, 0, 0, 4, 10, 7, 0, 0, 0, 0, 0]);

suc = [
   {2, 3, 4},
   {52, 45, 6},
   {16, 37, 5},
   {10, 52, 60},
   {26, 38, 7},
   {19, 23},
   {8, 9, 30},
   {32, 31, 15},
   {34, 83, 39},
   {11, 12, 14},
   {25, 66, 31},
   {51, 28, 13},
   {24, 25, 49},
   {32, 51, 21},
   {33, 28, 44},
   {40, 17, 20},
   {18, 50, 22},
   {89, 26},
   {53, 29, 22},
   {80, 55, 23},
   {67, 23},
   {44},
   {48, 73, 35},
   {68},
   {65, 90, 27},
   {73},
   {86, 29, 38},
   {86, 54, 63},
   {82, 87, 79},
   {67, 60, 54},
   {57, 42, 43},
   {43, 46},
   {40, 41, 66},
   {58, 35, 36},
   {63, 46, 47},
   {65, 49},
   {83},
   {72, 63},
   {48, 81, 46},
   {72, 43, 52},
   {48, 57, 47},
   {58, 61, 47},
   {80, 45, 54},
   {67, 60, 69},
   {62},
   {78, 62},
   {90},
   {56, 61},
   {76, 61, 55},
   {58, 85, 78},
   {56, 57, 62},
   {56, 75, 64},
   {88, 66, 59},
   {91, 77, 55},
   {84},
   {77, 69, 70},
   {59},
   {73, 75},
   {77, 79, 71},
   {64, 83},
   {68, 69, 70},
   {64, 65},
   {70, 71},
   {74, 85},
   {68},
   {76},
   {72, 82, 85},
   {74, 71},
   {84},
   {74},
   {91},
   {75},
   {81},
   {82, 84},
   {76},
   {79},
   {78},
   {90},
   {80},
   {81},
   {91},
   {88},
   {86},
   {88},
   {87},
   {87},
   {89},
   {89},
   {92},
   {92},
   {92},
   {  } ];

deadline = array2d(1..92, 1..3, [1, 3, 1, 5, 0, 0, 5, 4, 2, 5, 2, 5, 8, 5, 2, 9, 4, 5, 9, 2, 1, 10, 4, 5, 10, 4, 3, 11, 4, 5, 12, 5, 1, 14, 3, 2, 15, 0, 5, 17, 5, 0, 19, 5, 0, 23, 2, 1, 24, 0, 0, 27, 2, 3, 27, 4, 0, 27, 5, 0, 29, 1, 0, 34, 3, 3, 35, 3, 2, 36, 1, 2, 38, 1, 3, 38, 0, 0, 45, 3, 1, 45, 5, 1, 46, 3, 0, 52, 0, 0, 53, 1, 5, 54, 0, 0, 55, 3, 0, 55, 0, 0, 60, 2, 0, 62, 2, 4, 67, 2, 2, 67, 2, 3, 68, 4, 1, 71, 5, 0, 72, 5, 4, 73, 1, 0, 93, 5, 5, 93, 4, 3, 95, 2, 2, 96, 5, 4, 100, 0, 3, 105, 0, 5, 111, 0, 4, 111, 3, 5, 112, 3, 4, 117, 2, 4, 118, 2, 2, 118, 3, 4, 119, 4, 4, 120, 5, 0, 121, 2, 4, 123, 3, 3, 125, 2, 5, 135, 0, 0, 146, 2, 1, 150, 4, 3, 153, 0, 5, 155, 5, 0, 156, 3, 0, 159, 1, 5, 161, 5, 5, 162, 4, 3, 169, 1, 5, 169, 0, 0, 177, 0, 4, 179, 4, 0, 183, 4, 0, 188, 2, 1, 189, 1, 2, 192, 1, 0, 194, 0, 4, 196, 0, 0, 198, 3, 5, 200, 4, 5, 200, 1, 3, 201, 0, 0, 201, 5, 1, 206, 2, 4, 208, 2, 4, 208, 2, 3, 208, 1, 4, 209, 1, 1, 211, 0, 5, 212, 1, 1, 219, 4, 2, 221, 3, 3]);
