n_res = 4;
rc = [ 51, 47, 41, 58 ];
n_tasks = 92;
d = [0, 4, 8, 6, 5, 10, 5, 8, 8, 6, 10, 6, 5, 9, 1, 4, 9, 2, 5, 7, 2, 2, 2, 5, 10, 2, 6, 8, 6, 4, 7, 6, 6, 7, 8, 9, 2, 6, 7, 3, 4, 8, 2, 2, 8, 2, 6, 4, 3, 8, 5, 9, 9, 7, 8, 6, 5, 3, 1, 3, 5, 2, 1, 1, 2, 3, 8, 7, 5, 1, 6, 2, 2, 1, 6, 4, 4, 7, 5, 2, 1, 9, 9, 9, 9, 6, 9, 5, 3, 2, 5, 0];
rr = array2d(1..4, 1..92, [0, 8, 6, 7, 9, 8, 8, 1, 7, 3, 4, 2, 5, 7, 1, 4, 5, 7, 7, 0, 0, 7, 1, 1, 0, 0, 0, 7, 1, 0, 7, 9, 9, 2, 3, 3, 0, 4, 5, 9, 2, 0, 0, 0, 0, 4, 0, 0, 4, 7, 9, 4, 7, 10, 7, 3, 8, 10, 0, 0, 10, 7, 7, 0, 8, 7, 4, 1, 6, 7, 1, 9, 8, 7, 8, 3, 2, 0, 0, 9, 0, 9, 7, 7, 3, 0, 7, 0, 10, 8, 2, 0, 0, 1, 9, 0, 3, 8, 9, 4, 0, 10, 6, 0, 0, 1, 5, 10, 6, 8, 5, 5, 7, 3, 3, 0, 2, 1, 8, 3, 0, 2, 9, 0, 8, 5, 9, 4, 3, 8, 0, 0, 1, 4, 5, 9, 0, 6, 2, 2, 3, 6, 5, 7, 2, 0, 10, 8, 6, 4, 1, 6, 8, 0, 5, 6, 4, 6, 0, 7, 10, 1, 10, 6, 3, 0, 3, 6, 4, 7, 6, 7, 4, 6, 0, 8, 0, 1, 1, 6, 10, 5, 4, 0, 0, 3, 0, 1, 10, 7, 1, 9, 0, 7, 0, 8, 3, 0, 0, 0, 7, 7, 1, 0, 4, 2, 10, 4, 2, 10, 3, 0, 2, 8, 1, 0, 3, 0, 8, 0, 4, 0, 2, 1, 3, 0, 1, 5, 0, 6, 1, 7, 6, 0, 0, 0, 1, 0, 3, 4, 10, 1, 6, 0, 3, 7, 10, 9, 8, 5, 8, 3, 2, 0, 2, 0, 5, 3, 4, 4, 4, 9, 4, 8, 5, 10, 0, 1, 6, 5, 0, 0, 5, 10, 8, 0, 0, 0, 1, 6, 1, 1, 3, 1, 10, 0, 10, 9, 9, 0, 0, 7, 10, 2, 6, 8, 3, 0, 3, 7, 7, 5, 0, 2, 4, 8, 6, 9, 0, 5, 9, 6, 1, 7, 0, 0, 0, 0, 4, 0, 4, 0, 5, 10, 0, 1, 9, 3, 6, 8, 2, 0, 10, 4, 5, 5, 1, 9, 2, 1, 0, 0, 0, 7, 5, 0, 0, 5, 0, 0, 0, 0, 0, 3, 0, 9, 5, 6, 6, 0, 3, 6, 3, 10, 5, 8, 0, 0]);

suc = [
   {2, 3, 4},
   {24, 18, 23},
   {25, 19, 28},
   {11, 5, 6},
   {8, 21, 7},
   {89, 12, 37},
   {40, 49, 22},
   {9, 27, 31},
   {16, 10, 13},
   {58, 14},
   {17, 20, 15},
   {32, 33, 46},
   {41, 50, 36},
   {25, 74, 46},
   {68, 78},
   {34, 44, 86},
   {67, 29, 79},
   {60, 69, 71},
   {44, 61, 63},
   {64, 61, 30},
   {40, 39},
   {48, 53, 62},
   {56, 47},
   {40, 49, 30},
   {48, 26, 52},
   {88, 45, 55},
   {50, 58, 55},
   {35, 85, 53},
   {51, 69, 38},
   {56, 33, 66},
   {70, 52, 38},
   {59, 36, 45},
   {79, 39},
   {80, 37, 47},
   {48, 54},
   {75},
   {58, 61},
   {82, 44, 46},
   {43, 68, 87},
   {65, 42, 70},
   {42},
   {57, 75, 59},
   {82, 45},
   {62, 72, 54},
   {84},
   {56, 80, 54},
   {64, 72, 71},
   {65, 57, 82},
   {74, 52, 53},
   {66, 70, 63},
   {66, 76},
   {73, 67, 84},
   {57, 60, 63},
   {71, 55},
   {81},
   {59, 78},
   {67, 68, 76},
   {64, 90, 62},
   {83, 60},
   {84},
   {75},
   {65, 85},
   {89},
   {69},
   {81},
   {72},
   {77},
   {86},
   {73},
   {80, 74},
   {83},
   {73, 77},
   {78},
   {77},
   {76, 79},
   {88},
   {89},
   {81, 85},
   {87},
   {83},
   {91},
   {91},
   {88},
   {86},
   {87},
   {90},
   {91},
   {90},
   {92},
   {92},
   {92},
   {  } ];

deadline = array2d(1..92, 1..3, [3, 5, 0, 20, 1, 3, 20, 2, 1, 21, 2, 0, 23, 2, 3, 24, 0, 3, 24, 4, 2, 25, 0, 5, 31, 0, 5, 36, 1, 4, 41, 2, 1, 45, 2, 1, 46, 0, 1, 49, 3, 4, 49, 5, 0, 50, 1, 5, 50, 2, 2, 50, 3, 5, 52, 4, 4, 53, 4, 4, 53, 3, 5, 53, 2, 5, 63, 4, 1, 64, 5, 5, 64, 2, 0, 67, 5, 2, 68, 4, 1, 68, 5, 0, 71, 3, 5, 82, 4, 3, 82, 4, 0, 85, 0, 3, 86, 1, 5, 89, 3, 1, 92, 4, 3, 93, 0, 4, 93, 3, 3, 93, 3, 5, 95, 5, 5, 100, 2, 0, 101, 0, 4, 103, 3, 5, 105, 5, 2, 106, 5, 3, 108, 4, 3, 114, 2, 2, 117, 2, 3, 118, 5, 3, 118, 4, 4, 119, 3, 0, 119, 1, 2, 119, 3, 4, 120, 3, 0, 120, 4, 1, 122, 2, 1, 127, 1, 5, 130, 1, 5, 133, 5, 4, 136, 0, 5, 139, 5, 2, 154, 1, 4, 163, 2, 5, 163, 5, 5, 165, 3, 0, 173, 5, 0, 173, 4, 0, 174, 4, 5, 176, 2, 2, 180, 1, 3, 181, 5, 0, 182, 5, 3, 183, 2, 3, 184, 4, 2, 186, 1, 5, 186, 2, 3, 189, 5, 1, 190, 2, 0, 193, 3, 5, 196, 1, 4, 198, 1, 0, 204, 2, 3, 205, 3, 5, 208, 3, 2, 208, 3, 0, 209, 5, 4, 210, 0, 5, 215, 2, 3, 219, 2, 3, 222, 3, 4, 223, 4, 1, 227, 4, 3, 232, 4, 1]);
