n_res = 4;
rc = [ 56, 58, 51, 56 ];
n_tasks = 92;
d = [0, 9, 3, 1, 1, 3, 2, 4, 3, 9, 9, 6, 6, 10, 9, 5, 3, 2, 1, 6, 10, 9, 3, 7, 2, 3, 1, 9, 3, 7, 3, 2, 5, 5, 10, 3, 8, 1, 7, 9, 7, 2, 5, 5, 10, 2, 3, 8, 5, 8, 8, 3, 7, 7, 10, 10, 1, 2, 6, 8, 2, 10, 5, 9, 4, 5, 2, 5, 10, 1, 1, 2, 9, 9, 3, 8, 6, 8, 4, 1, 4, 7, 3, 3, 2, 9, 5, 2, 1, 10, 8, 0];
rr = array2d(1..4, 1..92, [0, 7, 9, 9, 8, 9, 5, 5, 1, 9, 9, 9, 5, 2, 6, 3, 4, 6, 5, 5, 9, 4, 1, 10, 7, 8, 4, 3, 5, 3, 2, 4, 9, 9, 9, 3, 10, 5, 6, 4, 1, 5, 8, 3, 2, 5, 10, 10, 9, 8, 3, 5, 9, 8, 1, 10, 4, 8, 7, 5, 5, 4, 4, 8, 9, 4, 4, 2, 10, 3, 5, 1, 5, 10, 7, 6, 7, 1, 3, 3, 10, 1, 10, 5, 2, 6, 3, 3, 9, 10, 8, 0, 0, 4, 9, 4, 8, 10, 7, 5, 4, 9, 6, 3, 5, 3, 7, 9, 9, 2, 7, 3, 8, 6, 9, 5, 8, 10, 6, 2, 6, 6, 8, 3, 9, 6, 1, 10, 7, 7, 8, 5, 6, 8, 6, 4, 5, 1, 1, 4, 5, 3, 10, 6, 6, 4, 5, 5, 8, 8, 10, 10, 8, 1, 1, 4, 10, 5, 10, 5, 4, 10, 6, 6, 5, 6, 5, 10, 10, 7, 2, 10, 1, 5, 3, 4, 8, 10, 10, 3, 9, 5, 9, 0, 0, 9, 10, 2, 1, 10, 7, 7, 6, 2, 2, 10, 10, 8, 3, 8, 3, 10, 7, 5, 9, 9, 8, 3, 9, 8, 9, 6, 5, 1, 6, 6, 4, 10, 4, 8, 3, 2, 4, 9, 8, 1, 2, 7, 3, 3, 7, 3, 3, 2, 3, 1, 5, 6, 6, 9, 10, 10, 6, 8, 4, 9, 2, 6, 1, 2, 2, 10, 5, 5, 2, 4, 6, 8, 5, 4, 7, 6, 1, 1, 6, 8, 2, 3, 1, 10, 7, 1, 3, 2, 3, 0, 0, 9, 10, 1, 9, 1, 1, 7, 7, 9, 9, 6, 1, 6, 6, 10, 6, 1, 1, 3, 6, 4, 6, 1, 1, 2, 3, 6, 2, 5, 8, 3, 10, 6, 7, 5, 2, 3, 6, 8, 6, 2, 7, 3, 6, 7, 2, 1, 8, 7, 6, 10, 5, 9, 3, 10, 4, 9, 4, 3, 3, 10, 5, 9, 6, 3, 7, 1, 10, 7, 8, 10, 3, 9, 9, 7, 3, 10, 4, 10, 2, 2, 6, 1, 10, 4, 1, 2, 1, 4, 3, 0]);

suc = [
   {2, 3, 4},
   {8, 10, 5},
   {9, 52, 68},
   {24, 34, 39},
   {11, 12, 6},
   {7},
   {18},
   {37, 15},
   {16, 20, 44},
   {26, 14, 22},
   {17, 18, 82},
   {32, 53, 13},
   {24, 21, 38},
   {67, 36, 45},
   {32, 17, 50},
   {50, 43},
   {25, 19, 69},
   {56, 33, 29},
   {47, 23},
   {57, 37, 55},
   {27, 29, 30},
   {33, 63},
   {24, 31},
   {40, 64},
   {35, 28},
   {41, 46},
   {49, 50, 31},
   {49, 70},
   {58},
   {48},
   {77, 63},
   {70},
   {49, 69},
   {90, 60},
   {57, 84},
   {48, 65, 51},
   {42},
   {90, 67},
   {65, 57, 86},
   {80, 41},
   {84},
   {72},
   {54},
   {73, 66, 62},
   {81},
   {53, 78},
   {74, 59},
   {56},
   {79},
   {58, 62},
   {66},
   {75},
   {80},
   {83, 59, 78},
   {66},
   {61, 87, 71},
   {62},
   {71},
   {70},
   {88, 83, 67},
   {64, 86, 63},
   {76},
   {68},
   {85},
   {69},
   {75, 79, 71},
   {68},
   {91},
   {76},
   {81, 85},
   {83, 85},
   {74},
   {74, 77},
   {87},
   {82, 76},
   {77},
   {87},
   {80, 82, 79},
   {88},
   {81},
   {89},
   {89, 91},
   {84},
   {86},
   {88},
   {89},
   {90},
   {91},
   {92},
   {92},
   {92},
   {  } ];

deadline = array2d(1..92, 1..3, [3, 4, 5, 4, 2, 1, 7, 3, 5, 9, 0, 5, 14, 3, 5, 16, 5, 5, 19, 5, 0, 24, 1, 1, 33, 0, 0, 34, 2, 5, 35, 0, 5, 36, 4, 1, 39, 2, 4, 40, 5, 5, 41, 0, 2, 42, 0, 1, 43, 3, 1, 45, 0, 0, 46, 2, 5, 47, 5, 4, 48, 3, 4, 50, 1, 5, 53, 4, 5, 53, 1, 1, 57, 2, 5, 57, 1, 4, 61, 5, 5, 61, 2, 4, 62, 0, 5, 70, 1, 2, 70, 2, 1, 72, 0, 2, 72, 5, 5, 74, 3, 2, 77, 2, 1, 78, 1, 2, 81, 0, 1, 81, 4, 5, 85, 3, 2, 86, 0, 3, 89, 1, 1, 89, 2, 5, 93, 1, 2, 95, 3, 0, 97, 3, 1, 97, 5, 4, 98, 5, 5, 104, 3, 4, 104, 3, 4, 105, 3, 0, 106, 2, 0, 106, 5, 0, 108, 0, 0, 114, 1, 1, 115, 2, 0, 116, 1, 3, 118, 5, 5, 122, 2, 0, 125, 2, 1, 127, 4, 2, 131, 2, 2, 132, 0, 1, 137, 1, 5, 141, 0, 4, 143, 0, 4, 143, 2, 2, 146, 1, 3, 148, 2, 4, 152, 1, 2, 157, 2, 3, 157, 2, 5, 158, 5, 1, 159, 3, 5, 160, 0, 1, 160, 3, 2, 162, 3, 2, 164, 4, 0, 165, 5, 1, 167, 0, 2, 174, 5, 3, 174, 1, 4, 175, 3, 1, 175, 0, 5, 176, 4, 4, 179, 3, 2, 179, 5, 2, 179, 3, 0, 186, 4, 2, 187, 3, 0, 193, 1, 0, 197, 4, 0, 200, 4, 2]);
