n_res = 4;
rc = [ 21, 21, 19, 26 ];
n_tasks = 92;
d = [0, 2, 7, 7, 5, 10, 5, 8, 2, 6, 1, 10, 8, 7, 1, 2, 3, 6, 3, 10, 6, 2, 10, 1, 8, 6, 8, 4, 10, 8, 10, 3, 4, 3, 5, 10, 10, 9, 1, 4, 8, 6, 4, 8, 9, 7, 10, 2, 5, 3, 2, 3, 8, 8, 7, 9, 6, 4, 10, 5, 5, 5, 8, 2, 10, 10, 7, 4, 8, 6, 7, 1, 6, 5, 5, 3, 3, 3, 2, 10, 3, 1, 5, 8, 9, 2, 9, 5, 5, 7, 10, 0];
rr = array2d(1..4, 1..92, [0, 0, 1, 2, 8, 10, 9, 3, 8, 4, 0, 0, 4, 4, 0, 0, 6, 0, 0, 8, 9, 4, 10, 6, 9, 3, 0, 7, 4, 9, 1, 1, 3, 9, 2, 9, 9, 6, 0, 5, 9, 4, 0, 0, 4, 3, 0, 8, 6, 2, 6, 7, 8, 1, 10, 8, 1, 0, 0, 1, 2, 8, 8, 0, 4, 7, 0, 2, 2, 0, 7, 5, 0, 3, 5, 0, 0, 6, 0, 6, 4, 7, 2, 0, 0, 9, 2, 9, 10, 2, 7, 0, 0, 0, 0, 4, 1, 9, 7, 8, 1, 2, 0, 6, 3, 1, 3, 9, 4, 5, 3, 10, 3, 3, 9, 0, 8, 0, 8, 0, 8, 0, 10, 3, 1, 1, 0, 0, 0, 8, 0, 5, 0, 0, 2, 1, 4, 6, 5, 0, 1, 0, 0, 3, 10, 7, 0, 2, 2, 0, 8, 7, 9, 2, 6, 3, 0, 9, 7, 1, 5, 4, 4, 0, 4, 1, 4, 7, 3, 5, 7, 0, 0, 0, 5, 0, 6, 3, 4, 3, 6, 9, 1, 0, 0, 7, 0, 6, 3, 8, 2, 0, 4, 0, 9, 0, 0, 7, 0, 8, 0, 6, 5, 6, 3, 1, 6, 10, 7, 4, 8, 3, 2, 7, 2, 6, 9, 7, 8, 1, 1, 5, 7, 3, 8, 3, 9, 1, 6, 0, 0, 10, 4, 5, 4, 7, 10, 2, 8, 1, 0, 0, 3, 0, 0, 6, 0, 7, 5, 9, 0, 8, 10, 5, 10, 5, 0, 1, 0, 2, 2, 7, 10, 8, 4, 0, 6, 1, 10, 0, 3, 8, 10, 0, 0, 0, 0, 5, 9, 0, 0, 5, 10, 6, 0, 2, 4, 0, 4, 5, 2, 3, 4, 3, 8, 2, 10, 2, 0, 2, 0, 6, 0, 1, 9, 0, 7, 1, 10, 0, 0, 9, 0, 5, 5, 6, 4, 9, 4, 0, 6, 6, 4, 1, 10, 0, 10, 8, 10, 0, 5, 9, 6, 5, 10, 4, 0, 0, 9, 10, 4, 4, 5, 10, 6, 0, 0, 4, 7, 4, 5, 8, 1, 3, 10, 6, 0, 0, 5, 0, 10, 3, 8, 9, 9, 5, 8, 0]);

suc = [
   {2, 3, 4},
   {9, 14, 15},
   {51, 30},
   {41, 5},
   {57, 13, 6},
   {49, 84, 7},
   {8, 10, 22},
   {37, 29, 79},
   {61},
   {11, 12, 23},
   {47},
   {19, 21, 31},
   {16, 25, 39},
   {24, 17, 18},
   {33, 50},
   {27, 44, 85},
   {34, 20},
   {37},
   {67},
   {32, 43},
   {28},
   {26, 51, 53},
   {76},
   {65, 66},
   {46, 64, 38},
   {80},
   {58, 75, 54},
   {35, 30},
   {54},
   {80},
   {69},
   {48, 36},
   {40, 42, 63},
   {74},
   {47},
   {79},
   {72, 86, 71},
   {88},
   {68},
   {70},
   {47},
   {52},
   {59},
   {45},
   {83},
   {73},
   {80, 61},
   {51},
   {56, 60},
   {79},
   {72, 55},
   {54},
   {70},
   {69},
   {74},
   {67},
   {89, 67},
   {82},
   {62},
   {82},
   {85},
   {77},
   {88},
   {81},
   {77},
   {78},
   {77},
   {83},
   {71},
   {91},
   {88},
   {89},
   {75},
   {75},
   {82, 76},
   {78},
   {81},
   {81},
   {85},
   {87},
   {86},
   {91, 87},
   {90, 87},
   {91},
   {86},
   {90},
   {89},
   {90},
   {92},
   {92},
   {92},
   {  } ];

deadline = array2d(1..92, 1..3, [1, 3, 0, 4, 5, 5, 6, 5, 4, 13, 5, 0, 13, 3, 0, 15, 5, 3, 15, 2, 2, 19, 3, 4, 19, 5, 5, 23, 1, 4, 29, 3, 0, 29, 4, 2, 34, 2, 3, 36, 2, 5, 40, 1, 1, 42, 2, 0, 51, 0, 2, 51, 3, 2, 53, 3, 0, 54, 1, 1, 60, 5, 4, 70, 0, 5, 70, 0, 3, 71, 5, 0, 71, 1, 2, 74, 2, 3, 75, 5, 4, 76, 4, 1, 77, 3, 0, 83, 4, 3, 84, 3, 4, 87, 1, 4, 87, 3, 3, 87, 2, 3, 88, 2, 1, 90, 1, 5, 91, 3, 1, 95, 0, 4, 97, 5, 2, 98, 1, 1, 100, 2, 3, 107, 5, 0, 108, 0, 0, 110, 2, 2, 114, 5, 4, 116, 3, 1, 117, 5, 1, 117, 2, 4, 118, 3, 1, 118, 4, 1, 119, 0, 4, 120, 0, 4, 121, 2, 3, 128, 3, 4, 131, 5, 5, 131, 0, 2, 136, 1, 1, 136, 0, 0, 139, 0, 3, 139, 1, 1, 140, 1, 4, 141, 1, 0, 142, 5, 0, 144, 0, 3, 144, 2, 0, 147, 3, 3, 148, 0, 2, 161, 1, 1, 161, 4, 1, 176, 5, 4, 180, 1, 3, 180, 5, 5, 183, 3, 1, 185, 2, 1, 185, 4, 3, 187, 2, 0, 196, 4, 5, 197, 2, 3, 199, 2, 3, 204, 0, 4, 208, 5, 3, 211, 4, 0, 211, 3, 4, 213, 2, 1, 213, 2, 5, 214, 0, 2, 217, 1, 4, 218, 1, 5, 220, 3, 2, 222, 2, 5, 224, 2, 3, 225, 0, 2]);
