n_res = 4;
rc = [ 24, 25, 23, 25 ];
n_tasks = 92;
d = [0, 4, 6, 2, 6, 4, 5, 4, 4, 2, 10, 2, 8, 1, 2, 7, 5, 5, 7, 10, 9, 3, 3, 5, 5, 8, 7, 4, 2, 4, 4, 8, 7, 5, 5, 2, 2, 5, 8, 8, 2, 5, 8, 7, 5, 4, 10, 5, 4, 5, 10, 6, 8, 8, 1, 4, 6, 10, 8, 7, 10, 5, 1, 6, 3, 4, 1, 1, 1, 7, 9, 10, 3, 8, 2, 9, 9, 4, 2, 6, 3, 3, 10, 10, 9, 10, 6, 10, 8, 4, 8, 0];
rr = array2d(1..4, 1..92, [0, 10, 7, 3, 5, 1, 1, 10, 2, 7, 5, 1, 1, 4, 4, 3, 6, 5, 1, 10, 4, 7, 5, 10, 8, 5, 3, 2, 8, 4, 10, 5, 9, 1, 1, 4, 7, 1, 8, 7, 8, 8, 5, 5, 8, 7, 9, 8, 6, 8, 8, 10, 1, 3, 2, 10, 2, 2, 10, 3, 8, 8, 9, 6, 9, 6, 1, 9, 7, 4, 3, 6, 7, 4, 7, 1, 6, 7, 10, 2, 4, 2, 10, 5, 10, 2, 7, 5, 2, 1, 4, 0, 0, 10, 8, 4, 10, 7, 6, 2, 9, 5, 8, 8, 2, 6, 7, 1, 2, 3, 10, 10, 6, 9, 10, 5, 1, 9, 3, 6, 7, 1, 8, 8, 7, 8, 6, 1, 6, 3, 3, 2, 4, 9, 4, 3, 8, 9, 5, 8, 9, 4, 2, 10, 9, 1, 8, 8, 7, 1, 3, 5, 6, 8, 4, 9, 5, 9, 2, 1, 10, 4, 6, 6, 6, 5, 6, 5, 6, 7, 5, 7, 1, 3, 3, 10, 2, 9, 5, 10, 3, 10, 1, 0, 0, 8, 7, 2, 1, 9, 3, 6, 2, 10, 7, 2, 9, 1, 4, 7, 4, 9, 7, 8, 3, 5, 7, 8, 1, 7, 4, 3, 3, 1, 1, 1, 5, 2, 8, 6, 3, 9, 5, 5, 1, 7, 8, 6, 1, 7, 10, 6, 7, 8, 7, 5, 5, 4, 5, 4, 9, 3, 2, 1, 7, 5, 4, 10, 3, 9, 5, 10, 2, 5, 7, 9, 6, 5, 6, 9, 2, 1, 1, 4, 7, 1, 10, 7, 1, 8, 6, 9, 10, 1, 3, 0, 0, 3, 7, 10, 2, 6, 7, 2, 10, 9, 7, 7, 2, 9, 9, 5, 3, 1, 3, 6, 2, 6, 7, 6, 5, 9, 7, 5, 1, 7, 4, 9, 3, 9, 7, 6, 2, 7, 7, 7, 5, 1, 9, 9, 6, 4, 3, 1, 6, 5, 8, 3, 5, 3, 4, 8, 10, 9, 6, 7, 7, 8, 3, 5, 7, 3, 1, 1, 6, 9, 6, 8, 6, 9, 10, 10, 7, 4, 8, 8, 4, 3, 5, 9, 4, 1, 4, 6, 4, 6, 7, 0]);

suc = [
   {2, 3, 4},
   {9, 5, 6},
   {35, 26, 11},
   {19, 76, 7},
   {8, 17, 21},
   {59, 71},
   {10, 13, 15},
   {40, 12, 37},
   {24, 27, 14},
   {57, 35, 39},
   {16, 81, 30},
   {25, 20, 30},
   {59},
   {18, 34, 29},
   {75, 22},
   {58, 71, 31},
   {85, 31},
   {65, 43},
   {49, 50, 28},
   {33, 70},
   {64, 49, 23},
   {60},
   {41, 34, 69},
   {48, 25, 53},
   {64, 33, 60},
   {32, 34, 72},
   {50, 67, 77},
   {66, 44},
   {54, 52, 46},
   {33, 42, 76},
   {32, 39},
   {73, 66, 55},
   {45, 54, 39},
   {51, 36, 55},
   {88, 77, 45},
   {42, 43, 70},
   {56, 44, 38},
   {48, 49, 46},
   {63},
   {57, 67, 44},
   {42, 46, 87},
   {56, 66, 63},
   {73, 45, 79},
   {59, 77, 78},
   {47},
   {81, 55},
   {75, 63},
   {61, 62},
   {74, 62, 79},
   {52, 53, 54},
   {56, 62},
   {65, 58, 69},
   {72, 58, 60},
   {74, 61},
   {57, 78},
   {90},
   {91},
   {68, 84},
   {64, 65, 70},
   {61},
   {83},
   {80, 68, 87},
   {91},
   {68, 85},
   {72},
   {88},
   {76, 69, 71},
   {88},
   {80, 84},
   {73},
   {74},
   {82},
   {82, 86},
   {75},
   {82, 85},
   {86, 83, 78},
   {79},
   {89},
   {80},
   {81},
   {86},
   {83, 84},
   {87},
   {91},
   {90},
   {90},
   {89},
   {89},
   {92},
   {92},
   {92},
   {  } ];

deadline = array2d(1..92, 1..3, [1, 1, 3, 8, 4, 0, 9, 4, 2, 12, 5, 4, 14, 3, 2, 14, 4, 5, 15, 3, 1, 17, 3, 0, 18, 2, 3, 19, 4, 3, 20, 1, 5, 21, 2, 4, 22, 5, 0, 22, 4, 3, 26, 1, 1, 28, 5, 3, 30, 4, 0, 32, 5, 4, 35, 1, 4, 36, 4, 3, 36, 1, 3, 40, 4, 3, 43, 0, 3, 43, 0, 0, 50, 4, 3, 54, 4, 3, 59, 5, 3, 61, 0, 1, 62, 0, 5, 66, 0, 1, 71, 0, 5, 71, 4, 2, 76, 2, 4, 76, 3, 2, 82, 4, 4, 82, 1, 2, 83, 0, 1, 83, 4, 0, 84, 3, 2, 87, 5, 5, 88, 2, 1, 90, 4, 5, 92, 0, 4, 94, 1, 2, 101, 3, 0, 102, 5, 0, 103, 3, 5, 103, 2, 0, 104, 2, 3, 106, 2, 3, 107, 3, 4, 108, 2, 2, 110, 4, 4, 111, 4, 2, 113, 3, 2, 114, 4, 4, 116, 5, 0, 118, 5, 1, 120, 4, 5, 124, 1, 0, 127, 5, 1, 130, 5, 2, 131, 1, 1, 132, 5, 5, 132, 4, 4, 134, 3, 0, 134, 0, 2, 134, 3, 1, 135, 2, 5, 140, 3, 1, 140, 1, 0, 145, 5, 0, 145, 3, 0, 147, 1, 5, 147, 5, 0, 149, 2, 1, 153, 2, 1, 154, 4, 5, 160, 4, 4, 165, 3, 2, 166, 1, 0, 171, 1, 2, 175, 0, 4, 177, 5, 0, 182, 4, 5, 184, 1, 1, 184, 0, 1, 185, 1, 5, 187, 0, 3, 188, 1, 2, 192, 5, 5, 200, 2, 5]);
