n_res = 4;
rc = [ 18, 17, 17, 17 ];
n_tasks = 92;
d = [0, 9, 7, 8, 3, 10, 10, 8, 1, 10, 2, 9, 5, 6, 4, 6, 4, 8, 2, 4, 7, 1, 10, 4, 8, 6, 5, 1, 9, 3, 1, 1, 9, 10, 10, 4, 6, 5, 9, 5, 7, 3, 3, 7, 10, 10, 8, 9, 10, 4, 3, 8, 9, 2, 4, 10, 5, 10, 2, 2, 2, 8, 10, 7, 3, 6, 1, 4, 7, 5, 1, 3, 7, 4, 9, 9, 5, 1, 3, 1, 3, 7, 9, 1, 3, 10, 7, 2, 6, 7, 9, 0];
rr = array2d(1..4, 1..92, [0, 4, 4, 4, 8, 1, 9, 0, 0, 0, 3, 5, 2, 2, 0, 10, 0, 2, 0, 6, 4, 9, 7, 10, 9, 5, 0, 5, 9, 8, 9, 4, 6, 0, 0, 8, 4, 5, 4, 6, 9, 1, 0, 0, 0, 8, 5, 0, 3, 0, 3, 4, 9, 4, 0, 7, 4, 0, 0, 9, 4, 0, 6, 9, 3, 1, 7, 1, 3, 1, 1, 6, 5, 9, 1, 8, 5, 0, 1, 5, 1, 1, 2, 9, 10, 9, 0, 3, 8, 3, 2, 0, 0, 5, 9, 4, 0, 5, 3, 0, 8, 5, 8, 0, 1, 10, 3, 7, 1, 4, 3, 0, 0, 0, 2, 10, 5, 1, 9, 5, 7, 2, 4, 4, 4, 8, 0, 2, 7, 4, 9, 9, 3, 4, 0, 3, 8, 9, 2, 8, 0, 7, 0, 9, 1, 0, 0, 8, 0, 0, 4, 2, 10, 4, 5, 2, 5, 2, 8, 0, 5, 0, 2, 0, 0, 0, 2, 0, 0, 10, 9, 3, 6, 4, 5, 0, 0, 3, 8, 0, 6, 4, 9, 0, 0, 0, 9, 7, 3, 0, 4, 9, 1, 2, 9, 5, 8, 2, 5, 0, 0, 7, 0, 10, 8, 9, 7, 0, 4, 9, 0, 3, 10, 9, 0, 3, 1, 1, 9, 10, 0, 3, 2, 2, 8, 10, 1, 5, 0, 5, 7, 2, 10, 2, 6, 0, 0, 7, 0, 10, 7, 3, 0, 5, 6, 10, 1, 1, 9, 10, 1, 2, 0, 10, 0, 0, 5, 1, 0, 0, 0, 3, 9, 5, 4, 0, 8, 10, 9, 5, 10, 9, 0, 0, 6, 0, 0, 3, 0, 0, 9, 6, 6, 5, 7, 7, 5, 8, 9, 9, 8, 10, 1, 9, 5, 0, 0, 4, 0, 0, 2, 5, 7, 0, 8, 0, 10, 0, 6, 5, 7, 1, 6, 7, 0, 0, 3, 2, 6, 5, 3, 0, 4, 0, 7, 8, 9, 2, 5, 9, 8, 7, 5, 7, 9, 4, 2, 0, 0, 10, 0, 4, 7, 1, 0, 6, 0, 10, 5, 2, 5, 9, 6, 7, 0, 6, 5, 3, 0, 3, 4, 2, 0, 10, 6, 2, 0, 0]);

suc = [
   {2, 3, 4},
   {5, 14, 15},
   {67, 31, 7},
   {16, 28, 6},
   {54, 10, 38},
   {8, 19, 20},
   {35, 23, 15},
   {9, 30},
   {24, 56, 31},
   {18, 11, 39},
   {33, 12, 77},
   {17, 44, 13},
   {25, 26, 21},
   {24, 40, 39},
   {69, 60, 37},
   {74, 51, 70},
   {64, 91, 55},
   {49, 58, 22},
   {42, 62, 39},
   {64, 73, 43},
   {28, 62},
   {59, 27, 45},
   {34, 28, 53},
   {48, 52, 55},
   {32, 29, 46},
   {41, 34, 76},
   {89, 42, 78},
   {52, 37},
   {79, 63},
   {41, 35},
   {36, 61, 46},
   {53, 86, 47},
   {48, 65, 72},
   {69, 36, 37},
   {43, 61, 38},
   {40, 87},
   {48, 42, 50},
   {76, 77, 47},
   {65, 51, 71},
   {81},
   {51, 60, 46},
   {88},
   {77, 45, 87},
   {67, 68},
   {52, 70},
   {66, 59, 47},
   {75, 71},
   {57, 61},
   {67, 76, 53},
   {57, 63},
   {82, 59, 55},
   {72, 82},
   {65, 75},
   {73, 58, 68},
   {87},
   {60},
   {58, 74, 78},
   {64, 83},
   {68},
   {66, 85},
   {86},
   {72, 63},
   {66, 71},
   {81},
   {85},
   {82, 70},
   {79},
   {69},
   {90},
   {80, 75, 78},
   {73},
   {74, 84, 86},
   {80},
   {80, 79},
   {81},
   {88},
   {85},
   {83},
   {83},
   {91},
   {84},
   {84},
   {88},
   {89},
   {89},
   {90},
   {90},
   {91},
   {92},
   {92},
   {92},
   {  } ];

deadline = array2d(1..92, 1..3, [2, 1, 4, 4, 1, 1, 6, 1, 2, 7, 1, 0, 8, 4, 3, 9, 2, 0, 15, 2, 3, 15, 3, 2, 18, 3, 5, 21, 4, 4, 23, 3, 4, 24, 3, 3, 26, 5, 4, 32, 5, 0, 33, 3, 1, 33, 3, 0, 36, 3, 5, 38, 5, 4, 41, 2, 1, 42, 5, 2, 43, 0, 2, 50, 0, 4, 59, 3, 4, 59, 1, 3, 63, 3, 4, 63, 2, 1, 67, 4, 0, 69, 4, 3, 71, 1, 4, 71, 2, 3, 74, 3, 5, 74, 0, 0, 77, 3, 0, 77, 3, 1, 84, 0, 2, 88, 3, 0, 88, 2, 1, 91, 3, 5, 91, 1, 1, 95, 1, 3, 97, 3, 2, 98, 3, 1, 101, 2, 5, 109, 2, 3, 111, 4, 5, 112, 5, 0, 117, 0, 2, 118, 5, 0, 122, 3, 5, 123, 0, 1, 126, 2, 3, 130, 5, 5, 134, 1, 5, 135, 5, 0, 143, 5, 5, 148, 5, 5, 150, 3, 5, 159, 5, 0, 160, 0, 0, 168, 0, 4, 172, 4, 0, 173, 5, 2, 178, 4, 2, 182, 3, 4, 188, 4, 1, 188, 5, 2, 190, 3, 0, 192, 5, 5, 203, 3, 3, 204, 4, 1, 210, 4, 2, 215, 4, 4, 215, 2, 1, 221, 5, 0, 226, 4, 1, 227, 0, 5, 228, 3, 0, 229, 0, 2, 230, 4, 3, 233, 5, 0, 241, 4, 0, 241, 5, 2, 241, 3, 4, 245, 4, 2, 246, 5, 5, 249, 2, 0, 250, 3, 5, 252, 4, 5, 253, 5, 2, 254, 2, 4, 259, 1, 2, 260, 5, 0]);
