n_res = 4;
rc = [ 10, 15, 15, 17 ];
n_tasks = 92;
d = [0, 2, 6, 6, 7, 3, 2, 4, 2, 7, 3, 10, 3, 10, 9, 4, 8, 3, 5, 7, 1, 8, 5, 5, 9, 4, 2, 6, 9, 3, 7, 3, 8, 2, 9, 4, 2, 1, 10, 5, 1, 6, 4, 1, 10, 7, 1, 3, 2, 9, 6, 4, 4, 10, 9, 6, 3, 4, 9, 6, 9, 3, 8, 7, 2, 3, 6, 8, 2, 10, 6, 4, 1, 4, 4, 2, 7, 1, 1, 3, 10, 4, 7, 3, 2, 2, 7, 6, 10, 7, 1, 0];
rr = array2d(1..4, 1..92, [0, 8, 0, 0, 0, 8, 0, 5, 0, 0, 0, 0, 0, 0, 1, 0, 0, 2, 0, 0, 0, 0, 0, 0, 0, 0, 0, 0, 0, 0, 0, 1, 0, 0, 0, 0, 0, 0, 0, 0, 0, 0, 0, 0, 0, 0, 0, 0, 0, 0, 3, 0, 5, 8, 0, 0, 0, 0, 0, 0, 0, 0, 2, 0, 0, 0, 0, 0, 0, 0, 0, 0, 0, 0, 3, 0, 0, 0, 0, 6, 0, 0, 0, 0, 0, 0, 0, 0, 0, 9, 6, 0, 0, 0, 0, 1, 0, 0, 0, 0, 0, 0, 0, 0, 4, 0, 0, 10, 1, 0, 1, 0, 6, 0, 0, 10, 0, 0, 8, 0, 0, 0, 0, 0, 0, 0, 0, 0, 0, 0, 0, 0, 2, 4, 2, 0, 0, 7, 0, 0, 3, 0, 0, 0, 0, 0, 7, 7, 6, 0, 0, 0, 1, 0, 0, 0, 0, 10, 0, 0, 0, 0, 0, 0, 9, 0, 0, 10, 0, 8, 0, 0, 0, 0, 4, 0, 0, 0, 0, 9, 0, 0, 0, 0, 0, 0, 3, 0, 4, 0, 5, 0, 0, 0, 10, 2, 0, 0, 0, 0, 0, 0, 0, 0, 0, 4, 0, 0, 0, 6, 0, 0, 0, 0, 0, 0, 3, 0, 0, 1, 4, 6, 0, 0, 0, 0, 0, 7, 0, 0, 0, 0, 0, 0, 0, 5, 0, 0, 0, 0, 0, 10, 8, 10, 0, 0, 0, 0, 0, 0, 5, 4, 0, 0, 0, 0, 0, 0, 0, 0, 6, 0, 6, 0, 8, 0, 0, 0, 6, 0, 10, 0, 3, 0, 0, 0, 0, 0, 0, 0, 0, 0, 0, 0, 2, 5, 0, 0, 0, 9, 0, 0, 0, 0, 0, 8, 0, 0, 9, 0, 4, 0, 0, 4, 1, 7, 2, 0, 0, 1, 1, 0, 0, 0, 9, 8, 0, 0, 0, 0, 4, 0, 2, 7, 0, 10, 0, 0, 0, 0, 0, 0, 0, 0, 0, 0, 0, 7, 0, 8, 4, 0, 0, 0, 5, 4, 3, 3, 0, 2, 0, 0, 0, 0, 0, 0, 0, 1, 0, 10, 0, 2, 0, 0, 0, 0, 0, 0]);

suc = [
   {2, 3, 4},
   {40, 26, 15},
   {10, 5, 6},
   {72, 46, 7},
   {88, 71},
   {8, 11, 13},
   {9, 14, 17},
   {28},
   {12, 55},
   {19, 76, 22},
   {16, 75},
   {56, 69},
   {20, 62},
   {42, 39, 31},
   {18, 28, 21},
   {86},
   {32, 59, 54},
   {24, 29, 30},
   {69},
   {48, 41, 35},
   {25, 27, 51},
   {37, 23},
   {52},
   {49},
   {34},
   {54},
   {63},
   {54},
   {33, 78, 47},
   {82, 77},
   {36, 38, 68},
   {43, 53},
   {64, 50},
   {75},
   {65},
   {63},
   {59},
   {67, 44},
   {57},
   {60},
   {74, 45},
   {70},
   {48, 70},
   {57, 82},
   {70},
   {87},
   {50},
   {63},
   {62},
   {79},
   {88},
   {67},
   {58, 91},
   {81},
   {86},
   {79},
   {61},
   {68},
   {84},
   {64},
   {89},
   {66},
   {73},
   {80},
   {81},
   {84},
   {78},
   {76, 86},
   {75},
   {81, 84},
   {89},
   {85},
   {78},
   {80},
   {80, 79},
   {82},
   {88},
   {85},
   {83},
   {91},
   {85},
   {89},
   {87},
   {87},
   {90},
   {90},
   {91},
   {90},
   {92},
   {92},
   {92},
   {  } ];

deadline = array2d(1..92, 1..3, [1, 3, 2, 8, 4, 1, 8, 5, 2, 10, 5, 1, 12, 1, 5, 13, 1, 3, 14, 4, 3, 16, 5, 4, 18, 0, 4, 21, 0, 3, 24, 3, 5, 25, 0, 0, 26, 3, 2, 26, 4, 2, 27, 5, 1, 28, 3, 5, 30, 0, 4, 31, 0, 4, 33, 3, 4, 33, 4, 4, 34, 1, 2, 36, 2, 1, 44, 0, 1, 45, 2, 4, 48, 2, 3, 48, 1, 2, 49, 0, 3, 49, 4, 4, 54, 0, 5, 56, 2, 1, 57, 2, 5, 57, 1, 5, 60, 0, 4, 63, 5, 0, 64, 5, 2, 64, 4, 3, 64, 3, 2, 65, 4, 4, 68, 2, 1, 69, 0, 5, 70, 2, 0, 72, 3, 0, 72, 4, 3, 72, 3, 4, 73, 3, 5, 73, 2, 2, 74, 3, 2, 75, 3, 2, 77, 0, 3, 77, 5, 2, 78, 0, 0, 78, 1, 5, 81, 2, 3, 83, 2, 5, 85, 2, 5, 90, 3, 3, 91, 2, 2, 94, 2, 4, 94, 5, 2, 94, 0, 5, 97, 1, 5, 104, 3, 0, 104, 1, 3, 106, 5, 5, 108, 2, 1, 108, 2, 1, 108, 5, 2, 110, 1, 1, 110, 5, 2, 113, 5, 3, 115, 0, 1, 115, 1, 2, 116, 1, 1, 120, 0, 0, 121, 3, 0, 121, 4, 5, 122, 0, 3, 126, 2, 4, 127, 4, 5, 130, 3, 2, 132, 3, 4, 133, 1, 5, 134, 3, 1, 134, 1, 4, 135, 1, 1, 137, 3, 5, 138, 2, 4, 141, 3, 1, 141, 3, 2, 141, 0, 5, 147, 0, 2, 147, 5, 4]);
