n_res = 4;
rc = [ 53, 46, 48, 41 ];
n_tasks = 92;
d = [0, 5, 6, 6, 2, 3, 3, 7, 2, 8, 8, 2, 8, 7, 8, 1, 7, 8, 8, 6, 5, 6, 8, 7, 2, 8, 10, 7, 3, 1, 2, 6, 10, 3, 1, 7, 7, 10, 8, 8, 3, 2, 10, 6, 8, 2, 9, 10, 7, 7, 6, 3, 1, 5, 5, 6, 5, 8, 9, 9, 4, 10, 6, 7, 2, 1, 5, 6, 5, 6, 3, 8, 6, 8, 3, 8, 5, 3, 4, 6, 9, 10, 6, 10, 1, 8, 7, 8, 5, 1, 4, 0];
rr = array2d(1..4, 1..92, [0, 0, 5, 1, 10, 3, 0, 0, 0, 0, 0, 0, 10, 0, 0, 1, 7, 0, 0, 2, 0, 0, 0, 0, 0, 10, 8, 0, 0, 0, 0, 0, 5, 10, 8, 0, 0, 4, 5, 0, 4, 0, 2, 5, 1, 5, 3, 1, 0, 0, 2, 0, 4, 2, 0, 9, 0, 6, 0, 5, 0, 0, 0, 0, 0, 0, 3, 0, 0, 0, 0, 0, 9, 6, 0, 2, 10, 1, 8, 0, 0, 0, 8, 0, 0, 5, 0, 0, 1, 0, 9, 0, 0, 0, 7, 0, 0, 0, 0, 5, 10, 6, 1, 0, 0, 9, 6, 0, 0, 10, 0, 4, 5, 0, 0, 4, 1, 8, 0, 8, 4, 1, 0, 10, 0, 0, 9, 9, 0, 0, 0, 0, 0, 5, 3, 7, 1, 2, 0, 0, 1, 4, 5, 1, 10, 2, 10, 0, 0, 0, 2, 0, 6, 1, 0, 2, 0, 1, 0, 0, 0, 5, 6, 0, 0, 0, 0, 0, 8, 0, 0, 4, 6, 0, 0, 4, 0, 8, 0, 3, 0, 0, 5, 0, 0, 1, 8, 0, 6, 0, 9, 0, 2, 0, 5, 6, 6, 0, 0, 0, 8, 2, 0, 0, 0, 0, 2, 0, 0, 4, 5, 3, 9, 0, 8, 2, 8, 7, 0, 0, 0, 0, 0, 0, 0, 5, 0, 0, 4, 8, 0, 8, 3, 0, 0, 10, 5, 0, 0, 6, 5, 8, 0, 8, 5, 3, 10, 1, 2, 9, 6, 3, 10, 0, 0, 4, 0, 5, 1, 10, 9, 1, 0, 5, 2, 6, 4, 1, 9, 2, 9, 4, 0, 0, 0, 0, 0, 0, 8, 0, 0, 4, 5, 0, 4, 0, 4, 5, 10, 0, 0, 0, 0, 1, 8, 0, 2, 7, 3, 0, 0, 0, 6, 4, 0, 0, 3, 0, 0, 0, 0, 0, 5, 6, 6, 7, 5, 4, 8, 2, 0, 1, 5, 8, 0, 0, 0, 4, 0, 0, 0, 6, 8, 0, 0, 0, 0, 0, 2, 0, 0, 0, 0, 1, 10, 0, 4, 3, 5, 0, 7, 7, 0, 3, 10, 0, 1, 0, 0, 4, 0, 0, 0, 0, 2, 4, 0, 0]);

suc = [
   {2, 3, 4},
   {8, 13, 7},
   {83, 59, 37},
   {9, 11, 5},
   {16, 50, 6},
   {10, 28, 42},
   {23},
   {34, 20, 66},
   {24, 82, 30},
   {25, 26, 51},
   {12, 29, 14},
   {17, 19, 15},
   {64, 26, 39},
   {77},
   {24, 41},
   {74, 55},
   {32, 18, 45},
   {36, 53, 44},
   {21},
   {56, 49, 22},
   {80},
   {43, 27, 51},
   {64, 43, 68},
   {87},
   {33, 79, 31},
   {52},
   {72, 81},
   {61, 38},
   {73, 46, 47},
   {48, 59},
   {71},
   {49, 35},
   {57, 36, 76},
   {65, 50, 44},
   {40},
   {73, 54},
   {41, 67, 69},
   {73, 58},
   {67, 60, 79},
   {81, 50, 66},
   {44, 86},
   {68},
   {65, 54, 79},
   {85},
   {80},
   {56, 63},
   {91, 75},
   {70},
   {74, 53},
   {59, 62},
   {69, 70},
   {62, 55},
   {75, 61},
   {85},
   {57, 70},
   {84},
   {84},
   {65, 75},
   {88, 77, 63},
   {68, 63},
   {67},
   {74},
   {76},
   {72, 78},
   {82},
   {89},
   {84},
   {87, 71},
   {89},
   {90},
   {72},
   {80, 77},
   {85, 78},
   {78},
   {76},
   {89},
   {91},
   {82},
   {81},
   {83},
   {86},
   {87},
   {86},
   {88},
   {91},
   {88},
   {90},
   {90},
   {92},
   {92},
   {92},
   {  } ];

deadline = array2d(1..92, 1..3, [3, 1, 3, 6, 5, 3, 9, 5, 4, 9, 5, 2, 12, 3, 0, 14, 1, 3, 21, 0, 3, 22, 3, 4, 23, 4, 4, 29, 1, 4, 29, 5, 1, 31, 2, 1, 38, 4, 4, 38, 2, 2, 42, 5, 1, 43, 1, 2, 48, 3, 5, 49, 5, 5, 49, 5, 0, 52, 4, 0, 58, 4, 5, 62, 5, 4, 63, 1, 0, 67, 1, 4, 71, 1, 4, 71, 4, 3, 72, 2, 2, 76, 2, 3, 76, 5, 5, 78, 0, 2, 79, 4, 3, 79, 4, 0, 82, 4, 0, 84, 4, 0, 84, 3, 2, 91, 4, 2, 91, 1, 0, 92, 5, 4, 93, 4, 1, 94, 4, 1, 96, 5, 3, 96, 3, 2, 97, 5, 5, 100, 1, 0, 100, 5, 3, 102, 1, 0, 102, 1, 1, 103, 2, 4, 108, 0, 4, 108, 4, 4, 115, 2, 4, 116, 2, 3, 117, 4, 1, 119, 3, 1, 119, 0, 5, 121, 2, 4, 122, 5, 2, 122, 2, 0, 123, 3, 5, 127, 4, 2, 128, 0, 2, 128, 1, 1, 134, 1, 0, 143, 1, 4, 147, 3, 1, 148, 1, 0, 149, 2, 5, 151, 5, 2, 154, 2, 5, 155, 1, 2, 159, 3, 2, 160, 1, 4, 161, 4, 3, 162, 1, 4, 165, 4, 0, 171, 1, 2, 173, 5, 2, 173, 1, 5, 174, 5, 0, 176, 2, 0, 181, 3, 3, 184, 1, 3, 187, 2, 5, 188, 0, 5, 191, 2, 2, 195, 1, 3, 199, 0, 5, 200, 3, 0, 200, 1, 3, 200, 3, 0, 209, 3, 1, 209, 5, 4]);
