n_res = 4;
rc = [ 61, 53, 52, 55 ];
n_tasks = 92;
d = [0, 1, 9, 2, 1, 10, 7, 4, 1, 7, 10, 6, 4, 9, 3, 4, 5, 10, 4, 2, 2, 9, 2, 2, 5, 10, 7, 10, 4, 1, 1, 3, 3, 10, 10, 4, 10, 4, 3, 10, 6, 3, 7, 9, 8, 4, 3, 1, 9, 1, 3, 1, 3, 8, 2, 2, 5, 5, 7, 1, 10, 8, 6, 4, 3, 5, 2, 5, 5, 7, 10, 8, 9, 8, 1, 9, 2, 1, 2, 3, 7, 1, 4, 10, 3, 9, 10, 9, 7, 4, 8, 0];
rr = array2d(1..4, 1..92, [0, 4, 2, 8, 4, 2, 1, 3, 4, 7, 5, 2, 8, 1, 8, 8, 8, 3, 3, 6, 4, 4, 10, 1, 4, 3, 8, 8, 2, 8, 8, 6, 7, 7, 5, 10, 5, 1, 7, 6, 5, 5, 7, 8, 6, 4, 9, 4, 3, 4, 4, 8, 4, 10, 4, 10, 4, 1, 3, 8, 5, 4, 4, 2, 1, 10, 7, 9, 3, 9, 1, 10, 1, 3, 8, 9, 1, 9, 3, 10, 8, 2, 2, 1, 3, 9, 2, 10, 10, 1, 2, 0, 0, 3, 2, 10, 3, 3, 6, 8, 7, 5, 5, 5, 3, 4, 2, 1, 8, 3, 2, 3, 7, 5, 1, 9, 8, 6, 8, 8, 3, 8, 1, 7, 8, 7, 10, 9, 2, 8, 2, 1, 10, 5, 5, 10, 8, 6, 1, 1, 7, 10, 4, 7, 5, 7, 5, 5, 1, 8, 10, 10, 10, 10, 9, 7, 9, 2, 3, 7, 4, 10, 4, 4, 10, 4, 8, 7, 9, 10, 10, 9, 10, 1, 1, 2, 6, 8, 7, 9, 5, 10, 9, 0, 0, 2, 4, 10, 2, 6, 4, 8, 6, 9, 10, 4, 3, 2, 1, 6, 6, 6, 7, 6, 4, 3, 8, 5, 4, 8, 3, 9, 10, 8, 9, 2, 4, 9, 9, 5, 9, 8, 7, 3, 5, 4, 5, 5, 1, 9, 3, 4, 1, 4, 1, 7, 7, 9, 2, 5, 2, 2, 5, 4, 8, 9, 3, 4, 4, 2, 3, 4, 9, 4, 2, 1, 10, 4, 5, 7, 5, 5, 2, 1, 6, 8, 3, 8, 7, 4, 6, 2, 4, 10, 9, 0, 0, 2, 7, 6, 7, 7, 10, 1, 9, 8, 4, 9, 2, 5, 6, 1, 7, 1, 10, 9, 6, 7, 3, 4, 6, 7, 4, 5, 6, 5, 9, 3, 2, 4, 5, 10, 9, 1, 4, 6, 9, 1, 10, 4, 7, 9, 4, 7, 9, 2, 10, 9, 4, 8, 3, 8, 3, 5, 2, 2, 8, 4, 3, 2, 5, 7, 9, 10, 5, 5, 6, 8, 10, 6, 3, 3, 1, 5, 7, 9, 6, 4, 3, 2, 8, 1, 10, 9, 6, 6, 1, 0]);

suc = [
   {2, 3, 4},
   {26, 21, 7},
   {6, 22},
   {32, 5, 55},
   {27, 38},
   {8, 10, 12},
   {9, 34, 28},
   {11, 15},
   {16, 13, 14},
   {17, 41, 23},
   {24, 29},
   {89, 20},
   {19, 69},
   {18, 82},
   {81, 37},
   {58},
   {51, 39},
   {79},
   {56, 42, 61},
   {25, 58, 53},
   {72, 35},
   {70},
   {62},
   {36, 44, 68},
   {31},
   {69, 54},
   {33, 52, 47},
   {57},
   {48, 30, 31},
   {40, 46},
   {56},
   {74},
   {84},
   {49, 86, 71},
   {69},
   {90},
   {50},
   {45},
   {64},
   {75, 43},
   {76},
   {84},
   {77},
   {81},
   {67},
   {80},
   {70},
   {64},
   {90},
   {66, 60, 63},
   {57},
   {65, 87},
   {55},
   {75, 85},
   {86},
   {59},
   {81},
   {76},
   {74},
   {67},
   {65, 66, 75},
   {72},
   {80},
   {73, 78},
   {90},
   {79},
   {72},
   {89},
   {85},
   {71},
   {82},
   {80},
   {82},
   {79},
   {86},
   {78},
   {91},
   {88},
   {88},
   {83},
   {83},
   {87},
   {84, 85},
   {87},
   {88},
   {91},
   {89},
   {91},
   {92},
   {92},
   {92},
   {  } ];

deadline = array2d(1..92, 1..3, [1, 1, 4, 2, 4, 0, 2, 5, 5, 7, 5, 4, 11, 3, 5, 14, 1, 0, 14, 4, 5, 17, 3, 4, 18, 5, 4, 21, 1, 0, 22, 1, 2, 24, 1, 0, 25, 1, 1, 28, 2, 4, 28, 4, 2, 29, 0, 5, 31, 3, 1, 33, 2, 4, 36, 1, 1, 38, 1, 5, 42, 0, 5, 45, 2, 5, 47, 3, 4, 47, 1, 5, 53, 2, 3, 54, 1, 4, 56, 2, 0, 56, 1, 3, 59, 0, 1, 65, 2, 3, 67, 0, 0, 69, 3, 2, 69, 1, 5, 69, 1, 3, 70, 1, 0, 70, 3, 4, 74, 2, 0, 81, 5, 1, 83, 2, 3, 83, 1, 2, 84, 2, 0, 85, 0, 1, 88, 3, 2, 89, 3, 4, 90, 2, 2, 94, 2, 1, 94, 4, 3, 97, 4, 0, 100, 3, 4, 100, 5, 5, 103, 2, 0, 104, 5, 3, 110, 3, 2, 111, 3, 3, 112, 3, 1, 113, 0, 4, 115, 0, 1, 120, 3, 3, 125, 5, 2, 126, 0, 4, 130, 4, 0, 133, 2, 2, 137, 4, 0, 137, 5, 0, 138, 2, 1, 140, 1, 1, 142, 2, 5, 144, 3, 4, 144, 2, 4, 146, 4, 1, 162, 3, 3, 163, 1, 4, 167, 3, 1, 169, 3, 5, 174, 1, 2, 174, 2, 3, 175, 2, 1, 179, 4, 5, 180, 0, 0, 181, 2, 5, 181, 3, 0, 181, 3, 2, 182, 1, 1, 182, 0, 2, 183, 1, 0, 184, 2, 2, 185, 5, 2, 187, 3, 1, 190, 4, 5, 192, 1, 5, 196, 2, 0, 200, 5, 5]);
