n_res = 4;
rc = [ 21, 21, 20, 21 ];
n_tasks = 92;
d = [0, 8, 1, 2, 1, 8, 9, 6, 10, 7, 3, 7, 2, 5, 5, 6, 6, 9, 4, 7, 5, 3, 8, 8, 10, 2, 2, 5, 1, 4, 3, 7, 4, 10, 8, 10, 2, 6, 9, 3, 5, 8, 9, 5, 10, 7, 5, 2, 5, 3, 5, 9, 3, 10, 6, 7, 8, 8, 1, 5, 8, 4, 5, 6, 2, 4, 8, 5, 9, 8, 7, 7, 8, 8, 9, 2, 1, 8, 7, 10, 7, 9, 5, 8, 1, 8, 9, 5, 9, 9, 9, 0];
rr = array2d(1..4, 1..92, [0, 5, 0, 0, 4, 4, 0, 0, 5, 2, 4, 4, 7, 9, 5, 9, 0, 4, 2, 2, 9, 2, 3, 5, 3, 7, 10, 3, 10, 10, 2, 0, 3, 4, 10, 4, 5, 7, 0, 0, 8, 2, 6, 0, 0, 7, 7, 10, 0, 6, 0, 0, 0, 10, 8, 2, 7, 10, 7, 9, 0, 5, 2, 3, 8, 9, 6, 2, 5, 0, 8, 2, 4, 5, 5, 2, 3, 9, 4, 6, 0, 1, 5, 9, 1, 0, 3, 7, 3, 3, 3, 0, 0, 0, 0, 3, 4, 10, 9, 9, 8, 8, 8, 4, 9, 3, 0, 10, 6, 10, 4, 0, 7, 9, 7, 0, 0, 0, 4, 3, 8, 10, 7, 0, 2, 1, 10, 0, 10, 3, 0, 0, 2, 0, 8, 0, 10, 0, 6, 1, 7, 5, 3, 4, 1, 0, 0, 7, 0, 4, 7, 7, 0, 0, 3, 10, 6, 0, 0, 2, 5, 0, 5, 1, 0, 0, 1, 1, 5, 0, 9, 10, 7, 4, 2, 10, 8, 0, 0, 6, 0, 0, 1, 0, 0, 8, 10, 0, 3, 4, 1, 8, 9, 5, 1, 6, 4, 5, 4, 7, 3, 10, 0, 3, 9, 0, 0, 1, 0, 3, 0, 0, 10, 3, 0, 7, 0, 4, 8, 2, 3, 9, 1, 0, 2, 2, 3, 5, 0, 10, 0, 3, 5, 3, 8, 5, 4, 5, 9, 7, 7, 0, 1, 3, 7, 2, 9, 9, 0, 8, 4, 8, 0, 0, 10, 0, 2, 5, 0, 10, 5, 2, 4, 8, 8, 4, 2, 10, 0, 4, 4, 0, 0, 9, 0, 0, 0, 6, 0, 7, 1, 5, 0, 3, 7, 1, 6, 10, 3, 0, 7, 2, 0, 1, 9, 0, 2, 6, 5, 5, 1, 0, 5, 9, 10, 9, 2, 7, 2, 0, 0, 5, 0, 3, 7, 7, 4, 0, 0, 2, 6, 6, 2, 2, 10, 5, 5, 9, 0, 7, 7, 4, 9, 2, 9, 2, 5, 0, 5, 10, 6, 6, 0, 6, 10, 2, 3, 2, 9, 1, 8, 10, 7, 8, 0, 1, 0, 0, 3, 4, 10, 3, 4, 0, 6, 0, 0, 0]);

suc = [
   {2, 3, 4},
   {11, 13, 7},
   {10, 5, 6},
   {8, 37},
   {56, 43, 12},
   {16, 28, 23},
   {12, 52},
   {9, 21},
   {52, 60, 15},
   {25, 14},
   {33, 20, 29},
   {70, 26, 30},
   {75, 43},
   {41},
   {19, 44, 46},
   {24, 17, 35},
   {18},
   {48, 87},
   {32, 22, 31},
   {34, 85, 66},
   {40, 73, 38},
   {58, 47},
   {39},
   {77, 61, 78},
   {89},
   {64, 59, 27},
   {48},
   {62, 57, 54},
   {42},
   {74},
   {82},
   {56, 38},
   {50, 35, 36},
   {68},
   {54, 38},
   {42},
   {48, 45},
   {68},
   {82, 45, 55},
   {50, 62},
   {75, 52},
   {72, 63},
   {80, 51},
   {50, 51},
   {57, 59, 62},
   {73},
   {49, 75, 67},
   {80, 84, 53},
   {65},
   {78},
   {81, 66, 86},
   {74, 67, 54},
   {79},
   {72, 65},
   {72},
   {84},
   {91, 76},
   {67, 76, 71},
   {60},
   {83},
   {66, 86},
   {64, 69},
   {73, 68, 69},
   {78},
   {82},
   {84},
   {85},
   {71},
   {80, 79},
   {76, 85, 71},
   {81},
   {81},
   {88, 74, 77},
   {83},
   {91},
   {83, 77},
   {87},
   {79},
   {90},
   {88},
   {88},
   {86},
   {87},
   {89},
   {90},
   {89},
   {90},
   {91},
   {92},
   {92},
   {92},
   {  } ];

deadline = array2d(1..92, 1..3, [2, 3, 5, 4, 5, 1, 8, 0, 3, 12, 5, 5, 14, 5, 0, 14, 1, 2, 15, 0, 1, 19, 3, 0, 20, 1, 0, 20, 1, 1, 21, 0, 2, 23, 4, 4, 24, 4, 5, 25, 5, 1, 26, 3, 3, 27, 0, 5, 30, 2, 4, 30, 4, 4, 34, 1, 1, 36, 2, 1, 38, 5, 4, 38, 4, 5, 40, 4, 3, 41, 2, 4, 42, 3, 1, 44, 5, 4, 44, 3, 0, 44, 3, 5, 46, 3, 1, 52, 0, 3, 54, 4, 0, 55, 5, 3, 59, 3, 2, 59, 0, 5, 60, 3, 4, 61, 0, 5, 62, 0, 1, 64, 0, 1, 72, 2, 0, 74, 0, 0, 76, 3, 2, 76, 5, 5, 77, 5, 1, 78, 5, 0, 80, 3, 0, 83, 4, 0, 87, 1, 2, 89, 1, 1, 92, 1, 4, 105, 0, 4, 106, 2, 3, 112, 2, 4, 112, 5, 0, 113, 5, 4, 114, 1, 0, 115, 2, 2, 117, 1, 1, 118, 4, 0, 120, 0, 2, 120, 1, 3, 121, 0, 2, 125, 5, 1, 129, 3, 3, 131, 2, 3, 131, 5, 3, 131, 4, 2, 132, 0, 5, 132, 4, 0, 135, 3, 3, 136, 3, 4, 140, 0, 3, 140, 2, 3, 141, 3, 5, 143, 1, 3, 149, 1, 5, 149, 1, 5, 150, 3, 4, 152, 0, 0, 154, 0, 0, 154, 1, 4, 154, 3, 0, 161, 0, 1, 168, 0, 1, 169, 3, 5, 170, 3, 1, 170, 3, 2, 174, 2, 4, 178, 1, 2, 179, 3, 1, 180, 3, 0, 187, 4, 5, 192, 1, 1]);
