n_res = 4;
rc = [ 87, 70, 71, 64 ];
n_tasks = 92;
d = [0, 2, 7, 7, 10, 8, 6, 9, 3, 7, 3, 3, 2, 4, 10, 10, 10, 8, 1, 6, 4, 9, 3, 10, 4, 1, 1, 8, 6, 4, 5, 9, 6, 5, 8, 9, 10, 4, 3, 5, 8, 4, 1, 9, 9, 6, 4, 9, 2, 3, 4, 10, 6, 3, 7, 6, 3, 2, 9, 9, 9, 3, 9, 10, 5, 2, 7, 6, 9, 5, 8, 2, 2, 8, 10, 4, 1, 2, 1, 4, 10, 1, 4, 2, 8, 4, 8, 3, 4, 10, 2, 0];
rr = array2d(1..4, 1..92, [0, 7, 8, 3, 7, 3, 8, 9, 6, 1, 3, 6, 8, 6, 10, 1, 6, 4, 8, 2, 10, 6, 4, 9, 3, 7, 7, 1, 8, 4, 10, 10, 2, 9, 3, 9, 10, 1, 8, 9, 6, 10, 1, 10, 5, 4, 5, 6, 7, 1, 6, 5, 8, 5, 1, 7, 9, 3, 3, 7, 5, 2, 4, 3, 5, 9, 9, 1, 3, 6, 2, 2, 5, 9, 6, 3, 5, 3, 7, 2, 10, 10, 10, 10, 9, 1, 9, 2, 3, 2, 1, 0, 0, 10, 3, 8, 2, 1, 1, 9, 8, 1, 1, 8, 7, 3, 1, 6, 4, 3, 3, 10, 8, 3, 4, 2, 7, 1, 6, 4, 4, 2, 7, 6, 2, 6, 7, 9, 3, 1, 2, 8, 1, 2, 10, 6, 10, 9, 8, 4, 1, 1, 8, 10, 2, 1, 3, 5, 9, 2, 7, 8, 1, 6, 7, 2, 9, 3, 2, 7, 3, 5, 4, 5, 1, 5, 3, 9, 3, 5, 7, 8, 9, 4, 7, 2, 6, 10, 2, 6, 3, 7, 9, 0, 0, 7, 9, 6, 2, 2, 9, 5, 2, 4, 3, 3, 3, 6, 9, 9, 8, 8, 2, 10, 9, 10, 8, 3, 2, 8, 5, 9, 6, 1, 3, 3, 8, 4, 7, 1, 5, 10, 2, 8, 10, 2, 9, 8, 3, 5, 1, 2, 4, 2, 4, 1, 7, 8, 2, 9, 3, 1, 7, 7, 2, 4, 9, 4, 7, 9, 8, 10, 10, 8, 3, 6, 1, 3, 8, 10, 9, 10, 5, 2, 2, 8, 8, 2, 8, 6, 1, 4, 8, 3, 9, 0, 0, 9, 1, 1, 8, 7, 3, 2, 3, 9, 6, 8, 1, 8, 3, 9, 4, 7, 1, 4, 2, 4, 9, 7, 8, 9, 8, 7, 4, 2, 6, 3, 6, 10, 3, 7, 4, 5, 8, 1, 5, 6, 5, 9, 7, 3, 5, 7, 6, 1, 2, 3, 5, 8, 9, 6, 9, 10, 6, 1, 3, 1, 1, 8, 8, 7, 4, 9, 9, 2, 2, 5, 8, 7, 7, 8, 1, 5, 7, 1, 1, 9, 7, 3, 10, 4, 5, 5, 10, 9, 5, 0]);

suc = [
   {2, 3, 4},
   {49, 29, 22},
   {34, 11, 84},
   {9, 5, 6},
   {25, 51},
   {17, 12, 7},
   {8, 16, 10},
   {13, 22, 15},
   {35, 61, 31},
   {24, 33, 14},
   {40, 59, 39},
   {66, 19, 28},
   {65, 18, 30},
   {26, 54, 47},
   {20, 46, 23},
   {51, 29},
   {40, 86, 30},
   {27, 52, 23},
   {36, 77, 23},
   {21, 39},
   {75},
   {26, 27, 53},
   {32, 89, 38},
   {40, 26, 90},
   {66, 37},
   {60, 38, 39},
   {56, 64, 63},
   {49, 90, 59},
   {56, 86},
   {72, 41},
   {32, 62},
   {64, 50, 44},
   {72, 53, 45},
   {42, 58, 60},
   {48, 49, 67},
   {83, 67, 54},
   {62, 57, 38},
   {63},
   {65, 43},
   {42, 43, 52},
   {48, 62, 55},
   {73, 45, 54},
   {75, 45},
   {58, 78},
   {81},
   {57, 59},
   {73, 58, 51},
   {68, 69, 70},
   {52, 69, 60},
   {82, 76, 79},
   {56, 66, 55},
   {53, 63},
   {81, 91, 55},
   {88, 69},
   {71},
   {77, 61},
   {65, 61, 71},
   {87},
   {80},
   {75, 71},
   {68, 70, 76},
   {74, 68, 70},
   {85},
   {82},
   {73},
   {72, 67, 79},
   {74, 86},
   {85},
   {85},
   {78},
   {74},
   {87},
   {81},
   {80},
   {83, 76},
   {87},
   {80, 78, 79},
   {82},
   {84},
   {88},
   {83},
   {84},
   {89},
   {90},
   {91},
   {88},
   {91},
   {89},
   {92},
   {92},
   {92},
   {  } ];

deadline = array2d(1..92, 1..3, [2, 1, 0, 3, 5, 0, 4, 0, 1, 5, 1, 0, 5, 1, 0, 13, 2, 5, 13, 1, 2, 13, 2, 3, 15, 0, 2, 15, 2, 1, 17, 5, 3, 17, 5, 3, 19, 4, 2, 19, 2, 4, 23, 4, 4, 24, 5, 3, 29, 2, 0, 37, 2, 2, 38, 4, 5, 38, 0, 4, 40, 0, 4, 45, 1, 1, 49, 4, 5, 54, 0, 2, 60, 3, 3, 61, 1, 5, 62, 2, 4, 68, 5, 0, 74, 5, 3, 76, 2, 2, 76, 4, 5, 77, 0, 3, 78, 0, 3, 83, 5, 1, 87, 4, 5, 89, 1, 4, 89, 5, 5, 93, 5, 0, 101, 3, 0, 101, 5, 3, 103, 5, 2, 103, 2, 5, 105, 0, 4, 109, 3, 1, 110, 1, 1, 113, 0, 4, 115, 4, 2, 117, 4, 3, 121, 4, 3, 122, 0, 4, 130, 4, 1, 131, 3, 5, 133, 4, 5, 135, 0, 5, 143, 0, 5, 145, 0, 2, 146, 0, 1, 147, 3, 0, 148, 5, 0, 155, 4, 4, 156, 3, 0, 156, 5, 2, 158, 1, 1, 158, 1, 1, 159, 2, 5, 160, 4, 4, 160, 1, 3, 161, 4, 1, 161, 1, 4, 161, 5, 4, 166, 4, 1, 167, 4, 0, 167, 4, 3, 169, 3, 5, 175, 2, 3, 179, 5, 3, 183, 3, 4, 183, 4, 3, 183, 2, 5, 187, 2, 2, 193, 5, 0, 200, 0, 4, 201, 0, 1, 201, 2, 0, 204, 1, 5, 205, 3, 5, 206, 1, 5, 212, 2, 5, 218, 3, 3, 219, 5, 2, 220, 3, 2, 227, 1, 2]);
