n_res = 4;
rc = [ 37, 39, 46, 44 ];
n_tasks = 92;
d = [0, 9, 4, 3, 2, 1, 7, 2, 6, 4, 10, 10, 4, 4, 6, 4, 4, 3, 7, 9, 5, 3, 7, 6, 7, 7, 9, 7, 7, 9, 2, 2, 9, 10, 10, 4, 4, 7, 2, 1, 10, 8, 6, 1, 3, 5, 10, 4, 4, 2, 4, 2, 10, 7, 3, 6, 10, 9, 10, 1, 10, 7, 5, 4, 5, 2, 7, 8, 5, 7, 7, 4, 9, 9, 7, 10, 9, 3, 3, 7, 10, 10, 2, 9, 6, 6, 1, 9, 7, 8, 1, 0];
rr = array2d(1..4, 1..92, [0, 0, 0, 0, 2, 0, 0, 0, 10, 0, 0, 8, 0, 7, 0, 0, 0, 0, 9, 0, 0, 9, 0, 0, 0, 0, 4, 0, 10, 0, 0, 0, 0, 0, 0, 9, 2, 9, 0, 8, 3, 0, 2, 9, 1, 0, 10, 0, 0, 6, 4, 0, 5, 0, 4, 0, 0, 10, 0, 10, 5, 0, 4, 0, 0, 0, 0, 0, 1, 0, 6, 0, 0, 0, 0, 7, 1, 9, 0, 6, 0, 0, 1, 2, 0, 1, 7, 0, 0, 6, 10, 0, 0, 7, 9, 8, 7, 3, 0, 2, 0, 8, 4, 10, 3, 5, 0, 0, 1, 9, 0, 8, 0, 0, 0, 0, 7, 1, 10, 7, 0, 6, 1, 0, 10, 0, 8, 7, 0, 5, 1, 7, 0, 2, 0, 0, 0, 1, 0, 8, 5, 0, 0, 4, 7, 2, 0, 0, 1, 1, 9, 0, 3, 7, 0, 0, 0, 0, 2, 0, 8, 0, 2, 0, 0, 0, 0, 8, 0, 0, 5, 7, 8, 0, 8, 0, 2, 9, 6, 0, 0, 0, 0, 0, 0, 0, 0, 0, 0, 6, 5, 5, 4, 0, 0, 9, 0, 7, 5, 0, 0, 6, 6, 0, 6, 9, 0, 9, 3, 3, 0, 0, 0, 0, 0, 0, 0, 0, 8, 0, 4, 5, 0, 9, 4, 10, 0, 0, 2, 0, 0, 0, 8, 0, 0, 3, 10, 0, 6, 8, 0, 4, 0, 5, 0, 0, 2, 9, 1, 5, 0, 2, 10, 2, 0, 9, 8, 3, 3, 0, 2, 2, 0, 3, 8, 0, 0, 0, 8, 0, 8, 0, 8, 3, 0, 0, 0, 6, 9, 0, 1, 0, 8, 0, 0, 0, 9, 5, 5, 9, 8, 4, 2, 5, 2, 0, 0, 0, 8, 0, 0, 0, 0, 0, 1, 7, 0, 3, 1, 1, 0, 9, 7, 0, 0, 7, 2, 1, 5, 0, 0, 5, 0, 4, 0, 10, 0, 0, 0, 8, 0, 0, 1, 7, 0, 0, 0, 8, 0, 0, 2, 2, 5, 9, 7, 0, 9, 0, 7, 8, 0, 0, 9, 0, 0, 2, 0, 4, 9, 0, 0, 8, 0, 5, 1, 8, 0, 0]);

suc = [
   {2, 3, 4},
   {5, 14, 15},
   {60, 6, 55},
   {8, 9, 7},
   {43, 12},
   {10, 11, 21},
   {16, 48, 30},
   {24, 40, 22},
   {72, 43, 39},
   {56, 27, 45},
   {17, 25},
   {68, 13, 31},
   {82, 59, 28},
   {18, 23},
   {73, 35, 27},
   {19, 45},
   {58, 37, 54},
   {32, 34, 20},
   {50, 20},
   {51, 61},
   {41, 26, 44},
   {59, 45, 47},
   {40, 42, 37},
   {53, 35, 29},
   {49},
   {48, 91, 53},
   {34, 36, 29},
   {50, 37, 71},
   {33, 58, 38},
   {35, 52, 55},
   {52, 46, 39},
   {40, 68, 54},
   {61, 46},
   {81, 50, 69},
   {41, 68},
   {54, 49, 38},
   {67},
   {75, 84, 61},
   {57, 60, 86},
   {56, 46, 63},
   {84},
   {48, 79},
   {63, 55, 47},
   {66, 53, 62},
   {75, 67},
   {66, 77},
   {65, 52, 60},
   {56, 81, 58},
   {74, 51, 87},
   {78, 74, 70},
   {59, 78},
   {80},
   {57, 79},
   {65, 70, 79},
   {73, 57, 66},
   {70},
   {67},
   {63},
   {72, 80},
   {76, 77, 71},
   {64, 65, 82},
   {73},
   {75},
   {72, 85},
   {69, 78},
   {74, 82},
   {69},
   {71},
   {76, 85},
   {83, 86},
   {87},
   {81, 77},
   {76, 87},
   {84},
   {89, 83},
   {80, 89},
   {91},
   {91},
   {83},
   {90},
   {88},
   {85},
   {88},
   {86},
   {90},
   {89},
   {88},
   {90},
   {92},
   {92},
   {92},
   {  } ];

deadline = array2d(1..92, 1..3, [5, 5, 3, 6, 3, 3, 6, 5, 5, 7, 1, 5, 7, 3, 0, 8, 0, 4, 12, 4, 1, 12, 0, 0, 15, 2, 5, 16, 3, 2, 17, 1, 4, 23, 3, 2, 25, 2, 3, 25, 1, 0, 26, 3, 4, 28, 1, 2, 34, 3, 1, 35, 5, 4, 36, 3, 2, 38, 3, 5, 42, 3, 0, 42, 1, 3, 42, 2, 5, 44, 4, 5, 45, 4, 1, 48, 3, 1, 51, 1, 5, 51, 1, 1, 54, 0, 3, 56, 5, 3, 61, 5, 1, 65, 0, 4, 65, 0, 5, 66, 3, 3, 66, 5, 0, 67, 5, 1, 68, 3, 1, 76, 4, 3, 77, 3, 1, 77, 3, 4, 78, 1, 2, 79, 2, 5, 84, 4, 4, 91, 0, 1, 92, 1, 1, 93, 4, 2, 95, 2, 5, 101, 5, 0, 102, 5, 1, 110, 5, 1, 112, 5, 2, 116, 5, 5, 122, 3, 5, 123, 1, 3, 125, 0, 5, 125, 3, 1, 135, 2, 3, 137, 3, 0, 139, 5, 2, 144, 0, 0, 144, 2, 2, 149, 3, 2, 150, 5, 1, 159, 2, 5, 163, 3, 4, 163, 0, 3, 164, 3, 1, 166, 5, 3, 167, 3, 3, 169, 2, 0, 170, 1, 4, 171, 4, 5, 171, 5, 4, 172, 5, 3, 181, 2, 4, 182, 1, 3, 186, 2, 2, 188, 1, 4, 193, 0, 3, 195, 2, 2, 196, 4, 1, 196, 1, 4, 197, 3, 0, 201, 3, 1, 201, 3, 0, 202, 5, 0, 202, 2, 3, 203, 0, 3, 207, 1, 0, 210, 1, 2, 212, 2, 4, 212, 2, 5]);
