n_res = 4;
rc = [ 27, 23, 22, 24 ];
n_tasks = 92;
d = [0, 1, 8, 7, 3, 7, 4, 4, 6, 8, 4, 4, 3, 4, 2, 3, 8, 2, 5, 1, 4, 6, 9, 1, 4, 2, 2, 8, 3, 9, 8, 6, 2, 5, 9, 3, 7, 3, 4, 4, 8, 7, 3, 4, 5, 4, 4, 5, 7, 4, 3, 7, 7, 5, 4, 9, 5, 4, 4, 5, 6, 8, 8, 7, 10, 10, 1, 4, 9, 9, 6, 5, 9, 7, 1, 3, 3, 2, 10, 1, 1, 7, 8, 4, 7, 1, 7, 5, 2, 2, 9, 0];
rr = array2d(1..4, 1..92, [0, 9, 5, 0, 6, 0, 0, 7, 0, 0, 10, 0, 0, 0, 0, 5, 0, 0, 0, 7, 0, 0, 0, 10, 0, 9, 0, 6, 0, 0, 0, 0, 0, 8, 8, 0, 7, 0, 0, 0, 0, 10, 0, 0, 0, 4, 0, 0, 4, 0, 0, 0, 0, 0, 0, 0, 0, 0, 0, 0, 5, 3, 0, 0, 5, 0, 0, 0, 0, 8, 3, 0, 0, 0, 2, 0, 7, 0, 0, 0, 0, 2, 0, 0, 0, 0, 0, 0, 0, 0, 4, 0, 0, 0, 0, 0, 0, 2, 10, 0, 0, 0, 0, 3, 0, 1, 0, 0, 0, 6, 4, 0, 0, 0, 10, 0, 0, 0, 5, 0, 0, 3, 0, 0, 0, 0, 0, 2, 0, 0, 5, 0, 0, 0, 0, 6, 0, 0, 0, 0, 0, 0, 0, 6, 0, 0, 2, 5, 0, 9, 6, 6, 0, 0, 0, 0, 0, 0, 0, 0, 0, 0, 0, 0, 0, 0, 0, 0, 0, 0, 0, 0, 10, 0, 0, 0, 3, 0, 0, 1, 0, 0, 0, 0, 0, 0, 0, 0, 0, 0, 0, 0, 0, 0, 0, 0, 0, 0, 0, 0, 9, 0, 0, 0, 5, 0, 0, 0, 2, 0, 0, 0, 0, 0, 1, 0, 3, 0, 0, 0, 0, 6, 0, 0, 10, 0, 0, 0, 5, 0, 5, 2, 0, 1, 0, 0, 7, 4, 0, 0, 0, 0, 0, 0, 0, 0, 0, 0, 0, 0, 0, 7, 2, 0, 0, 4, 7, 0, 0, 0, 0, 0, 0, 3, 0, 0, 3, 2, 0, 5, 0, 0, 0, 5, 0, 0, 0, 0, 0, 1, 0, 0, 0, 0, 7, 7, 0, 0, 8, 0, 1, 0, 0, 0, 0, 0, 0, 9, 0, 0, 0, 0, 0, 0, 9, 0, 0, 10, 0, 0, 0, 0, 0, 0, 0, 4, 0, 0, 5, 0, 0, 0, 0, 0, 0, 0, 4, 0, 0, 0, 0, 0, 4, 0, 0, 0, 0, 0, 1, 6, 0, 8, 3, 0, 0, 0, 0, 0, 0, 5, 0, 9, 0, 9, 5, 0, 0, 0, 0, 0, 0, 0, 2, 0, 2, 0, 0, 0]);

suc = [
   {2, 3, 4},
   {16, 20, 22},
   {13, 39},
   {34, 28, 5},
   {17, 6, 7},
   {64, 59, 14},
   {8, 10, 12},
   {9, 18, 27},
   {11, 23, 15},
   {24, 19, 21},
   {41, 51, 71},
   {53},
   {89, 43},
   {49},
   {29},
   {25, 36},
   {57, 26},
   {45},
   {81},
   {45},
   {56},
   {62},
   {40, 52},
   {33, 35, 29},
   {81, 73, 30},
   {46},
   {87},
   {32, 90},
   {50, 55},
   {34, 67, 31},
   {70},
   {38},
   {37, 54},
   {44, 53, 47},
   {47},
   {42},
   {70, 79},
   {49},
   {72},
   {55},
   {72, 52},
   {48, 62},
   {64},
   {58},
   {80},
   {54},
   {62},
   {70},
   {82},
   {65},
   {57},
   {80},
   {78},
   {68},
   {84},
   {78},
   {80},
   {66, 77, 63},
   {60, 85},
   {61},
   {72},
   {84, 69},
   {78},
   {75},
   {88},
   {71},
   {77},
   {87},
   {86},
   {83, 76},
   {74},
   {81, 73, 79},
   {83},
   {76},
   {90},
   {85},
   {83},
   {91},
   {88},
   {88},
   {82},
   {91},
   {86, 87},
   {85},
   {90},
   {91},
   {89},
   {89},
   {92},
   {92},
   {92},
   {  } ];

deadline = array2d(1..92, 1..3, [1, 0, 4, 4, 1, 2, 6, 5, 3, 7, 2, 5, 7, 5, 1, 14, 4, 3, 14, 2, 3, 17, 5, 4, 17, 0, 0, 34, 1, 1, 34, 2, 0, 35, 4, 0, 35, 0, 4, 39, 5, 1, 40, 1, 5, 40, 4, 3, 42, 1, 2, 42, 2, 1, 42, 2, 4, 44, 5, 0, 49, 3, 0, 50, 1, 2, 52, 5, 1, 53, 5, 5, 55, 4, 0, 56, 1, 0, 58, 3, 5, 58, 0, 0, 59, 1, 2, 63, 1, 2, 64, 2, 5, 67, 0, 1, 67, 5, 2, 73, 2, 4, 73, 3, 1, 75, 4, 3, 76, 0, 0, 77, 2, 3, 78, 4, 2, 78, 1, 2, 80, 2, 1, 84, 2, 0, 84, 2, 3, 85, 2, 0, 87, 0, 0, 89, 0, 0, 90, 1, 1, 90, 0, 5, 92, 5, 0, 92, 3, 0, 95, 0, 4, 95, 0, 5, 96, 4, 5, 98, 5, 1, 100, 5, 1, 102, 0, 1, 103, 0, 4, 103, 0, 5, 105, 4, 3, 109, 0, 2, 110, 0, 4, 111, 4, 1, 112, 5, 3, 117, 4, 3, 119, 3, 3, 121, 5, 2, 122, 0, 3, 123, 0, 4, 124, 4, 0, 128, 2, 0, 135, 2, 3, 135, 4, 3, 135, 5, 1, 136, 0, 3, 137, 5, 4, 137, 0, 4, 140, 4, 1, 141, 2, 5, 142, 0, 5, 144, 5, 5, 145, 2, 0, 145, 5, 0, 147, 5, 2, 149, 4, 1, 149, 3, 5, 151, 4, 3, 152, 2, 5, 159, 0, 1, 164, 4, 2, 166, 2, 5, 167, 0, 2, 170, 2, 2]);
