n_res = 4;
rc = [ 25, 21, 21, 23 ];
n_tasks = 92;
d = [0, 3, 2, 9, 7, 2, 1, 7, 9, 7, 7, 4, 4, 9, 2, 5, 7, 8, 3, 7, 9, 8, 10, 6, 10, 5, 1, 5, 6, 7, 4, 9, 4, 8, 6, 9, 9, 4, 4, 9, 3, 3, 9, 5, 2, 8, 3, 10, 2, 7, 10, 5, 4, 10, 1, 9, 7, 1, 2, 3, 1, 10, 5, 9, 9, 2, 4, 2, 10, 10, 4, 8, 3, 4, 3, 10, 2, 1, 3, 1, 9, 4, 10, 1, 2, 8, 5, 1, 8, 4, 10, 0];
rr = array2d(1..4, 1..92, [0, 6, 3, 5, 7, 6, 6, 3, 4, 5, 2, 2, 8, 7, 6, 10, 6, 2, 5, 10, 8, 6, 3, 9, 3, 10, 1, 3, 6, 8, 9, 8, 4, 10, 6, 3, 2, 6, 5, 5, 3, 3, 9, 10, 8, 4, 4, 5, 5, 9, 7, 5, 6, 6, 8, 9, 5, 2, 7, 6, 6, 8, 7, 9, 4, 2, 1, 5, 9, 3, 6, 5, 6, 7, 6, 1, 7, 7, 2, 8, 7, 2, 1, 7, 10, 7, 7, 8, 2, 7, 9, 0, 0, 2, 4, 6, 8, 8, 6, 4, 6, 4, 5, 5, 8, 4, 7, 9, 9, 5, 1, 10, 7, 4, 4, 4, 10, 3, 2, 2, 7, 2, 1, 9, 3, 1, 3, 6, 1, 10, 6, 3, 7, 5, 3, 3, 10, 2, 1, 9, 9, 4, 1, 5, 2, 4, 10, 8, 10, 4, 2, 8, 3, 7, 2, 7, 10, 2, 9, 5, 7, 1, 7, 10, 10, 4, 2, 5, 3, 7, 5, 3, 8, 5, 5, 5, 4, 10, 3, 5, 4, 6, 1, 0, 0, 7, 4, 2, 4, 5, 6, 10, 8, 2, 2, 7, 1, 4, 7, 7, 2, 7, 3, 8, 3, 2, 5, 7, 6, 5, 3, 10, 3, 2, 6, 2, 4, 6, 2, 3, 6, 8, 2, 9, 8, 8, 7, 5, 7, 9, 3, 8, 9, 7, 5, 9, 8, 8, 1, 8, 9, 10, 4, 2, 4, 2, 7, 2, 3, 1, 2, 2, 5, 9, 6, 9, 5, 8, 8, 10, 3, 7, 6, 6, 2, 10, 4, 1, 4, 8, 1, 4, 7, 7, 4, 0, 0, 5, 8, 4, 10, 2, 1, 9, 1, 5, 4, 6, 9, 4, 3, 7, 9, 3, 8, 1, 3, 1, 8, 8, 1, 5, 3, 10, 4, 7, 9, 5, 5, 6, 1, 7, 9, 9, 1, 10, 9, 1, 6, 6, 10, 2, 7, 9, 5, 1, 6, 4, 1, 1, 6, 4, 10, 7, 4, 1, 9, 6, 10, 1, 2, 5, 6, 2, 3, 4, 8, 6, 1, 2, 1, 5, 8, 7, 9, 6, 3, 9, 10, 3, 2, 10, 10, 9, 5, 8, 6, 0]);

suc = [
   {2, 3, 4},
   {13, 5, 6},
   {8, 16, 7},
   {19, 34, 11},
   {25, 51},
   {9, 20, 22},
   {19, 12, 15},
   {27, 10, 18},
   {26, 29, 31},
   {12, 15},
   {62, 14},
   {17, 34, 38},
   {75, 51, 60},
   {72, 49, 54},
   {60, 45},
   {43, 54, 47},
   {25, 22, 71},
   {50, 22, 39},
   {32, 23},
   {28, 21, 30},
   {48, 41, 65},
   {59, 37},
   {24, 35, 45},
   {40, 48, 75},
   {32, 42},
   {33, 43, 53},
   {81, 34, 37},
   {42, 43, 52},
   {64, 86},
   {50, 52},
   {73, 35, 36},
   {56, 73, 83},
   {44},
   {56, 64, 51},
   {67, 47},
   {69, 46, 39},
   {85, 61, 55},
   {61},
   {42, 74, 66},
   {57, 77, 46},
   {70, 62, 63},
   {78},
   {76},
   {65, 58, 66},
   {88, 79, 55},
   {59, 60, 70},
   {48, 66, 52},
   {81, 53},
   {65, 59, 76},
   {57, 70, 63},
   {67, 53, 62},
   {58},
   {91},
   {64, 58, 55},
   {74, 69, 86},
   {82, 79},
   {82, 68},
   {84, 61},
   {89, 81, 67},
   {78, 63},
   {87},
   {68, 78, 71},
   {68},
   {73},
   {69},
   {75, 85},
   {80},
   {72},
   {77},
   {80, 90, 71},
   {72, 87},
   {74, 84},
   {88, 76},
   {83},
   {83},
   {77},
   {80},
   {84, 79},
   {90, 85},
   {82},
   {88},
   {87},
   {89},
   {86},
   {91},
   {89},
   {91},
   {90},
   {92},
   {92},
   {92},
   {  } ];

deadline = array2d(1..92, 1..3, [2, 2, 5, 3, 2, 2, 9, 1, 3, 10, 2, 2, 13, 2, 4, 13, 2, 4, 13, 0, 3, 19, 4, 0, 24, 4, 2, 26, 3, 3, 30, 4, 3, 31, 4, 2, 37, 0, 0, 38, 4, 3, 43, 1, 4, 45, 4, 2, 50, 4, 0, 53, 4, 5, 53, 3, 4, 56, 1, 0, 56, 3, 3, 59, 4, 2, 63, 0, 0, 64, 5, 1, 66, 4, 2, 67, 2, 5, 68, 3, 5, 69, 2, 5, 71, 3, 0, 73, 3, 0, 73, 5, 4, 78, 2, 0, 82, 0, 1, 82, 1, 4, 86, 0, 1, 86, 3, 5, 93, 3, 4, 96, 1, 2, 98, 4, 0, 102, 4, 3, 105, 5, 1, 106, 1, 5, 114, 4, 4, 114, 1, 3, 115, 4, 2, 115, 1, 1, 118, 0, 2, 129, 2, 2, 131, 1, 1, 132, 0, 2, 138, 1, 3, 145, 0, 4, 146, 5, 3, 147, 2, 0, 147, 3, 0, 151, 3, 2, 154, 1, 2, 156, 3, 0, 157, 0, 0, 160, 1, 0, 161, 5, 0, 167, 1, 1, 169, 3, 5, 170, 4, 0, 173, 1, 3, 174, 5, 4, 175, 0, 5, 179, 3, 0, 179, 1, 4, 181, 2, 3, 183, 2, 1, 184, 0, 5, 184, 2, 0, 185, 3, 0, 186, 5, 1, 187, 0, 4, 192, 3, 2, 193, 0, 3, 196, 3, 0, 201, 0, 4, 201, 3, 0, 203, 4, 5, 205, 5, 5, 207, 0, 2, 213, 5, 1, 214, 0, 1, 216, 1, 2, 218, 0, 3, 219, 4, 2, 222, 2, 4, 222, 4, 4, 222, 3, 2]);
