n_res = 4;
rc = [ 47, 47, 42, 34 ];
n_tasks = 92;
d = [0, 3, 1, 5, 8, 3, 8, 1, 7, 7, 9, 10, 7, 10, 6, 8, 5, 8, 6, 1, 7, 10, 4, 10, 3, 10, 3, 5, 5, 3, 5, 6, 8, 8, 3, 5, 7, 5, 4, 6, 3, 3, 5, 1, 2, 4, 5, 2, 5, 8, 1, 5, 5, 10, 5, 3, 6, 10, 2, 6, 10, 2, 7, 1, 2, 1, 1, 4, 5, 6, 5, 6, 1, 2, 5, 9, 4, 3, 3, 10, 1, 7, 6, 8, 1, 7, 2, 5, 1, 4, 3, 0];
rr = array2d(1..4, 1..92, [0, 4, 9, 7, 5, 2, 6, 3, 8, 1, 5, 4, 4, 5, 3, 6, 8, 8, 6, 5, 8, 4, 5, 2, 1, 6, 7, 3, 9, 5, 5, 1, 8, 4, 8, 7, 7, 1, 4, 7, 5, 4, 4, 8, 9, 5, 3, 2, 3, 5, 7, 4, 1, 8, 4, 6, 9, 9, 10, 4, 4, 6, 4, 8, 4, 5, 8, 4, 2, 9, 9, 7, 7, 4, 8, 4, 2, 5, 6, 6, 3, 7, 4, 5, 9, 5, 9, 5, 4, 8, 9, 0, 0, 4, 2, 5, 6, 9, 5, 5, 8, 6, 7, 4, 9, 4, 9, 9, 8, 1, 6, 8, 5, 4, 1, 2, 3, 1, 9, 7, 6, 7, 3, 3, 4, 7, 2, 9, 3, 5, 10, 9, 10, 5, 1, 8, 8, 5, 8, 6, 4, 5, 9, 9, 6, 1, 8, 5, 9, 6, 3, 6, 6, 4, 4, 7, 7, 10, 3, 1, 5, 2, 6, 7, 2, 5, 7, 7, 9, 10, 4, 1, 7, 5, 9, 3, 4, 8, 9, 7, 1, 7, 6, 0, 0, 9, 9, 5, 8, 6, 9, 8, 7, 6, 2, 7, 3, 3, 6, 1, 2, 10, 4, 10, 2, 1, 7, 5, 8, 8, 7, 4, 3, 7, 2, 9, 7, 10, 9, 10, 5, 9, 6, 6, 2, 10, 2, 6, 9, 9, 3, 8, 3, 5, 4, 8, 5, 2, 8, 5, 2, 8, 5, 2, 7, 10, 3, 5, 6, 2, 7, 1, 4, 5, 2, 1, 10, 2, 8, 8, 1, 3, 5, 9, 6, 3, 9, 1, 6, 6, 3, 7, 1, 10, 6, 0, 0, 1, 9, 10, 6, 8, 9, 4, 4, 8, 4, 1, 4, 2, 1, 1, 10, 5, 8, 10, 1, 4, 7, 7, 7, 10, 3, 6, 8, 5, 8, 10, 3, 4, 4, 1, 3, 10, 8, 5, 8, 6, 9, 3, 1, 2, 1, 5, 8, 4, 8, 5, 5, 3, 4, 8, 7, 3, 2, 7, 4, 8, 3, 5, 10, 3, 9, 10, 9, 6, 8, 4, 5, 8, 8, 2, 1, 5, 3, 3, 1, 6, 10, 7, 10, 2, 7, 2, 7, 8, 5, 0]);

suc = [
   {2, 3, 4},
   {8, 17, 19},
   {11, 5, 7},
   {10, 21, 13},
   {49, 6, 39},
   {9, 20, 22},
   {54, 51, 14},
   {24, 29, 15},
   {18, 26, 55},
   {66, 12, 30},
   {16, 52, 37},
   {32, 25, 15},
   {49, 22, 15},
   {42},
   {41, 20, 61},
   {51},
   {32, 41, 28},
   {44, 47, 23},
   {40, 34, 30},
   {72, 26, 77},
   {40, 48, 27},
   {32, 50, 78},
   {24},
   {51, 68, 37},
   {56, 36, 85},
   {67, 44, 86},
   {35, 45, 31},
   {48, 57, 63},
   {42, 43, 53},
   {61, 39, 31},
   {33, 67, 47},
   {81, 46},
   {49, 63},
   {62, 47},
   {89, 50, 37},
   {38},
   {59},
   {50, 71},
   {41, 52, 77},
   {56, 59},
   {44, 53, 55},
   {65, 82, 62},
   {48, 89},
   {89},
   {46},
   {61, 87},
   {90, 91},
   {58, 55},
   {64, 65, 83},
   {53},
   {77},
   {59, 69, 70},
   {64, 75, 69},
   {58, 63},
   {68},
   {69, 71},
   {66, 67, 79},
   {73, 60, 70},
   {74, 62, 71},
   {65, 66},
   {70},
   {64, 73, 78},
   {73, 74, 68},
   {76},
   {72, 74, 75},
   {76},
   {87},
   {72, 83},
   {82, 86},
   {80, 76},
   {82, 75},
   {91},
   {81},
   {91, 78},
   {84, 87},
   {84},
   {80, 81, 79},
   {80, 79},
   {85},
   {84},
   {83},
   {88},
   {85},
   {86},
   {90},
   {88},
   {88},
   {90},
   {92},
   {92},
   {92},
   {  } ];

deadline = array2d(1..92, 1..3, [7, 4, 0, 9, 4, 5, 12, 5, 2, 13, 0, 2, 19, 1, 2, 20, 0, 3, 24, 1, 2, 24, 3, 1, 24, 1, 5, 24, 0, 0, 29, 0, 3, 32, 0, 5, 33, 2, 2, 35, 3, 0, 35, 3, 3, 37, 3, 5, 41, 3, 0, 48, 0, 3, 51, 5, 3, 53, 5, 0, 56, 3, 4, 57, 1, 2, 58, 3, 5, 59, 1, 2, 63, 3, 3, 63, 3, 3, 63, 4, 3, 64, 2, 3, 67, 0, 0, 69, 5, 0, 72, 3, 4, 72, 3, 1, 73, 2, 1, 77, 1, 1, 79, 0, 4, 84, 2, 3, 89, 2, 0, 93, 3, 3, 98, 2, 3, 99, 3, 5, 100, 5, 5, 101, 1, 1, 103, 1, 1, 103, 0, 3, 104, 4, 3, 107, 4, 1, 108, 0, 5, 115, 1, 2, 117, 5, 2, 121, 0, 5, 122, 5, 3, 127, 2, 0, 131, 0, 3, 134, 3, 5, 138, 2, 4, 140, 1, 0, 140, 2, 3, 140, 4, 5, 149, 0, 0, 149, 2, 0, 149, 0, 1, 153, 5, 5, 156, 5, 1, 157, 0, 1, 157, 5, 5, 160, 5, 1, 161, 4, 4, 163, 1, 4, 171, 0, 2, 174, 3, 3, 175, 4, 3, 179, 3, 0, 184, 4, 5, 186, 1, 3, 188, 1, 1, 188, 0, 4, 191, 2, 5, 194, 5, 3, 194, 2, 4, 198, 5, 1, 199, 3, 5, 203, 0, 4, 203, 2, 3, 205, 2, 3, 207, 2, 4, 208, 1, 1, 216, 1, 1, 218, 1, 1, 219, 2, 1, 220, 4, 0, 221, 1, 1, 221, 2, 0]);
