n_res = 4;
rc = [ 26, 37, 37, 35 ];
n_tasks = 92;
d = [0, 6, 4, 2, 5, 2, 7, 1, 6, 10, 1, 10, 5, 6, 1, 1, 4, 9, 2, 4, 10, 1, 4, 5, 7, 3, 1, 10, 6, 5, 1, 2, 3, 8, 5, 2, 10, 1, 6, 7, 2, 6, 7, 8, 4, 10, 8, 4, 1, 9, 3, 6, 1, 2, 1, 1, 2, 8, 5, 8, 2, 4, 3, 8, 4, 4, 5, 8, 8, 10, 7, 3, 2, 6, 6, 6, 3, 8, 4, 8, 5, 6, 2, 8, 6, 1, 8, 4, 8, 2, 4, 0];
rr = array2d(1..4, 1..92, [0, 6, 9, 0, 0, 6, 10, 0, 9, 2, 9, 2, 1, 0, 9, 1, 0, 2, 0, 7, 0, 7, 3, 2, 0, 0, 8, 3, 3, 4, 0, 5, 1, 9, 0, 0, 6, 3, 6, 1, 8, 1, 3, 7, 2, 1, 7, 2, 3, 6, 5, 5, 6, 7, 1, 6, 1, 10, 7, 0, 9, 0, 7, 0, 1, 9, 3, 2, 7, 10, 0, 0, 6, 0, 4, 3, 2, 10, 3, 6, 4, 0, 2, 6, 5, 7, 0, 0, 4, 5, 5, 0, 0, 3, 0, 9, 10, 8, 0, 0, 8, 10, 0, 0, 8, 10, 8, 7, 1, 3, 0, 1, 5, 0, 10, 4, 0, 8, 1, 8, 6, 10, 2, 0, 0, 5, 2, 9, 3, 6, 3, 10, 6, 9, 7, 0, 9, 10, 7, 5, 3, 7, 8, 0, 10, 10, 5, 6, 3, 10, 7, 1, 7, 0, 5, 0, 3, 8, 3, 8, 3, 7, 4, 3, 8, 0, 0, 3, 0, 5, 5, 8, 0, 4, 10, 5, 9, 7, 7, 8, 8, 1, 5, 0, 0, 10, 7, 1, 0, 3, 0, 3, 6, 10, 0, 9, 10, 3, 1, 1, 0, 9, 7, 0, 1, 3, 2, 0, 9, 10, 5, 0, 5, 2, 9, 9, 2, 0, 8, 10, 4, 9, 4, 1, 1, 0, 0, 7, 0, 8, 0, 8, 8, 4, 0, 5, 3, 3, 0, 0, 1, 0, 0, 7, 8, 7, 5, 8, 0, 0, 1, 0, 8, 0, 9, 6, 5, 5, 9, 9, 0, 2, 0, 10, 2, 2, 6, 2, 0, 0, 1, 0, 7, 0, 7, 0, 0, 0, 6, 10, 4, 10, 5, 6, 0, 3, 1, 0, 7, 0, 0, 8, 10, 0, 8, 5, 1, 9, 0, 7, 7, 5, 1, 3, 3, 5, 3, 5, 0, 10, 2, 7, 1, 0, 0, 9, 7, 9, 6, 0, 4, 0, 4, 7, 3, 5, 4, 3, 6, 3, 9, 0, 1, 1, 3, 0, 7, 0, 5, 0, 0, 0, 4, 7, 4, 0, 2, 3, 8, 1, 6, 0, 1, 7, 0, 0, 4, 1, 6, 6, 2, 6, 10, 4, 1, 8, 0, 0]);

suc = [
   {2, 3, 4},
   {12, 5, 7},
   {8, 16, 6},
   {24, 43, 14},
   {17, 13, 15},
   {10, 28, 34},
   {72, 80, 39},
   {40, 9, 21},
   {19, 18, 11},
   {30, 14, 22},
   {25, 20, 41},
   {32, 27, 30},
   {48, 42, 37},
   {51, 21},
   {50, 51, 29},
   {77, 62},
   {36, 46, 60},
   {26, 28, 46},
   {24, 48, 52},
   {44, 77, 23},
   {64, 27},
   {84},
   {24, 79, 71},
   {26, 90, 45},
   {33, 46, 47},
   {34},
   {73},
   {32, 52, 31},
   {56, 78, 38},
   {53, 63},
   {57, 54, 47},
   {35, 62, 55},
   {88, 38},
   {65, 58, 38},
   {36, 37},
   {59},
   {56, 75},
   {61},
   {48, 57, 63},
   {66, 76},
   {81, 70, 47},
   {65, 52, 60},
   {49, 62, 57},
   {83, 63, 55},
   {81, 61, 70},
   {49, 71, 55},
   {49, 76},
   {58, 77},
   {66},
   {80, 61},
   {65, 82, 53},
   {66, 69, 53},
   {67, 87},
   {56, 74},
   {59},
   {58, 59, 60},
   {64, 91, 79},
   {67},
   {67, 69},
   {64, 68},
   {89},
   {72, 74, 69},
   {87},
   {89, 71},
   {80, 68, 70},
   {74},
   {68, 86},
   {88, 73},
   {76},
   {72, 73},
   {82, 87},
   {75, 85, 78},
   {84},
   {82, 75},
   {83},
   {86, 79},
   {78},
   {83},
   {85},
   {81, 86},
   {85},
   {90},
   {84},
   {91},
   {88},
   {91},
   {90},
   {89},
   {92},
   {92},
   {92},
   {  } ];

deadline = array2d(1..92, 1..3, [7, 5, 0, 7, 1, 5, 11, 2, 4, 13, 2, 1, 15, 1, 0, 16, 1, 1, 20, 2, 1, 21, 1, 2, 23, 0, 4, 26, 0, 4, 27, 0, 0, 33, 0, 4, 35, 1, 4, 36, 1, 5, 39, 1, 3, 40, 1, 5, 42, 1, 5, 43, 0, 4, 43, 1, 3, 46, 3, 5, 55, 4, 3, 56, 5, 0, 58, 1, 3, 60, 1, 1, 60, 2, 0, 61, 2, 2, 65, 0, 5, 66, 1, 5, 68, 1, 3, 73, 3, 3, 74, 3, 0, 74, 3, 3, 77, 4, 3, 79, 4, 4, 80, 4, 5, 83, 3, 1, 92, 2, 4, 92, 1, 0, 104, 4, 1, 109, 2, 3, 111, 0, 4, 111, 4, 4, 111, 2, 3, 113, 0, 1, 118, 0, 4, 123, 5, 4, 125, 5, 0, 125, 0, 0, 128, 0, 5, 134, 1, 0, 135, 4, 5, 136, 1, 2, 137, 1, 1, 139, 4, 2, 139, 2, 5, 140, 2, 1, 141, 5, 0, 143, 1, 1, 145, 5, 3, 149, 0, 0, 150, 0, 5, 151, 4, 5, 152, 1, 1, 155, 1, 5, 157, 1, 4, 159, 3, 1, 162, 2, 0, 165, 2, 1, 170, 1, 2, 180, 5, 5, 181, 4, 0, 185, 3, 5, 185, 4, 0, 189, 1, 0, 191, 2, 4, 192, 1, 1, 193, 2, 3, 197, 0, 0, 200, 0, 3, 203, 1, 5, 204, 5, 4, 205, 4, 3, 208, 3, 0, 211, 5, 2, 212, 3, 5, 212, 5, 3, 214, 5, 1, 218, 2, 1, 220, 0, 2, 221, 4, 5, 222, 5, 5, 222, 5, 3]);
