n_res = 4;
rc = [ 51, 49, 59, 38 ];
n_tasks = 92;
d = [0, 7, 8, 9, 5, 10, 5, 3, 7, 9, 3, 4, 1, 8, 4, 5, 10, 2, 6, 5, 10, 8, 6, 9, 5, 5, 8, 5, 9, 1, 9, 8, 3, 9, 1, 9, 10, 1, 6, 3, 1, 4, 8, 5, 5, 4, 1, 6, 1, 4, 8, 9, 3, 10, 5, 7, 3, 7, 10, 7, 6, 9, 8, 1, 5, 1, 6, 9, 8, 9, 2, 6, 7, 7, 5, 4, 4, 6, 4, 10, 4, 5, 3, 1, 1, 5, 7, 3, 10, 8, 1, 0];
rr = array2d(1..4, 1..92, [0, 3, 0, 1, 1, 1, 9, 9, 0, 9, 0, 0, 3, 0, 2, 0, 0, 1, 5, 0, 0, 9, 0, 0, 6, 10, 4, 0, 0, 0, 9, 5, 0, 4, 0, 0, 2, 8, 6, 3, 3, 0, 0, 0, 8, 0, 0, 0, 0, 0, 7, 2, 10, 0, 0, 0, 4, 3, 10, 0, 0, 0, 3, 0, 2, 0, 0, 10, 4, 0, 0, 2, 2, 0, 0, 10, 0, 0, 1, 6, 3, 0, 0, 0, 0, 3, 4, 0, 0, 0, 3, 0, 0, 7, 0, 3, 0, 5, 8, 0, 1, 1, 0, 8, 0, 2, 0, 0, 4, 1, 0, 10, 3, 0, 3, 10, 10, 0, 5, 0, 0, 0, 9, 0, 8, 3, 2, 0, 9, 6, 6, 0, 0, 0, 0, 4, 0, 0, 10, 0, 0, 9, 5, 0, 3, 0, 0, 0, 7, 0, 0, 1, 0, 0, 0, 3, 10, 0, 9, 7, 0, 10, 7, 1, 7, 8, 0, 6, 3, 0, 6, 0, 4, 0, 8, 10, 0, 0, 0, 0, 3, 0, 3, 0, 0, 3, 2, 0, 9, 0, 6, 4, 6, 0, 3, 0, 0, 6, 10, 5, 6, 0, 2, 4, 0, 0, 9, 0, 0, 0, 8, 2, 3, 0, 0, 10, 1, 0, 0, 0, 1, 0, 0, 0, 10, 0, 9, 8, 0, 6, 0, 0, 9, 0, 7, 0, 0, 4, 9, 8, 8, 0, 5, 0, 6, 2, 5, 0, 0, 1, 0, 0, 5, 4, 0, 0, 0, 9, 5, 0, 0, 0, 0, 0, 0, 5, 0, 4, 9, 1, 4, 8, 7, 0, 0, 0, 0, 0, 10, 7, 0, 5, 4, 6, 0, 0, 0, 8, 0, 0, 0, 4, 0, 2, 0, 4, 0, 0, 0, 0, 2, 6, 0, 1, 1, 8, 0, 9, 0, 0, 0, 2, 7, 0, 0, 0, 0, 7, 1, 0, 0, 9, 2, 3, 0, 8, 0, 4, 6, 9, 0, 0, 0, 2, 7, 0, 5, 0, 0, 3, 2, 1, 2, 0, 0, 4, 9, 0, 0, 0, 0, 5, 0, 4, 3, 0, 0, 0, 4, 0, 6, 10, 10, 3, 0, 1, 9, 0]);

suc = [
   {2, 3, 4},
   {8, 5, 14},
   {56, 13, 6},
   {24, 32, 12},
   {43, 10, 11},
   {9, 23, 7},
   {27, 44, 15},
   {26, 20},
   {47, 39},
   {42, 50, 21},
   {16, 17, 52},
   {18, 46, 63},
   {60},
   {83},
   {33, 28, 45},
   {19, 71, 47},
   {35, 22, 79},
   {27, 52},
   {25, 30, 31},
   {64, 37},
   {61},
   {65},
   {40, 31},
   {76},
   {57, 54},
   {48, 34, 68},
   {82, 31},
   {36, 29},
   {57, 66},
   {65, 36},
   {84},
   {61, 62},
   {59, 38},
   {65, 49, 90},
   {41, 75, 77},
   {87},
   {62},
   {87, 39},
   {71},
   {82},
   {73},
   {51},
   {64, 55},
   {58, 52, 87},
   {67, 77, 53},
   {49, 84, 55},
   {74, 67, 54},
   {58, 78},
   {53},
   {89, 69, 55},
   {53, 79},
   {72},
   {54},
   {59, 61},
   {72, 67},
   {68},
   {83},
   {64},
   {85},
   {66, 79},
   {80, 75},
   {78, 70},
   {73, 76},
   {88, 75},
   {70},
   {70, 71},
   {78},
   {76},
   {80, 83, 84},
   {72, 73, 82},
   {81, 74},
   {88},
   {74, 86},
   {80},
   {89},
   {77},
   {81},
   {81},
   {85},
   {88, 85},
   {90},
   {89},
   {86},
   {86},
   {91},
   {91},
   {90},
   {91},
   {92},
   {92},
   {92},
   {  } ];

deadline = array2d(1..92, 1..3, [3, 0, 0, 4, 4, 1, 4, 3, 2, 4, 0, 4, 5, 1, 1, 5, 1, 3, 6, 5, 1, 6, 5, 3, 8, 5, 5, 9, 2, 3, 9, 0, 4, 11, 4, 2, 14, 0, 3, 15, 3, 5, 23, 1, 1, 24, 0, 3, 25, 5, 4, 25, 0, 3, 27, 5, 5, 28, 4, 2, 29, 0, 1, 29, 5, 5, 31, 5, 2, 31, 4, 4, 35, 2, 1, 46, 0, 2, 49, 2, 2, 49, 5, 1, 52, 1, 3, 53, 1, 2, 58, 4, 4, 59, 5, 1, 59, 2, 3, 60, 5, 1, 64, 2, 5, 67, 0, 3, 68, 0, 0, 68, 4, 0, 71, 3, 1, 74, 3, 2, 74, 0, 1, 78, 1, 0, 80, 3, 1, 83, 4, 1, 85, 1, 5, 86, 3, 4, 92, 4, 5, 92, 3, 1, 95, 1, 0, 96, 0, 3, 100, 1, 5, 100, 2, 1, 101, 4, 5, 101, 3, 4, 103, 4, 4, 105, 5, 1, 108, 5, 2, 108, 1, 3, 109, 0, 3, 109, 0, 3, 114, 4, 0, 117, 1, 5, 118, 4, 1, 120, 5, 2, 125, 4, 0, 126, 1, 4, 127, 1, 4, 137, 4, 5, 138, 5, 4, 139, 0, 5, 139, 3, 1, 141, 3, 4, 141, 1, 3, 142, 5, 1, 142, 3, 5, 148, 5, 2, 152, 4, 3, 154, 4, 1, 157, 1, 1, 158, 1, 0, 162, 4, 5, 162, 5, 4, 174, 5, 3, 177, 5, 0, 180, 3, 0, 183, 4, 3, 188, 3, 0, 189, 2, 3, 189, 2, 1, 190, 0, 3, 191, 4, 1, 193, 0, 0]);
