n_res = 4;
rc = [ 61, 33, 38, 28 ];
n_tasks = 92;
d = [0, 3, 5, 5, 3, 6, 6, 9, 5, 9, 6, 5, 3, 6, 2, 2, 2, 6, 2, 5, 10, 8, 1, 2, 5, 10, 5, 6, 3, 1, 5, 9, 9, 9, 9, 4, 1, 2, 2, 8, 1, 9, 10, 3, 9, 2, 7, 3, 10, 5, 3, 6, 7, 7, 10, 4, 5, 4, 3, 4, 7, 8, 7, 1, 7, 5, 4, 10, 9, 8, 10, 9, 7, 6, 6, 2, 5, 7, 5, 5, 9, 6, 4, 1, 3, 5, 8, 3, 6, 7, 7, 0];
rr = array2d(1..4, 1..92, [0, 5, 0, 9, 4, 0, 0, 0, 3, 10, 0, 9, 0, 0, 8, 0, 7, 10, 0, 4, 0, 2, 6, 8, 0, 0, 1, 7, 0, 0, 10, 9, 0, 6, 0, 0, 0, 0, 0, 4, 0, 6, 9, 6, 0, 3, 7, 0, 9, 0, 5, 8, 0, 8, 8, 8, 5, 7, 0, 0, 5, 0, 0, 7, 7, 3, 7, 5, 1, 0, 0, 2, 1, 10, 0, 9, 0, 2, 7, 2, 7, 7, 0, 0, 5, 0, 0, 0, 0, 4, 6, 0, 0, 7, 0, 7, 0, 3, 6, 5, 8, 10, 3, 1, 8, 4, 5, 5, 3, 0, 0, 8, 0, 9, 0, 0, 0, 1, 1, 0, 0, 4, 0, 0, 0, 0, 0, 0, 0, 0, 4, 0, 8, 3, 10, 0, 4, 10, 9, 0, 2, 1, 0, 0, 0, 0, 10, 0, 10, 7, 0, 0, 2, 4, 2, 0, 8, 8, 0, 10, 10, 0, 10, 7, 0, 0, 0, 0, 1, 0, 0, 3, 6, 9, 10, 6, 0, 0, 0, 3, 4, 0, 5, 0, 0, 0, 0, 0, 8, 8, 0, 3, 4, 3, 1, 0, 0, 0, 0, 0, 0, 0, 9, 7, 3, 0, 0, 0, 8, 0, 7, 6, 0, 0, 0, 0, 4, 3, 6, 1, 0, 1, 0, 0, 0, 0, 2, 0, 0, 0, 0, 7, 0, 0, 0, 0, 0, 2, 0, 10, 0, 0, 8, 3, 2, 6, 9, 9, 8, 0, 0, 0, 0, 0, 5, 0, 0, 4, 0, 0, 0, 10, 7, 0, 0, 8, 3, 0, 2, 1, 0, 0, 8, 0, 0, 0, 0, 1, 10, 0, 4, 3, 2, 4, 6, 7, 0, 0, 3, 3, 0, 4, 3, 0, 0, 5, 0, 0, 5, 5, 9, 0, 0, 0, 10, 7, 10, 0, 7, 0, 4, 1, 1, 0, 6, 0, 0, 7, 9, 3, 2, 0, 0, 0, 0, 6, 5, 0, 5, 6, 0, 0, 2, 0, 8, 4, 0, 5, 1, 0, 0, 0, 0, 2, 0, 4, 0, 0, 0, 0, 6, 0, 0, 0, 5, 0, 0, 1, 0, 0, 0, 0, 5, 0, 0, 2, 0, 0]);

suc = [
   {2, 3, 4},
   {45, 6},
   {9, 13, 5},
   {24, 37, 29},
   {28, 7},
   {8, 40, 64},
   {17, 10, 20},
   {11, 21, 39},
   {12, 22, 44},
   {16, 18, 14},
   {31},
   {33, 34, 19},
   {80},
   {65, 62, 15},
   {25, 68},
   {52, 23},
   {48, 79},
   {32, 30, 47},
   {27},
   {88, 66, 35},
   {36},
   {33},
   {81},
   {27},
   {26},
   {51, 45, 63},
   {89, 61, 38},
   {59},
   {75, 55},
   {46},
   {33},
   {53},
   {69, 87},
   {60},
   {41, 42},
   {89},
   {72},
   {49, 54},
   {41},
   {56, 43, 44},
   {67, 77},
   {57},
   {59},
   {58},
   {66},
   {51},
   {73, 57, 58},
   {60},
   {50},
   {62},
   {54},
   {69},
   {55},
   {64},
   {71},
   {80},
   {91},
   {69, 70, 71},
   {76},
   {83},
   {73, 74},
   {77},
   {87},
   {80},
   {82},
   {86},
   {85},
   {81},
   {81},
   {84},
   {82},
   {74},
   {90},
   {83},
   {88},
   {78},
   {86, 78},
   {82},
   {83, 85},
   {90},
   {88},
   {90},
   {84},
   {86},
   {91},
   {87},
   {91},
   {89},
   {92},
   {92},
   {92},
   {  } ];

deadline = array2d(1..92, 1..3, [3, 4, 3, 12, 4, 3, 14, 3, 2, 14, 0, 1, 15, 5, 5, 15, 5, 1, 19, 0, 2, 22, 0, 2, 24, 5, 3, 24, 3, 3, 26, 3, 4, 27, 3, 1, 28, 4, 3, 34, 5, 5, 35, 3, 5, 35, 2, 3, 36, 1, 1, 36, 3, 1, 43, 3, 3, 46, 2, 3, 47, 0, 0, 49, 5, 0, 49, 4, 4, 49, 5, 3, 51, 4, 3, 53, 3, 4, 54, 1, 0, 61, 1, 3, 62, 0, 2, 63, 0, 1, 65, 3, 2, 67, 0, 1, 69, 2, 2, 69, 5, 3, 72, 1, 1, 76, 3, 1, 78, 1, 5, 82, 5, 2, 85, 3, 1, 86, 1, 3, 87, 3, 2, 88, 3, 4, 97, 5, 4, 99, 4, 3, 100, 2, 2, 101, 0, 1, 109, 3, 0, 111, 1, 2, 111, 2, 5, 115, 0, 5, 116, 3, 4, 117, 5, 3, 119, 4, 0, 121, 5, 5, 124, 5, 3, 126, 1, 2, 126, 1, 0, 127, 5, 3, 127, 4, 2, 127, 2, 0, 128, 0, 0, 128, 0, 4, 132, 1, 0, 137, 5, 5, 141, 5, 1, 142, 3, 4, 144, 2, 5, 145, 5, 3, 149, 1, 5, 150, 5, 3, 158, 5, 4, 160, 2, 2, 160, 5, 4, 163, 0, 2, 163, 5, 3, 165, 4, 4, 166, 2, 5, 171, 2, 3, 173, 2, 5, 174, 2, 5, 175, 2, 4, 175, 4, 4, 177, 3, 0, 178, 3, 0, 182, 4, 2, 186, 5, 5, 186, 4, 4, 186, 5, 5, 188, 5, 5, 194, 3, 0, 197, 0, 1, 199, 0, 0]);
