n_res = 4;
rc = [ 44, 46, 56, 51 ];
n_tasks = 92;
d = [0, 2, 7, 7, 5, 5, 8, 9, 8, 10, 6, 2, 9, 4, 3, 6, 4, 3, 9, 8, 7, 9, 4, 10, 2, 9, 2, 1, 5, 3, 9, 3, 7, 6, 5, 8, 6, 10, 8, 6, 8, 5, 3, 1, 7, 9, 2, 1, 1, 5, 4, 5, 10, 5, 10, 9, 5, 5, 10, 3, 6, 3, 7, 5, 1, 4, 3, 8, 4, 1, 8, 6, 1, 1, 7, 5, 8, 5, 8, 3, 2, 8, 9, 2, 10, 10, 9, 7, 5, 5, 2, 0];
rr = array2d(1..4, 1..92, [0, 4, 1, 5, 9, 5, 2, 10, 2, 0, 4, 0, 9, 1, 5, 6, 0, 7, 3, 7, 6, 1, 0, 4, 0, 1, 2, 9, 0, 0, 8, 7, 0, 2, 10, 0, 0, 10, 6, 1, 7, 0, 2, 0, 0, 8, 4, 0, 2, 0, 10, 9, 2, 5, 2, 0, 10, 1, 3, 4, 10, 7, 8, 0, 2, 10, 6, 6, 2, 0, 5, 10, 5, 8, 0, 0, 0, 1, 0, 2, 0, 0, 8, 0, 1, 4, 0, 2, 9, 10, 7, 0, 0, 9, 3, 4, 0, 9, 0, 4, 6, 1, 1, 10, 0, 8, 0, 5, 0, 8, 2, 7, 10, 8, 2, 6, 2, 1, 3, 0, 9, 7, 1, 0, 9, 5, 0, 5, 0, 1, 4, 5, 7, 3, 9, 6, 7, 5, 0, 9, 6, 0, 6, 2, 8, 8, 9, 4, 2, 7, 0, 10, 5, 1, 1, 9, 5, 8, 6, 6, 2, 7, 6, 3, 9, 3, 0, 9, 0, 0, 6, 4, 9, 1, 5, 9, 1, 10, 7, 4, 5, 9, 10, 0, 0, 10, 1, 0, 9, 0, 4, 9, 0, 10, 4, 1, 10, 5, 0, 3, 9, 2, 7, 6, 5, 0, 6, 1, 1, 7, 0, 3, 0, 9, 1, 9, 0, 9, 0, 0, 0, 7, 8, 5, 7, 2, 8, 0, 8, 9, 0, 2, 2, 9, 3, 6, 5, 0, 4, 9, 10, 10, 4, 6, 10, 6, 0, 9, 0, 1, 9, 7, 0, 0, 3, 4, 3, 3, 8, 7, 9, 9, 1, 0, 0, 8, 5, 1, 9, 2, 3, 0, 6, 0, 0, 0, 0, 0, 1, 2, 4, 5, 0, 0, 0, 6, 0, 0, 6, 7, 9, 0, 0, 8, 7, 9, 5, 0, 7, 8, 1, 8, 2, 1, 7, 6, 9, 0, 3, 1, 4, 2, 4, 0, 0, 3, 0, 8, 0, 3, 6, 2, 9, 7, 2, 3, 0, 0, 9, 1, 8, 5, 0, 10, 10, 0, 10, 4, 0, 1, 4, 5, 0, 1, 5, 0, 0, 8, 6, 6, 6, 8, 3, 0, 9, 6, 1, 10, 3, 4, 0, 6, 8, 2, 7, 9, 0, 0]);

suc = [
   {2, 3, 4},
   {21, 14, 7},
   {16, 9, 5},
   {24, 27, 6},
   {8, 20, 22},
   {26, 34, 23},
   {16, 18, 12},
   {58, 79},
   {10, 11, 61},
   {40, 64},
   {19, 13, 15},
   {36, 70},
   {59, 45},
   {41, 55},
   {17, 68, 53},
   {38},
   {75, 30},
   {91, 44},
   {72, 34, 51},
   {56, 29, 70},
   {42, 28, 62},
   {48, 57, 37},
   {25, 33},
   {83},
   {71},
   {67, 55},
   {85, 70},
   {50, 59, 78},
   {32, 54, 31},
   {54, 63},
   {33, 46, 49},
   {35, 62, 39},
   {77, 87},
   {66, 76},
   {81, 43, 86},
   {80, 58},
   {73, 52, 46},
   {40, 45},
   {79},
   {44, 53},
   {44},
   {82, 47},
   {49},
   {72, 66},
   {75, 69},
   {61, 47},
   {81},
   {66},
   {60, 63},
   {57},
   {88},
   {60},
   {65},
   {57, 84},
   {65, 69},
   {68, 61},
   {60},
   {88},
   {68},
   {65, 90},
   {72, 86},
   {84},
   {76},
   {71},
   {74, 76},
   {73, 74, 67},
   {79, 78, 71},
   {80},
   {88, 74, 78},
   {89, 77},
   {75},
   {82},
   {90},
   {82},
   {87},
   {83},
   {84},
   {80},
   {81, 86},
   {83},
   {85},
   {85},
   {89},
   {91},
   {87},
   {90},
   {89},
   {91},
   {92},
   {92},
   {92},
   {  } ];

deadline = array2d(1..92, 1..3, [7, 5, 1, 8, 2, 5, 9, 1, 4, 10, 2, 0, 10, 4, 2, 12, 0, 3, 12, 1, 1, 13, 0, 0, 17, 4, 1, 20, 3, 1, 20, 4, 5, 21, 0, 1, 23, 5, 5, 24, 3, 4, 27, 1, 4, 29, 3, 3, 33, 5, 2, 38, 1, 5, 38, 0, 5, 40, 5, 4, 41, 4, 3, 45, 5, 5, 51, 0, 4, 55, 2, 3, 59, 1, 1, 60, 5, 4, 60, 5, 2, 64, 2, 3, 68, 4, 2, 74, 3, 5, 76, 1, 2, 78, 2, 3, 81, 1, 1, 83, 3, 5, 85, 2, 4, 90, 1, 1, 95, 2, 3, 96, 2, 1, 101, 0, 0, 103, 4, 3, 105, 5, 3, 108, 2, 3, 109, 4, 2, 110, 0, 4, 113, 1, 4, 116, 2, 4, 117, 5, 5, 117, 4, 4, 121, 1, 4, 121, 2, 1, 122, 3, 4, 123, 0, 1, 123, 2, 1, 123, 1, 5, 126, 2, 1, 128, 1, 5, 129, 0, 3, 137, 5, 2, 138, 4, 0, 146, 2, 0, 146, 3, 5, 146, 1, 1, 147, 2, 5, 148, 3, 4, 153, 1, 0, 155, 0, 5, 157, 1, 4, 160, 3, 1, 161, 4, 5, 162, 0, 5, 162, 1, 3, 163, 2, 2, 166, 1, 0, 166, 1, 1, 167, 1, 2, 169, 3, 1, 170, 1, 0, 171, 1, 5, 174, 5, 0, 182, 0, 3, 188, 4, 3, 189, 1, 2, 190, 0, 2, 191, 1, 5, 199, 3, 1, 205, 1, 5, 210, 1, 2, 211, 4, 4, 211, 4, 0, 214, 2, 5, 216, 5, 5, 217, 5, 1]);
