n_res = 4;
rc = [ 66, 64, 69, 70 ];
n_tasks = 92;
d = [0, 5, 9, 3, 5, 5, 6, 2, 5, 9, 8, 4, 1, 8, 4, 2, 7, 1, 10, 9, 3, 5, 2, 8, 8, 8, 2, 10, 8, 3, 6, 4, 7, 3, 10, 3, 3, 9, 3, 2, 4, 7, 5, 1, 5, 4, 3, 3, 7, 6, 8, 2, 5, 2, 1, 8, 10, 6, 1, 2, 8, 10, 6, 9, 7, 8, 2, 9, 4, 2, 1, 3, 7, 7, 8, 5, 5, 7, 8, 1, 5, 6, 10, 9, 8, 6, 9, 2, 1, 4, 10, 0];
rr = array2d(1..4, 1..92, [0, 5, 2, 2, 9, 5, 6, 6, 8, 6, 7, 7, 4, 5, 6, 5, 4, 7, 5, 7, 3, 7, 9, 7, 6, 7, 9, 5, 6, 3, 2, 3, 7, 10, 3, 9, 7, 2, 9, 10, 4, 1, 3, 2, 6, 4, 1, 1, 3, 2, 10, 2, 4, 1, 10, 10, 5, 7, 1, 7, 1, 4, 3, 6, 3, 1, 5, 6, 7, 9, 7, 7, 1, 1, 1, 9, 5, 8, 1, 9, 5, 3, 5, 7, 3, 10, 5, 9, 1, 8, 9, 0, 0, 9, 6, 4, 6, 9, 9, 9, 6, 1, 1, 8, 2, 8, 8, 9, 10, 4, 10, 3, 9, 10, 2, 3, 3, 10, 9, 1, 3, 9, 1, 5, 2, 4, 3, 5, 10, 8, 2, 3, 10, 9, 1, 7, 2, 10, 2, 5, 9, 2, 7, 6, 6, 7, 5, 10, 2, 10, 1, 9, 2, 1, 2, 1, 4, 3, 9, 9, 6, 4, 8, 5, 1, 3, 7, 4, 5, 7, 7, 9, 2, 7, 6, 4, 7, 7, 2, 4, 5, 2, 5, 0, 0, 4, 6, 8, 8, 5, 2, 3, 9, 3, 9, 1, 8, 7, 4, 10, 6, 6, 6, 9, 5, 5, 7, 3, 3, 1, 8, 7, 2, 5, 3, 4, 4, 8, 8, 9, 2, 4, 1, 6, 8, 4, 2, 9, 2, 3, 9, 5, 10, 8, 10, 1, 2, 4, 1, 5, 4, 6, 8, 1, 8, 3, 1, 10, 1, 1, 4, 1, 3, 10, 1, 2, 7, 6, 4, 6, 4, 6, 1, 10, 3, 2, 4, 10, 8, 5, 6, 4, 5, 4, 9, 0, 0, 3, 8, 2, 1, 7, 3, 7, 8, 2, 3, 10, 1, 8, 3, 5, 10, 6, 2, 4, 9, 8, 3, 1, 4, 4, 10, 9, 1, 6, 8, 6, 5, 6, 2, 9, 4, 10, 10, 1, 8, 7, 5, 6, 3, 8, 6, 4, 8, 4, 2, 1, 9, 2, 6, 7, 5, 8, 2, 6, 8, 2, 5, 6, 10, 9, 2, 6, 6, 9, 6, 9, 6, 8, 8, 1, 1, 1, 4, 10, 7, 7, 1, 3, 1, 2, 6, 7, 4, 6, 7, 0]);

suc = [
   {2, 3, 4},
   {8, 10, 6},
   {13, 11, 5},
   {20, 21, 46},
   {9, 18, 25},
   {40, 48, 7},
   {35, 12, 14},
   {19, 46, 31},
   {28, 79, 23},
   {60, 21},
   {25, 38},
   {17, 36, 15},
   {26, 27, 22},
   {53, 38, 15},
   {16, 34, 50},
   {52, 78, 84},
   {68, 29, 70},
   {33, 42, 20},
   {49, 35, 38},
   {67, 27, 90},
   {41, 39},
   {30},
   {24, 58, 51},
   {44, 63, 31},
   {42, 68, 69},
   {32, 48},
   {59, 51, 39},
   {32, 43, 37},
   {81, 37, 71},
   {85},
   {49, 39},
   {33, 53, 54},
   {75, 77, 62},
   {56, 76, 37},
   {67},
   {66, 43, 52},
   {65, 67, 60},
   {66, 55, 47},
   {88, 75, 52},
   {51, 43, 77},
   {56, 57, 47},
   {53},
   {70, 45, 54},
   {56, 49, 59},
   {57, 86},
   {63, 55},
   {72, 58, 61},
   {88, 78, 71},
   {74, 60},
   {64, 54},
   {78, 62},
   {80, 65},
   {81, 73, 55},
   {57, 59, 63},
   {74},
   {83},
   {58, 61},
   {76},
   {81, 69, 61},
   {77},
   {65, 83},
   {69, 86},
   {68},
   {72, 79},
   {73, 82},
   {70, 71},
   {73},
   {72, 90},
   {76},
   {74},
   {75, 85, 79},
   {80, 84},
   {85},
   {87},
   {80},
   {83},
   {89, 84},
   {86},
   {90},
   {82},
   {82, 87},
   {91},
   {88},
   {91},
   {91},
   {87},
   {89},
   {89},
   {92},
   {92},
   {92},
   {  } ];

deadline = array2d(1..92, 1..3, [1, 1, 2, 4, 2, 2, 4, 2, 5, 6, 5, 4, 8, 3, 4, 12, 3, 1, 12, 5, 1, 16, 5, 3, 17, 2, 2, 20, 3, 4, 24, 4, 3, 26, 2, 1, 28, 0, 2, 31, 1, 0, 36, 1, 3, 39, 3, 1, 39, 5, 2, 41, 1, 3, 41, 3, 5, 45, 5, 0, 51, 3, 2, 55, 4, 1, 60, 3, 0, 65, 1, 0, 66, 1, 1, 74, 4, 3, 74, 0, 3, 74, 0, 2, 78, 5, 3, 79, 5, 3, 79, 4, 4, 80, 3, 1, 81, 5, 0, 82, 4, 5, 87, 2, 4, 88, 5, 4, 89, 2, 0, 94, 2, 5, 95, 2, 3, 98, 4, 2, 104, 3, 5, 107, 0, 0, 109, 1, 0, 112, 5, 5, 114, 2, 1, 114, 1, 2, 117, 2, 1, 118, 2, 3, 123, 5, 0, 125, 3, 1, 126, 4, 1, 127, 5, 5, 130, 3, 3, 140, 2, 2, 140, 0, 3, 140, 0, 3, 141, 3, 0, 144, 2, 0, 145, 5, 4, 145, 4, 0, 152, 5, 0, 152, 3, 0, 155, 1, 4, 157, 0, 0, 159, 3, 3, 159, 5, 0, 163, 3, 5, 166, 0, 3, 168, 5, 3, 169, 0, 4, 170, 1, 5, 176, 4, 5, 180, 3, 2, 181, 5, 1, 184, 0, 5, 190, 3, 5, 191, 2, 0, 191, 2, 0, 192, 3, 5, 195, 1, 5, 196, 1, 5, 200, 2, 2, 202, 1, 0, 203, 1, 2, 205, 1, 1, 208, 1, 5, 210, 0, 5, 210, 0, 1, 212, 5, 1, 219, 0, 1, 220, 4, 3, 220, 0, 4]);
