n_res = 4;
rc = [ 21, 26, 20, 18 ];
n_tasks = 92;
d = [0, 4, 3, 8, 7, 7, 7, 7, 4, 7, 4, 6, 2, 3, 8, 5, 2, 2, 8, 9, 2, 8, 6, 1, 6, 5, 7, 2, 8, 9, 8, 4, 9, 9, 3, 6, 1, 4, 4, 7, 2, 10, 6, 1, 8, 4, 6, 2, 7, 2, 9, 3, 3, 2, 6, 10, 9, 6, 10, 1, 10, 7, 8, 10, 5, 3, 9, 1, 9, 2, 4, 6, 3, 3, 2, 6, 6, 9, 7, 7, 2, 10, 6, 2, 5, 5, 9, 6, 4, 10, 2, 0];
rr = array2d(1..4, 1..92, [0, 0, 0, 8, 0, 0, 4, 0, 0, 0, 0, 0, 0, 0, 0, 6, 0, 0, 0, 4, 0, 0, 9, 0, 5, 6, 0, 0, 0, 0, 0, 0, 0, 1, 0, 0, 8, 0, 0, 7, 0, 6, 0, 0, 10, 0, 0, 0, 0, 0, 0, 4, 0, 0, 0, 3, 2, 9, 0, 0, 5, 0, 2, 0, 0, 0, 0, 0, 0, 0, 0, 4, 0, 0, 8, 0, 4, 0, 8, 8, 0, 0, 0, 0, 3, 0, 0, 0, 0, 0, 1, 0, 0, 0, 0, 0, 0, 8, 0, 10, 0, 0, 0, 8, 0, 0, 0, 0, 0, 0, 0, 0, 9, 7, 0, 8, 0, 0, 3, 0, 0, 0, 0, 8, 2, 0, 0, 7, 0, 0, 0, 0, 4, 0, 3, 3, 0, 1, 1, 0, 0, 0, 0, 0, 0, 3, 0, 0, 0, 0, 9, 6, 0, 0, 0, 0, 7, 0, 0, 0, 0, 0, 0, 0, 8, 0, 0, 0, 0, 3, 0, 0, 0, 0, 0, 2, 0, 0, 0, 1, 9, 10, 0, 0, 0, 0, 0, 0, 0, 0, 0, 0, 0, 0, 1, 0, 2, 0, 0, 0, 2, 7, 9, 0, 0, 0, 0, 0, 0, 0, 0, 0, 0, 0, 0, 0, 0, 0, 6, 0, 0, 0, 1, 0, 0, 0, 0, 0, 0, 0, 0, 0, 6, 5, 0, 0, 5, 0, 9, 0, 0, 0, 0, 0, 0, 7, 0, 9, 0, 10, 1, 0, 0, 0, 5, 0, 0, 4, 0, 8, 0, 0, 0, 0, 5, 7, 10, 0, 0, 0, 0, 0, 0, 0, 0, 0, 0, 1, 5, 0, 8, 0, 0, 0, 9, 9, 0, 0, 0, 10, 10, 0, 0, 0, 0, 0, 0, 0, 0, 0, 0, 0, 0, 10, 4, 5, 6, 0, 0, 0, 0, 0, 0, 4, 0, 0, 0, 0, 0, 0, 0, 0, 0, 9, 0, 0, 1, 0, 0, 0, 0, 0, 0, 0, 0, 0, 0, 0, 0, 0, 0, 0, 0, 7, 2, 5, 0, 0, 0, 0, 0, 0, 0, 0, 0, 0, 0, 0, 0, 0, 0, 9, 2, 0, 0, 0, 0, 0]);

suc = [
   {2, 3, 4},
   {8, 9, 49},
   {11, 5, 6},
   {10, 21, 22},
   {20, 71, 23},
   {16, 25, 7},
   {48, 17, 45},
   {42, 14, 39},
   {12, 69, 15},
   {28, 37},
   {18, 26, 53},
   {72, 58, 13},
   {33, 19, 20},
   {75, 45, 15},
   {27, 29},
   {51, 43, 30},
   {58, 53, 38},
   {33, 59},
   {32},
   {26, 79, 31},
   {26, 36},
   {24, 61},
   {90, 35, 47},
   {57},
   {52, 29},
   {57},
   {41, 34, 37},
   {32, 33, 46},
   {56, 59, 55},
   {49, 37, 62},
   {84, 54},
   {60, 68, 39},
   {76, 45},
   {91},
   {50, 78},
   {40, 41, 47},
   {70},
   {42, 59, 44},
   {51, 61, 70},
   {64, 43, 71},
   {72, 51, 60},
   {43, 52, 46},
   {72, 66, 88},
   {81, 49, 57},
   {81, 52, 47},
   {64, 77, 54},
   {50, 77, 55},
   {65, 67, 63},
   {83, 67, 55},
   {68},
   {83},
   {56, 54},
   {65, 67, 71},
   {86, 66, 62},
   {78},
   {66, 82, 79},
   {74, 75},
   {60, 61, 62},
   {91, 63},
   {64, 63},
   {73, 86, 87},
   {82},
   {73},
   {74, 85},
   {73, 77, 69},
   {68},
   {69},
   {85},
   {70},
   {76, 78},
   {80, 74, 75},
   {80, 76},
   {81},
   {82, 83},
   {84},
   {84, 79},
   {87},
   {80, 87},
   {85},
   {91},
   {88},
   {88},
   {86},
   {89},
   {89},
   {90},
   {89},
   {90},
   {92},
   {92},
   {92},
   {  } ];

deadline = array2d(1..92, 1..3, [1, 1, 2, 4, 2, 2, 6, 2, 1, 8, 5, 5, 11, 4, 4, 12, 4, 1, 16, 5, 3, 20, 4, 5, 24, 2, 2, 26, 2, 4, 29, 4, 4, 32, 4, 4, 33, 0, 3, 33, 1, 0, 34, 5, 2, 34, 0, 2, 34, 4, 4, 37, 3, 3, 38, 3, 1, 42, 4, 0, 45, 3, 4, 45, 3, 2, 47, 1, 1, 51, 3, 5, 51, 4, 3, 52, 3, 4, 55, 1, 1, 56, 2, 2, 59, 5, 0, 59, 5, 5, 60, 0, 1, 60, 1, 2, 61, 3, 0, 63, 2, 4, 64, 5, 0, 64, 4, 1, 67, 4, 1, 67, 2, 4, 70, 5, 3, 71, 1, 3, 73, 5, 1, 75, 3, 2, 77, 3, 2, 80, 3, 3, 83, 0, 1, 94, 3, 2, 94, 1, 0, 94, 4, 1, 95, 1, 3, 99, 4, 5, 100, 4, 5, 103, 3, 1, 106, 5, 4, 107, 1, 3, 111, 5, 3, 114, 5, 0, 115, 3, 0, 120, 4, 4, 122, 1, 3, 124, 4, 3, 126, 0, 1, 131, 1, 5, 132, 3, 4, 133, 0, 2, 136, 3, 0, 136, 4, 3, 142, 3, 0, 142, 0, 2, 143, 1, 0, 145, 5, 1, 146, 5, 3, 146, 0, 4, 146, 2, 4, 149, 4, 3, 149, 1, 1, 159, 2, 3, 159, 5, 5, 162, 1, 0, 164, 1, 0, 165, 2, 4, 167, 1, 0, 169, 0, 5, 171, 4, 5, 175, 3, 5, 179, 5, 4, 179, 4, 4, 180, 1, 5, 185, 1, 1, 186, 4, 3, 187, 5, 5, 188, 3, 5, 190, 1, 5]);
