n_res = 4;
rc = [ 35, 37, 35, 29 ];
n_tasks = 92;
d = [0, 10, 10, 8, 7, 4, 1, 3, 4, 5, 6, 10, 1, 2, 5, 3, 3, 9, 2, 6, 6, 9, 2, 10, 5, 6, 6, 4, 5, 8, 2, 10, 10, 7, 9, 5, 8, 2, 2, 1, 1, 10, 7, 7, 8, 7, 7, 7, 1, 1, 4, 8, 6, 2, 7, 5, 6, 1, 4, 1, 1, 9, 3, 2, 9, 5, 5, 1, 10, 7, 5, 10, 1, 6, 7, 5, 9, 5, 10, 5, 2, 3, 5, 7, 7, 10, 6, 5, 4, 9, 4, 0];
rr = array2d(1..4, 1..92, [0, 0, 10, 4, 0, 6, 7, 6, 0, 0, 1, 0, 0, 3, 0, 0, 4, 0, 0, 6, 0, 10, 0, 2, 0, 0, 4, 0, 4, 1, 9, 0, 7, 0, 1, 0, 0, 0, 7, 9, 2, 0, 2, 3, 2, 0, 6, 0, 6, 0, 7, 7, 9, 0, 0, 9, 0, 6, 0, 9, 0, 0, 0, 0, 0, 0, 10, 0, 5, 7, 4, 0, 9, 0, 3, 0, 1, 1, 7, 0, 2, 4, 0, 7, 0, 8, 0, 3, 0, 8, 0, 0, 0, 0, 0, 0, 0, 9, 2, 0, 0, 6, 6, 10, 8, 0, 9, 0, 0, 0, 0, 2, 0, 0, 10, 0, 0, 10, 0, 9, 0, 6, 0, 0, 8, 2, 0, 0, 0, 2, 1, 5, 3, 0, 1, 5, 3, 8, 0, 0, 0, 0, 0, 2, 2, 6, 0, 0, 3, 4, 0, 0, 0, 0, 10, 0, 6, 0, 0, 0, 0, 10, 9, 1, 0, 4, 1, 10, 7, 8, 0, 1, 0, 0, 3, 8, 0, 0, 0, 4, 6, 0, 1, 0, 0, 4, 3, 6, 0, 7, 8, 9, 6, 0, 0, 0, 8, 0, 2, 3, 0, 0, 0, 0, 0, 2, 7, 2, 2, 0, 10, 6, 0, 0, 5, 0, 0, 0, 0, 6, 9, 0, 9, 0, 1, 2, 0, 0, 4, 0, 1, 0, 0, 1, 0, 1, 0, 2, 5, 6, 10, 10, 10, 0, 6, 2, 7, 1, 0, 1, 3, 2, 6, 5, 4, 5, 6, 0, 0, 0, 3, 0, 5, 1, 3, 1, 1, 7, 2, 0, 4, 10, 0, 9, 4, 0, 0, 0, 0, 0, 10, 4, 5, 0, 0, 0, 0, 0, 0, 5, 0, 0, 6, 10, 4, 5, 6, 4, 0, 2, 0, 7, 0, 0, 0, 0, 5, 3, 6, 0, 7, 0, 3, 5, 4, 0, 0, 0, 6, 0, 0, 0, 0, 9, 0, 0, 3, 0, 0, 0, 0, 0, 0, 0, 10, 0, 0, 3, 9, 0, 0, 0, 3, 8, 0, 0, 5, 7, 1, 0, 0, 3, 0, 0, 0, 0, 7, 0, 0, 6, 0, 0, 0, 0, 9, 8, 3, 0]);

suc = [
   {2, 3, 4},
   {18, 29, 13},
   {8, 5, 7},
   {29},
   {27, 11, 6},
   {17, 19, 14},
   {10, 12, 15},
   {16, 9, 22},
   {35},
   {25, 52},
   {33, 63},
   {34, 44},
   {62},
   {65, 20, 76},
   {21, 31},
   {50, 77},
   {90, 70},
   {62},
   {80},
   {72, 36, 39},
   {24, 41, 43},
   {75, 28, 23},
   {63},
   {26, 53},
   {38, 50, 30},
   {80},
   {40, 58},
   {38},
   {48, 37},
   {56},
   {32},
   {69},
   {75},
   {57, 82},
   {59, 47},
   {55},
   {56, 42, 74},
   {80, 91, 45},
   {56},
   {66, 54},
   {63},
   {54},
   {59},
   {81, 46},
   {68},
   {62},
   {49, 67},
   {69},
   {51},
   {68},
   {82},
   {79},
   {84},
   {73},
   {61},
   {81},
   {81},
   {86},
   {60, 86},
   {64, 78},
   {71},
   {87},
   {91},
   {72, 73},
   {72},
   {76},
   {83},
   {87, 71},
   {77},
   {85, 78},
   {85},
   {84},
   {77},
   {79},
   {83},
   {87},
   {91},
   {82},
   {88},
   {88},
   {83},
   {89},
   {89},
   {90},
   {86},
   {89},
   {88},
   {90},
   {92},
   {92},
   {92},
   {  } ];

deadline = array2d(1..92, 1..3, [3, 4, 4, 3, 4, 1, 6, 5, 3, 7, 2, 3, 9, 4, 4, 11, 0, 3, 12, 3, 0, 13, 1, 0, 13, 0, 0, 13, 2, 0, 14, 0, 4, 15, 3, 5, 16, 1, 1, 19, 3, 2, 19, 1, 2, 20, 5, 4, 25, 0, 1, 26, 1, 2, 31, 5, 1, 33, 4, 1, 34, 4, 4, 35, 4, 5, 38, 0, 1, 38, 0, 3, 42, 4, 5, 43, 0, 3, 44, 5, 0, 46, 0, 0, 49, 4, 1, 50, 5, 4, 52, 4, 2, 55, 3, 3, 55, 2, 4, 56, 2, 4, 57, 4, 5, 58, 4, 1, 59, 0, 3, 60, 1, 2, 60, 2, 1, 62, 5, 1, 63, 2, 4, 64, 2, 3, 64, 0, 0, 65, 0, 1, 70, 1, 0, 78, 4, 0, 80, 1, 2, 82, 2, 4, 83, 5, 0, 84, 1, 0, 85, 5, 4, 86, 3, 2, 87, 2, 2, 89, 4, 1, 91, 1, 2, 91, 3, 5, 93, 2, 2, 94, 2, 0, 96, 5, 0, 97, 5, 4, 98, 1, 5, 101, 3, 5, 101, 1, 1, 103, 5, 2, 103, 4, 5, 104, 0, 2, 104, 3, 0, 113, 5, 1, 113, 5, 5, 118, 0, 5, 121, 2, 3, 123, 5, 5, 131, 3, 0, 135, 3, 3, 136, 1, 1, 139, 5, 1, 141, 4, 5, 144, 0, 3, 147, 0, 5, 149, 5, 2, 150, 2, 2, 154, 2, 1, 157, 2, 0, 158, 4, 4, 160, 4, 1, 160, 3, 5, 160, 3, 1, 161, 4, 2, 163, 2, 3, 164, 4, 4, 166, 3, 2, 168, 1, 5]);
