n_res = 4;
rc = [ 49, 53, 63, 47 ];
n_tasks = 92;
d = [0, 5, 8, 10, 5, 5, 9, 8, 6, 7, 5, 7, 4, 4, 6, 6, 3, 7, 10, 2, 2, 1, 9, 5, 3, 4, 6, 4, 4, 2, 8, 8, 2, 10, 6, 3, 4, 6, 2, 5, 4, 2, 1, 10, 10, 1, 9, 3, 1, 9, 10, 10, 2, 9, 4, 2, 7, 8, 8, 2, 7, 2, 1, 2, 1, 8, 1, 5, 5, 7, 10, 4, 6, 9, 5, 2, 8, 1, 1, 9, 10, 1, 10, 10, 10, 9, 10, 6, 3, 3, 3, 0];
rr = array2d(1..4, 1..92, [0, 2, 4, 1, 4, 3, 2, 1, 2, 3, 7, 8, 4, 9, 9, 4, 1, 3, 9, 3, 6, 8, 10, 8, 5, 6, 1, 3, 2, 9, 4, 3, 3, 5, 1, 7, 5, 1, 2, 10, 2, 2, 9, 7, 3, 8, 4, 8, 6, 7, 5, 3, 4, 10, 7, 4, 3, 1, 8, 8, 2, 4, 5, 9, 1, 4, 3, 7, 10, 10, 7, 5, 2, 9, 4, 4, 7, 1, 4, 3, 8, 9, 9, 9, 8, 6, 6, 8, 10, 7, 2, 0, 0, 2, 2, 3, 2, 6, 5, 5, 1, 4, 3, 4, 4, 1, 5, 5, 3, 10, 5, 1, 5, 8, 6, 9, 4, 8, 3, 5, 5, 5, 8, 10, 9, 9, 10, 9, 9, 4, 7, 3, 3, 4, 9, 9, 8, 5, 3, 1, 3, 10, 7, 9, 4, 6, 8, 9, 3, 7, 4, 7, 6, 4, 2, 4, 10, 5, 6, 9, 10, 3, 2, 4, 6, 10, 10, 8, 6, 1, 8, 3, 5, 2, 7, 6, 9, 10, 9, 10, 1, 2, 1, 0, 0, 1, 5, 8, 5, 8, 9, 10, 8, 3, 5, 6, 4, 6, 9, 10, 6, 7, 3, 5, 5, 4, 10, 7, 3, 1, 5, 8, 9, 3, 2, 9, 1, 8, 10, 5, 8, 5, 4, 1, 10, 9, 6, 9, 3, 10, 8, 5, 6, 2, 5, 5, 3, 10, 8, 6, 7, 7, 7, 9, 3, 8, 8, 5, 8, 9, 6, 3, 4, 2, 10, 8, 7, 6, 5, 10, 4, 7, 3, 1, 9, 10, 9, 8, 7, 8, 5, 8, 7, 4, 2, 0, 0, 9, 6, 5, 5, 9, 2, 4, 6, 10, 3, 2, 7, 2, 4, 4, 6, 5, 5, 2, 7, 2, 6, 10, 2, 5, 3, 7, 2, 7, 10, 4, 3, 7, 6, 10, 5, 4, 4, 5, 4, 6, 6, 7, 1, 2, 1, 9, 1, 3, 5, 10, 3, 4, 5, 4, 1, 5, 1, 7, 10, 2, 1, 6, 6, 4, 9, 6, 10, 1, 4, 2, 3, 1, 3, 1, 5, 8, 9, 7, 8, 3, 9, 2, 10, 7, 9, 10, 1, 7, 7, 0]);

suc = [
   {2, 3, 4},
   {9, 11, 15},
   {20, 21, 6},
   {16, 26, 5},
   {12, 14, 7},
   {8, 18, 22},
   {33},
   {13},
   {49, 10, 62},
   {25, 66, 29},
   {69},
   {17, 33},
   {41, 51},
   {32, 19, 46},
   {76},
   {90},
   {61},
   {36, 85, 55},
   {24, 38, 23},
   {27, 52, 46},
   {28, 68},
   {56, 66, 53},
   {40, 42},
   {44},
   {50},
   {57, 30, 31},
   {54},
   {57, 58},
   {34, 35, 63},
   {37},
   {91},
   {89},
   {73, 87, 39},
   {52},
   {65, 76},
   {40},
   {67},
   {43},
   {59},
   {80},
   {45, 47},
   {70},
   {75},
   {51},
   {74},
   {48, 80},
   {72},
   {77},
   {88},
   {79},
   {61},
   {64},
   {67},
   {61, 70},
   {64},
   {74, 60},
   {79},
   {60, 71},
   {84},
   {87},
   {78},
   {83},
   {67, 77},
   {74},
   {72},
   {75, 76},
   {80},
   {73, 79},
   {70},
   {73},
   {87},
   {81},
   {84},
   {77},
   {81},
   {82},
   {91},
   {85},
   {84},
   {83},
   {83},
   {91},
   {89},
   {86},
   {90, 86},
   {89},
   {88},
   {90},
   {92},
   {92},
   {92},
   {  } ];

deadline = array2d(1..92, 1..3, [1, 4, 0, 2, 5, 2, 5, 3, 2, 6, 5, 3, 8, 1, 3, 8, 1, 1, 9, 1, 5, 10, 3, 1, 12, 1, 4, 12, 3, 1, 13, 1, 0, 22, 0, 3, 24, 4, 5, 27, 0, 1, 27, 5, 2, 35, 3, 2, 36, 3, 5, 38, 1, 1, 43, 1, 3, 45, 2, 5, 47, 0, 4, 52, 5, 2, 52, 3, 0, 56, 1, 2, 57, 1, 5, 59, 1, 4, 60, 2, 3, 60, 1, 3, 64, 1, 2, 67, 0, 4, 76, 1, 3, 77, 5, 5, 84, 0, 2, 84, 5, 1, 94, 0, 1, 101, 2, 5, 102, 2, 1, 103, 1, 3, 103, 0, 0, 106, 3, 0, 110, 3, 2, 111, 4, 1, 111, 1, 5, 113, 2, 0, 115, 3, 0, 115, 3, 3, 115, 4, 3, 119, 0, 1, 120, 1, 1, 122, 5, 0, 123, 0, 4, 124, 0, 5, 127, 5, 0, 129, 2, 0, 130, 5, 3, 143, 1, 1, 144, 0, 0, 146, 1, 0, 146, 4, 3, 148, 3, 1, 151, 0, 4, 153, 4, 1, 157, 2, 4, 158, 5, 2, 158, 0, 3, 158, 3, 1, 161, 0, 5, 162, 4, 0, 163, 0, 5, 165, 1, 1, 167, 0, 3, 167, 1, 3, 168, 3, 3, 169, 3, 3, 170, 3, 4, 172, 4, 5, 176, 1, 4, 183, 2, 1, 187, 4, 5, 187, 3, 1, 191, 1, 3, 191, 4, 0, 193, 3, 0, 193, 2, 2, 194, 2, 5, 196, 0, 5, 202, 4, 5, 204, 3, 0, 205, 2, 1, 207, 3, 5, 208, 4, 0, 209, 0, 0]);
