n_res = 4;
rc = [ 55, 61, 59, 56 ];
n_tasks = 92;
d = [0, 5, 1, 5, 2, 3, 3, 3, 6, 8, 4, 9, 1, 1, 10, 1, 10, 1, 9, 3, 5, 7, 7, 8, 1, 3, 6, 2, 7, 2, 4, 7, 7, 10, 4, 10, 8, 4, 6, 6, 7, 3, 6, 3, 5, 7, 6, 9, 2, 9, 8, 3, 5, 1, 8, 1, 10, 9, 3, 3, 7, 10, 5, 5, 8, 5, 3, 2, 7, 7, 8, 5, 7, 5, 9, 3, 3, 4, 6, 10, 3, 3, 4, 8, 8, 2, 4, 1, 8, 2, 2, 0];
rr = array2d(1..4, 1..92, [0, 9, 3, 9, 5, 3, 4, 6, 7, 1, 3, 10, 3, 7, 5, 7, 0, 2, 6, 9, 0, 0, 8, 9, 3, 9, 5, 0, 6, 0, 8, 4, 7, 1, 0, 0, 9, 2, 8, 3, 10, 3, 0, 0, 4, 5, 6, 4, 8, 7, 0, 10, 3, 3, 4, 10, 10, 7, 5, 3, 9, 4, 4, 4, 0, 2, 3, 4, 10, 10, 0, 0, 9, 7, 5, 5, 5, 0, 0, 0, 10, 0, 4, 8, 9, 8, 0, 3, 4, 6, 0, 0, 0, 1, 0, 3, 8, 9, 10, 2, 8, 2, 7, 9, 7, 7, 5, 7, 10, 0, 8, 5, 8, 8, 0, 10, 5, 0, 9, 1, 4, 3, 9, 1, 0, 0, 7, 9, 6, 5, 2, 0, 4, 10, 10, 9, 1, 0, 9, 5, 2, 7, 5, 8, 0, 1, 9, 1, 2, 3, 0, 8, 2, 0, 5, 8, 7, 0, 4, 4, 5, 5, 1, 1, 0, 3, 0, 4, 0, 7, 0, 4, 6, 0, 6, 10, 0, 7, 7, 6, 10, 1, 0, 0, 0, 0, 0, 10, 3, 2, 3, 0, 5, 0, 0, 4, 7, 1, 10, 9, 4, 1, 2, 0, 1, 0, 0, 6, 0, 9, 9, 2, 4, 2, 0, 9, 7, 5, 0, 2, 0, 4, 6, 1, 5, 10, 0, 0, 0, 0, 9, 5, 1, 9, 4, 5, 3, 3, 0, 8, 5, 2, 2, 6, 0, 10, 4, 3, 4, 0, 7, 1, 0, 0, 0, 6, 0, 10, 0, 10, 7, 8, 6, 5, 1, 7, 1, 1, 2, 0, 1, 10, 0, 0, 1, 0, 0, 8, 6, 10, 0, 4, 1, 0, 0, 5, 0, 2, 0, 0, 0, 5, 9, 6, 0, 2, 2, 0, 10, 5, 5, 0, 1, 7, 0, 0, 4, 3, 3, 3, 0, 10, 0, 6, 1, 2, 3, 7, 9, 2, 5, 5, 4, 9, 2, 7, 0, 5, 3, 7, 6, 6, 5, 0, 6, 1, 6, 0, 3, 0, 2, 0, 5, 10, 8, 10, 9, 7, 8, 2, 7, 0, 0, 8, 0, 3, 3, 5, 0, 1, 2, 0, 7, 5, 1, 4, 1, 0]);

suc = [
   {2, 3, 4},
   {38, 12, 36},
   {9, 5, 6},
   {27, 46, 39},
   {21},
   {19, 30, 7},
   {8, 12, 31},
   {24, 65, 37},
   {10, 11, 38},
   {52, 14, 63},
   {18, 29, 13},
   {48, 28},
   {16, 32, 67},
   {17, 20, 15},
   {77},
   {54, 42, 22},
   {25, 37},
   {40, 61, 23},
   {66, 21},
   {50, 37, 54},
   {26, 28, 29},
   {83, 47},
   {48, 36, 52},
   {33, 76},
   {34, 35, 71},
   {60},
   {53, 52, 45},
   {56, 41, 60},
   {42, 35, 78},
   {80, 57, 35},
   {72, 58, 44},
   {45},
   {73, 70},
   {77, 61, 39},
   {72, 65, 43},
   {44, 87},
   {59, 66, 51},
   {47, 39},
   {40, 41, 49},
   {56, 53},
   {44, 85},
   {65, 46},
   {51, 69, 46},
   {90},
   {49, 51, 55},
   {48, 81, 47},
   {58},
   {82},
   {74, 76, 62},
   {61, 53, 55},
   {64},
   {66, 69, 70},
   {75, 59, 60},
   {58, 68, 71},
   {56, 74},
   {72, 79},
   {62, 63},
   {91},
   {73, 68, 76},
   {79},
   {68, 62},
   {64, 81, 82},
   {64, 91, 67},
   {75, 84},
   {69, 86},
   {67, 77},
   {73, 71},
   {74, 90, 70},
   {83, 75},
   {82, 78},
   {89},
   {81},
   {83, 78},
   {80},
   {90},
   {87, 79},
   {84},
   {87},
   {80},
   {88, 86},
   {86},
   {84, 85},
   {85},
   {89},
   {88},
   {91},
   {88},
   {89},
   {92},
   {92},
   {92},
   {  } ];

deadline = array2d(1..92, 1..3, [1, 0, 1, 3, 4, 5, 4, 1, 4, 4, 4, 3, 5, 2, 1, 9, 0, 5, 10, 5, 3, 12, 0, 5, 17, 4, 3, 17, 3, 1, 28, 2, 1, 34, 4, 1, 35, 5, 0, 36, 2, 1, 37, 5, 1, 40, 5, 0, 40, 1, 4, 41, 4, 1, 41, 2, 2, 42, 0, 2, 46, 4, 0, 46, 5, 1, 49, 2, 0, 51, 4, 4, 58, 0, 4, 60, 4, 0, 64, 0, 5, 65, 3, 1, 66, 5, 1, 69, 3, 5, 70, 2, 3, 73, 2, 1, 79, 0, 3, 80, 4, 3, 82, 3, 0, 84, 2, 3, 87, 4, 4, 91, 0, 4, 95, 5, 1, 96, 5, 0, 100, 1, 1, 103, 5, 0, 105, 2, 3, 105, 3, 2, 109, 5, 5, 115, 0, 1, 117, 2, 2, 120, 1, 4, 120, 5, 4, 121, 5, 4, 122, 2, 4, 123, 3, 5, 124, 5, 0, 127, 4, 0, 131, 2, 4, 131, 1, 4, 132, 1, 2, 135, 3, 1, 140, 1, 5, 146, 3, 3, 148, 0, 0, 157, 1, 3, 157, 3, 3, 158, 4, 5, 161, 4, 4, 163, 4, 4, 165, 0, 2, 168, 1, 5, 171, 5, 1, 172, 1, 1, 172, 4, 5, 179, 5, 1, 179, 3, 0, 180, 5, 5, 184, 1, 1, 185, 2, 3, 187, 5, 2, 194, 3, 3, 194, 3, 5, 196, 4, 5, 197, 5, 0, 197, 4, 4, 200, 1, 2, 201, 5, 3, 202, 0, 2, 202, 4, 1, 204, 4, 5, 204, 0, 3, 206, 1, 0, 209, 1, 3, 209, 3, 4, 213, 3, 3]);
