n_res = 4;
rc = [ 53, 56, 49, 63 ];
n_tasks = 92;
d = [0, 1, 3, 6, 2, 2, 9, 7, 5, 8, 8, 10, 9, 3, 10, 8, 4, 6, 6, 9, 6, 9, 5, 6, 5, 5, 6, 5, 4, 5, 5, 5, 6, 3, 7, 2, 1, 2, 6, 4, 10, 2, 3, 8, 9, 7, 1, 9, 1, 10, 10, 6, 3, 7, 8, 7, 9, 5, 5, 7, 10, 8, 8, 9, 7, 8, 5, 5, 5, 2, 7, 9, 3, 10, 7, 3, 7, 8, 8, 10, 9, 2, 1, 4, 10, 5, 9, 3, 8, 4, 10, 0];
rr = array2d(1..4, 1..92, [0, 2, 0, 6, 9, 4, 0, 0, 0, 8, 0, 3, 4, 0, 8, 0, 2, 9, 0, 0, 0, 4, 7, 6, 0, 10, 0, 9, 9, 8, 5, 9, 5, 1, 9, 7, 0, 0, 1, 7, 9, 0, 0, 0, 0, 9, 2, 9, 9, 5, 0, 10, 10, 4, 0, 4, 10, 0, 7, 3, 4, 7, 4, 10, 9, 2, 3, 8, 6, 1, 9, 10, 4, 5, 2, 3, 6, 1, 10, 5, 0, 8, 9, 3, 3, 10, 5, 8, 5, 3, 0, 0, 0, 1, 6, 10, 0, 0, 9, 0, 0, 7, 2, 1, 6, 1, 7, 10, 8, 9, 2, 10, 2, 0, 0, 6, 7, 0, 7, 0, 3, 7, 7, 3, 9, 0, 3, 2, 8, 4, 8, 9, 9, 10, 1, 3, 6, 10, 0, 0, 0, 0, 8, 8, 10, 1, 0, 10, 7, 9, 3, 3, 5, 0, 0, 2, 3, 10, 10, 0, 7, 7, 1, 2, 0, 3, 10, 0, 0, 8, 2, 0, 1, 3, 10, 5, 5, 5, 0, 0, 6, 2, 4, 0, 0, 6, 0, 0, 5, 0, 8, 3, 8, 10, 3, 4, 8, 7, 3, 1, 4, 8, 3, 2, 4, 9, 10, 0, 10, 7, 9, 5, 8, 0, 0, 0, 9, 8, 7, 9, 7, 6, 0, 0, 6, 6, 0, 10, 0, 1, 0, 3, 0, 2, 0, 2, 1, 4, 2, 0, 9, 8, 9, 0, 1, 8, 0, 10, 7, 10, 0, 7, 9, 1, 10, 5, 1, 3, 0, 10, 4, 8, 9, 0, 0, 0, 10, 1, 1, 4, 2, 0, 1, 9, 3, 0, 0, 0, 7, 6, 1, 0, 0, 4, 8, 8, 7, 2, 10, 0, 4, 3, 2, 1, 9, 1, 8, 9, 6, 1, 9, 5, 0, 8, 10, 10, 5, 0, 0, 3, 1, 7, 4, 0, 9, 8, 5, 0, 0, 0, 8, 8, 2, 9, 1, 10, 6, 0, 0, 10, 6, 3, 4, 7, 9, 5, 1, 8, 7, 6, 7, 10, 8, 8, 9, 3, 1, 4, 6, 1, 7, 0, 0, 10, 0, 10, 5, 0, 2, 0, 0, 3, 10, 0, 10, 2, 2, 0]);

suc = [
   {2, 3, 4},
   {35, 69, 6},
   {16, 57, 42},
   {8, 5, 14},
   {10, 15, 7},
   {9, 11, 13},
   {32, 26, 38},
   {12},
   {17, 18, 20},
   {47, 29, 23},
   {24, 73, 40},
   {56, 21, 31},
   {25, 19, 33},
   {56, 85},
   {43, 22},
   {55, 39},
   {65, 30, 79},
   {41, 67},
   {62},
   {24, 68},
   {49, 54, 86},
   {59, 44, 71},
   {77, 37},
   {89, 27, 28},
   {41},
   {34},
   {64, 59, 45},
   {54, 46},
   {40, 36},
   {83},
   {42, 76, 77},
   {45},
   {41, 34, 36},
   {64, 50, 87},
   {66, 84, 63},
   {50, 51},
   {49, 60},
   {55},
   {64, 82, 52},
   {81, 53},
   {58, 60, 63},
   {48, 69, 61},
   {81, 71},
   {69, 54},
   {67},
   {61},
   {50, 68},
   {87},
   {75},
   {81, 73, 66},
   {52},
   {65},
   {72, 57, 68},
   {61, 70},
   {88},
   {70},
   {74, 59, 76},
   {66, 78},
   {77},
   {74},
   {90},
   {75},
   {85},
   {70},
   {73},
   {80},
   {76},
   {74},
   {72, 79},
   {88},
   {80, 78},
   {82},
   {83},
   {84},
   {85},
   {82},
   {86, 78},
   {79},
   {84},
   {89},
   {90, 83, 86},
   {90},
   {91},
   {88},
   {87},
   {91},
   {89},
   {91},
   {92},
   {92},
   {92},
   {  } ];

deadline = array2d(1..92, 1..3, [2, 3, 1, 4, 5, 2, 4, 3, 1, 7, 1, 0, 8, 4, 1, 10, 2, 0, 12, 0, 3, 13, 3, 0, 14, 3, 3, 18, 5, 3, 19, 0, 0, 20, 1, 1, 21, 0, 3, 22, 3, 0, 24, 0, 5, 24, 1, 4, 27, 4, 5, 28, 5, 3, 35, 0, 0, 39, 3, 1, 39, 3, 0, 41, 1, 5, 47, 2, 3, 49, 3, 2, 53, 5, 2, 53, 2, 0, 53, 1, 2, 55, 1, 1, 60, 2, 3, 62, 3, 4, 65, 2, 1, 67, 0, 2, 69, 3, 5, 70, 5, 0, 73, 3, 2, 74, 2, 0, 74, 3, 1, 81, 0, 3, 83, 3, 5, 83, 2, 1, 84, 0, 0, 85, 0, 1, 88, 5, 2, 93, 1, 0, 95, 3, 5, 100, 4, 2, 103, 0, 3, 107, 5, 2, 107, 3, 1, 111, 0, 2, 111, 0, 3, 113, 2, 1, 114, 2, 5, 115, 2, 5, 116, 0, 5, 119, 0, 5, 127, 2, 0, 127, 4, 4, 131, 1, 0, 131, 0, 1, 132, 3, 5, 133, 0, 0, 134, 0, 5, 136, 0, 4, 137, 1, 4, 141, 1, 2, 144, 4, 2, 150, 4, 0, 151, 3, 0, 155, 2, 4, 156, 1, 0, 158, 4, 5, 158, 5, 3, 161, 1, 4, 161, 5, 4, 167, 3, 1, 168, 4, 2, 179, 2, 1, 181, 5, 2, 183, 0, 2, 183, 3, 0, 187, 3, 0, 189, 1, 2, 190, 1, 5, 192, 3, 0, 192, 5, 4, 196, 5, 2, 196, 5, 3, 198, 3, 2, 199, 4, 3, 202, 1, 0, 202, 2, 5]);
