n_res = 4;
rc = [ 67, 69, 67, 67 ];
n_tasks = 92;
d = [0, 8, 2, 1, 9, 2, 1, 7, 5, 9, 6, 9, 5, 9, 2, 5, 8, 3, 6, 3, 9, 2, 1, 1, 10, 7, 6, 1, 7, 8, 8, 2, 2, 10, 1, 6, 4, 9, 3, 7, 9, 1, 3, 1, 10, 4, 4, 5, 4, 6, 2, 2, 8, 5, 10, 1, 10, 1, 10, 1, 4, 8, 1, 1, 5, 1, 5, 1, 9, 4, 8, 1, 7, 6, 5, 10, 6, 4, 10, 4, 2, 3, 6, 2, 3, 3, 7, 1, 7, 8, 8, 0];
rr = array2d(1..4, 1..92, [0, 10, 7, 5, 3, 9, 2, 3, 8, 5, 2, 2, 4, 7, 4, 2, 7, 9, 2, 7, 7, 6, 9, 8, 2, 8, 2, 2, 5, 9, 5, 10, 2, 7, 8, 7, 6, 8, 6, 3, 8, 1, 10, 7, 8, 6, 8, 3, 5, 1, 5, 8, 2, 5, 6, 9, 1, 5, 9, 10, 2, 7, 1, 3, 8, 9, 8, 10, 4, 4, 1, 8, 2, 10, 6, 3, 6, 8, 7, 1, 7, 3, 9, 5, 7, 10, 10, 1, 6, 4, 10, 0, 0, 3, 10, 3, 3, 8, 3, 2, 8, 7, 8, 2, 8, 8, 6, 8, 10, 3, 6, 1, 4, 8, 4, 9, 10, 2, 8, 1, 8, 7, 10, 6, 4, 5, 6, 6, 10, 6, 1, 9, 4, 10, 6, 6, 2, 7, 10, 7, 5, 5, 1, 7, 9, 3, 5, 5, 6, 5, 10, 9, 5, 3, 7, 7, 4, 1, 6, 10, 2, 2, 10, 5, 1, 2, 7, 4, 7, 4, 1, 7, 9, 3, 9, 3, 4, 1, 5, 4, 6, 8, 6, 0, 0, 1, 1, 3, 1, 5, 5, 2, 4, 1, 2, 3, 2, 2, 3, 6, 1, 5, 4, 10, 1, 1, 5, 7, 8, 6, 9, 3, 2, 5, 2, 4, 1, 6, 7, 9, 6, 3, 9, 10, 9, 10, 10, 4, 9, 5, 8, 7, 3, 5, 1, 10, 9, 9, 7, 4, 7, 5, 1, 6, 10, 8, 6, 5, 3, 4, 5, 2, 6, 7, 10, 8, 10, 2, 10, 2, 9, 1, 5, 10, 6, 10, 2, 2, 3, 3, 8, 4, 10, 10, 10, 0, 0, 2, 4, 7, 10, 7, 3, 5, 2, 9, 4, 10, 10, 7, 1, 3, 5, 2, 4, 4, 6, 8, 7, 9, 5, 2, 7, 8, 9, 5, 7, 2, 2, 8, 7, 7, 8, 10, 9, 1, 4, 6, 1, 5, 3, 7, 7, 7, 8, 6, 10, 5, 6, 4, 10, 8, 8, 2, 10, 6, 2, 6, 10, 8, 5, 8, 6, 7, 9, 6, 3, 3, 2, 3, 7, 4, 7, 1, 4, 5, 1, 8, 10, 5, 2, 4, 8, 1, 2, 2, 8, 0]);

suc = [
   {2, 3, 4},
   {5, 6, 7},
   {17, 25, 15},
   {8, 9, 11},
   {27},
   {34, 60},
   {17},
   {10, 52},
   {16, 12, 14},
   {31, 69, 15},
   {18, 35, 85},
   {29, 13, 30},
   {65, 37, 86},
   {44, 21},
   {26},
   {24, 57},
   {20},
   {19},
   {32, 41},
   {22},
   {63},
   {49, 28, 23},
   {39},
   {90, 45},
   {87, 38, 47},
   {54},
   {42},
   {33, 51, 55},
   {48, 36},
   {43},
   {74, 46},
   {58},
   {84},
   {40, 43, 35},
   {89, 83},
   {64, 66, 76},
   {64},
   {81},
   {60},
   {70, 68, 62},
   {59, 54},
   {82, 47},
   {80},
   {67},
   {50},
   {59},
   {73},
   {76, 55},
   {53},
   {55},
   {73, 58},
   {74},
   {78},
   {56, 71},
   {59},
   {67, 61},
   {66, 63},
   {61},
   {77},
   {69},
   {86},
   {75},
   {86},
   {72},
   {73},
   {88},
   {70},
   {91},
   {77},
   {84},
   {82},
   {87},
   {85},
   {82},
   {87},
   {81},
   {79},
   {83},
   {80},
   {91},
   {83, 85},
   {88},
   {88},
   {89},
   {90},
   {90},
   {89},
   {91},
   {92},
   {92},
   {92},
   {  } ];

deadline = array2d(1..92, 1..3, [1, 0, 2, 4, 0, 0, 4, 3, 3, 6, 2, 2, 6, 2, 3, 15, 3, 5, 18, 4, 0, 19, 3, 3, 19, 4, 1, 20, 4, 3, 22, 4, 0, 25, 0, 2, 27, 4, 5, 27, 1, 1, 31, 5, 1, 32, 3, 4, 33, 5, 2, 35, 4, 1, 35, 2, 4, 36, 3, 4, 38, 0, 5, 39, 3, 5, 42, 5, 2, 43, 5, 1, 44, 5, 3, 46, 3, 5, 48, 0, 1, 51, 4, 0, 51, 5, 3, 56, 2, 3, 58, 4, 4, 61, 3, 3, 61, 2, 3, 63, 5, 1, 64, 2, 4, 65, 1, 3, 65, 5, 0, 69, 5, 1, 70, 1, 1, 70, 0, 1, 71, 3, 4, 72, 2, 5, 73, 5, 1, 74, 2, 0, 77, 4, 1, 82, 5, 3, 84, 5, 2, 90, 4, 4, 94, 5, 4, 96, 5, 1, 97, 0, 5, 101, 5, 0, 104, 2, 5, 105, 3, 5, 106, 2, 5, 108, 2, 1, 108, 4, 1, 110, 2, 4, 113, 4, 2, 114, 0, 2, 115, 0, 1, 117, 5, 5, 118, 4, 4, 119, 1, 4, 124, 4, 2, 125, 2, 1, 126, 0, 2, 129, 5, 4, 130, 5, 4, 138, 1, 3, 140, 3, 2, 144, 4, 0, 149, 0, 0, 151, 2, 5, 152, 1, 3, 154, 3, 5, 166, 3, 4, 168, 5, 0, 168, 5, 0, 169, 4, 0, 170, 0, 3, 174, 4, 5, 177, 5, 2, 179, 4, 1, 181, 1, 1, 181, 3, 0, 182, 2, 4, 185, 5, 4, 186, 5, 4, 188, 2, 5, 189, 0, 4, 189, 0, 0]);
