n_res = 4;
rc = [ 17, 15, 18, 16 ];
n_tasks = 92;
d = [0, 8, 4, 10, 9, 1, 4, 6, 8, 6, 4, 7, 5, 10, 6, 9, 6, 7, 4, 5, 5, 7, 10, 8, 10, 9, 3, 2, 3, 10, 7, 3, 2, 6, 7, 8, 7, 1, 6, 9, 3, 8, 9, 3, 7, 10, 3, 6, 10, 8, 7, 3, 9, 1, 10, 7, 5, 10, 2, 2, 5, 5, 8, 5, 4, 1, 9, 3, 7, 5, 10, 5, 6, 4, 3, 5, 1, 1, 10, 10, 8, 10, 5, 10, 5, 2, 2, 1, 1, 6, 9, 0];
rr = array2d(1..4, 1..92, [0, 1, 0, 0, 0, 2, 6, 0, 6, 0, 0, 5, 0, 0, 9, 7, 0, 0, 7, 0, 9, 9, 0, 3, 3, 5, 3, 3, 8, 3, 0, 10, 0, 10, 0, 0, 4, 0, 9, 6, 0, 3, 5, 1, 6, 0, 2, 10, 0, 10, 2, 0, 0, 0, 0, 0, 1, 2, 0, 7, 0, 0, 7, 0, 0, 7, 0, 0, 2, 7, 3, 0, 10, 1, 0, 4, 0, 0, 9, 0, 0, 7, 0, 0, 0, 6, 8, 0, 0, 2, 0, 0, 0, 0, 0, 6, 2, 0, 0, 0, 0, 2, 0, 0, 0, 7, 8, 2, 1, 6, 0, 0, 3, 8, 6, 5, 5, 0, 0, 5, 0, 0, 5, 0, 1, 0, 0, 0, 10, 5, 3, 5, 0, 0, 5, 10, 0, 0, 0, 0, 9, 0, 0, 7, 0, 0, 0, 0, 0, 3, 5, 0, 9, 2, 0, 0, 10, 0, 0, 1, 0, 0, 0, 0, 0, 5, 0, 5, 9, 10, 1, 6, 5, 2, 0, 5, 5, 0, 0, 5, 1, 0, 0, 0, 0, 0, 8, 5, 0, 0, 0, 1, 0, 8, 2, 0, 4, 0, 0, 0, 0, 3, 9, 8, 7, 0, 5, 0, 0, 8, 0, 0, 7, 0, 3, 0, 3, 6, 0, 2, 8, 1, 0, 3, 10, 0, 0, 0, 10, 6, 0, 0, 4, 0, 7, 0, 10, 5, 10, 10, 6, 0, 5, 0, 10, 0, 0, 6, 1, 2, 10, 0, 9, 0, 5, 0, 0, 7, 0, 0, 7, 8, 0, 0, 5, 9, 6, 3, 0, 5, 0, 1, 10, 0, 2, 0, 0, 9, 0, 0, 3, 0, 6, 5, 7, 5, 0, 9, 0, 8, 0, 2, 2, 0, 0, 7, 0, 2, 4, 2, 9, 0, 0, 0, 7, 0, 0, 8, 0, 9, 8, 6, 0, 0, 10, 8, 0, 0, 0, 9, 0, 0, 0, 3, 0, 0, 0, 0, 1, 0, 0, 0, 5, 0, 4, 0, 5, 3, 3, 0, 0, 0, 0, 7, 0, 6, 0, 1, 0, 1, 6, 0, 0, 0, 8, 4, 9, 7, 6, 0, 0, 4, 0, 7, 8, 0, 9, 0]);

suc = [
   {2, 3, 4},
   {25, 5, 15},
   {8, 26, 19},
   {9, 22, 41},
   {16, 17, 6},
   {55, 13, 7},
   {65, 18, 39},
   {10, 11, 12},
   {70, 62},
   {68, 78},
   {32, 59, 63},
   {33, 61, 23},
   {41, 14, 31},
   {24},
   {42, 51, 45},
   {18, 20},
   {32, 48, 21},
   {40, 34, 28},
   {56, 29, 30},
   {33, 42, 50},
   {42, 27, 30},
   {36, 54, 84},
   {48, 53, 70},
   {60, 38, 39},
   {56, 33, 49},
   {83, 46, 87},
   {49, 74, 44},
   {74, 37, 38},
   {50, 79},
   {72, 34, 70},
   {75, 35, 47},
   {43, 53, 39},
   {53, 47},
   {64, 45, 62},
   {57, 66, 36},
   {40, 37},
   {69, 78, 71},
   {51, 76, 63},
   {40, 89},
   {52},
   {51, 68},
   {91, 52, 71},
   {65, 55, 47},
   {56, 57, 85},
   {66, 68, 71},
   {59, 61},
   {67},
   {49, 58, 54},
   {67, 60, 63},
   {65, 74, 52},
   {57, 61, 79},
   {90},
   {76},
   {69, 55},
   {66},
   {77},
   {62},
   {72, 75, 60},
   {69},
   {64, 80},
   {64},
   {73},
   {72, 83, 86},
   {84},
   {84},
   {67, 78},
   {73, 76},
   {80, 75, 77},
   {89, 79},
   {81},
   {82},
   {73},
   {89, 82},
   {80, 77},
   {88},
   {81, 86},
   {91, 87},
   {82},
   {86},
   {81, 83},
   {85},
   {87},
   {85},
   {90},
   {88},
   {88},
   {90},
   {91},
   {92},
   {92},
   {92},
   {  } ];

deadline = array2d(1..92, 1..3, [2, 0, 1, 3, 3, 5, 5, 3, 3, 7, 1, 4, 9, 3, 1, 10, 2, 0, 11, 0, 0, 14, 2, 0, 15, 0, 2, 16, 1, 2, 20, 4, 0, 20, 3, 4, 24, 4, 1, 25, 5, 2, 26, 2, 0, 28, 2, 1, 29, 3, 3, 30, 0, 2, 30, 0, 0, 38, 4, 5, 42, 2, 3, 49, 0, 4, 52, 1, 0, 55, 0, 1, 56, 5, 3, 57, 1, 3, 59, 0, 4, 61, 1, 3, 61, 2, 4, 61, 2, 5, 64, 4, 5, 64, 4, 3, 65, 3, 0, 69, 2, 1, 71, 2, 3, 74, 2, 5, 79, 0, 0, 81, 3, 1, 83, 0, 0, 83, 2, 5, 86, 5, 4, 88, 1, 3, 91, 0, 3, 92, 5, 3, 95, 5, 1, 96, 0, 4, 98, 1, 1, 101, 4, 1, 101, 3, 5, 103, 3, 0, 106, 5, 1, 108, 3, 0, 108, 2, 2, 110, 3, 0, 111, 3, 1, 115, 4, 3, 120, 4, 3, 121, 1, 1, 123, 0, 0, 134, 3, 2, 135, 1, 4, 137, 4, 4, 141, 5, 0, 143, 4, 3, 144, 2, 0, 156, 4, 5, 158, 1, 5, 163, 5, 1, 164, 4, 0, 168, 4, 3, 172, 0, 4, 175, 1, 4, 178, 2, 2, 179, 1, 4, 182, 1, 4, 191, 2, 5, 192, 0, 1, 197, 0, 2, 203, 5, 3, 203, 0, 3, 205, 3, 2, 206, 5, 3, 207, 1, 1, 210, 2, 0, 211, 2, 2, 211, 2, 1, 213, 3, 0, 215, 2, 0, 217, 4, 2, 218, 0, 0, 220, 2, 2, 222, 5, 2]);
