n_res = 4;
rc = [ 17, 18, 17, 16 ];
n_tasks = 92;
d = [0, 4, 8, 9, 8, 2, 3, 5, 3, 1, 9, 9, 2, 10, 1, 4, 10, 3, 10, 1, 6, 6, 9, 4, 2, 7, 8, 7, 6, 3, 7, 1, 3, 5, 9, 1, 4, 9, 3, 1, 9, 7, 8, 8, 10, 4, 5, 8, 5, 9, 3, 6, 1, 1, 6, 10, 2, 5, 9, 1, 8, 8, 1, 5, 8, 2, 6, 6, 6, 9, 7, 9, 1, 8, 3, 5, 10, 2, 4, 9, 5, 2, 4, 7, 4, 9, 8, 9, 10, 6, 9, 0];
rr = array2d(1..4, 1..92, [0, 0, 6, 7, 5, 7, 10, 0, 0, 5, 0, 0, 5, 4, 7, 0, 6, 0, 0, 9, 3, 1, 0, 0, 9, 0, 0, 0, 0, 8, 1, 3, 10, 9, 0, 0, 8, 0, 8, 2, 2, 0, 0, 3, 0, 0, 0, 8, 9, 6, 0, 5, 0, 0, 0, 5, 8, 5, 10, 6, 1, 0, 9, 1, 1, 0, 7, 2, 9, 0, 0, 3, 0, 5, 0, 0, 4, 5, 0, 9, 0, 0, 0, 0, 0, 10, 6, 0, 6, 0, 5, 0, 0, 6, 5, 0, 4, 0, 1, 1, 0, 6, 5, 7, 0, 0, 0, 0, 6, 4, 6, 5, 0, 0, 0, 0, 0, 0, 0, 1, 0, 0, 0, 7, 0, 2, 4, 0, 0, 0, 7, 9, 0, 0, 8, 0, 0, 0, 0, 10, 0, 0, 0, 0, 2, 6, 0, 0, 9, 3, 5, 0, 8, 5, 8, 4, 9, 10, 10, 0, 0, 10, 2, 0, 5, 0, 0, 3, 0, 0, 0, 0, 0, 9, 0, 10, 8, 0, 0, 10, 1, 1, 1, 0, 0, 0, 3, 7, 0, 9, 0, 0, 5, 0, 8, 10, 10, 0, 0, 0, 0, 8, 0, 6, 5, 4, 6, 5, 0, 4, 0, 8, 4, 10, 0, 0, 0, 0, 0, 0, 7, 9, 0, 0, 8, 0, 0, 0, 9, 3, 1, 0, 2, 5, 9, 9, 0, 6, 0, 0, 7, 2, 0, 2, 1, 2, 0, 0, 3, 1, 0, 10, 9, 4, 1, 0, 9, 5, 10, 0, 0, 5, 7, 4, 3, 5, 5, 4, 0, 0, 0, 0, 3, 0, 0, 0, 0, 0, 0, 0, 0, 0, 7, 0, 8, 0, 0, 0, 8, 0, 0, 7, 3, 7, 7, 0, 0, 2, 10, 0, 0, 0, 2, 0, 2, 0, 1, 6, 0, 0, 0, 2, 0, 3, 0, 0, 0, 1, 6, 1, 9, 4, 0, 0, 0, 0, 2, 0, 3, 6, 7, 10, 0, 0, 3, 6, 10, 9, 4, 0, 0, 9, 0, 9, 0, 0, 0, 0, 0, 0, 7, 2, 0, 1, 0, 0, 0, 0, 2, 0, 0, 9, 0, 10, 0, 0, 1, 0]);

suc = [
   {2, 3, 4},
   {8, 57, 43},
   {70},
   {11, 5, 7},
   {9, 29, 6},
   {26},
   {81, 27, 45},
   {50, 20, 68},
   {25, 10, 13},
   {16, 19, 15},
   {12, 20, 14},
   {18, 50, 30},
   {42, 46},
   {17, 27, 53},
   {64, 44, 38},
   {91, 22, 23},
   {41, 58, 67},
   {21},
   {33, 35, 23},
   {27, 30, 71},
   {24, 40},
   {34, 46, 31},
   {71, 47},
   {55, 37, 39},
   {67, 28},
   {36, 53, 54},
   {65},
   {84, 87},
   {56},
   {48, 36},
   {32},
   {78},
   {73, 58, 70},
   {63},
   {51, 71},
   {88},
   {49, 79},
   {80, 60},
   {66},
   {75},
   {48, 43},
   {43, 44},
   {60, 61, 78},
   {52},
   {88},
   {65, 49},
   {54, 63},
   {79},
   {74},
   {67},
   {60},
   {62},
   {59},
   {73, 59, 76},
   {86, 62, 63},
   {81, 65, 78},
   {75, 59},
   {69, 79},
   {85},
   {72, 76},
   {64, 74, 68},
   {84},
   {76, 69},
   {82},
   {80, 69},
   {72, 70},
   {82, 86},
   {82},
   {72},
   {81},
   {89},
   {74},
   {75, 77},
   {83},
   {80, 88},
   {90, 83, 77},
   {85},
   {84},
   {91},
   {90, 83},
   {86},
   {87},
   {85},
   {89},
   {89},
   {87},
   {91},
   {90},
   {92},
   {92},
   {92},
   {  } ];

deadline = array2d(1..92, 1..3, [1, 4, 1, 4, 2, 1, 4, 5, 2, 7, 2, 2, 9, 3, 1, 10, 4, 2, 10, 4, 1, 14, 4, 1, 15, 3, 0, 16, 1, 2, 16, 0, 4, 18, 1, 2, 19, 1, 3, 23, 2, 5, 26, 4, 4, 26, 3, 4, 28, 5, 1, 29, 2, 1, 29, 1, 3, 34, 3, 4, 37, 4, 4, 41, 4, 2, 44, 5, 5, 45, 5, 5, 47, 3, 4, 47, 4, 3, 49, 0, 1, 53, 1, 5, 57, 4, 0, 59, 3, 2, 60, 3, 3, 61, 1, 0, 62, 4, 4, 65, 0, 2, 67, 5, 0, 69, 3, 4, 70, 3, 2, 76, 1, 2, 79, 4, 3, 89, 4, 3, 92, 5, 1, 98, 0, 5, 101, 5, 3, 102, 1, 0, 105, 5, 3, 107, 2, 0, 109, 4, 3, 110, 3, 4, 113, 0, 2, 119, 2, 5, 120, 1, 1, 121, 2, 5, 121, 4, 1, 121, 3, 3, 123, 1, 0, 126, 5, 5, 126, 4, 4, 126, 2, 5, 129, 0, 3, 131, 5, 5, 137, 0, 3, 138, 4, 4, 139, 1, 1, 140, 5, 0, 143, 0, 1, 143, 4, 3, 145, 1, 3, 148, 2, 2, 159, 4, 1, 162, 2, 3, 165, 5, 1, 172, 1, 0, 175, 1, 4, 175, 3, 0, 175, 5, 0, 180, 4, 1, 183, 4, 4, 184, 0, 1, 185, 5, 2, 195, 2, 3, 199, 1, 1, 200, 3, 4, 212, 2, 4, 213, 1, 0, 214, 3, 3, 214, 4, 1, 214, 2, 4, 218, 1, 3, 220, 2, 2, 222, 3, 5, 223, 0, 1, 225, 0, 1]);
