n_res = 4;
rc = [ 51, 44, 54, 34 ];
n_tasks = 92;
d = [0, 4, 8, 3, 5, 2, 2, 7, 3, 2, 8, 5, 6, 6, 9, 1, 2, 8, 4, 4, 8, 9, 4, 2, 6, 3, 2, 9, 2, 8, 4, 9, 5, 3, 5, 7, 8, 6, 9, 3, 8, 7, 8, 9, 1, 7, 7, 8, 5, 4, 2, 10, 5, 9, 9, 8, 5, 6, 1, 1, 8, 3, 1, 6, 10, 7, 1, 9, 6, 2, 2, 1, 9, 2, 2, 10, 2, 10, 7, 3, 10, 7, 9, 9, 8, 6, 2, 1, 8, 9, 7, 0];
rr = array2d(1..4, 1..92, [0, 9, 6, 3, 4, 0, 0, 0, 0, 0, 0, 0, 5, 9, 4, 0, 9, 10, 5, 10, 3, 0, 0, 8, 8, 2, 0, 0, 0, 3, 0, 6, 0, 0, 0, 0, 0, 0, 9, 5, 8, 2, 1, 1, 0, 5, 3, 3, 3, 4, 10, 0, 6, 0, 0, 0, 0, 0, 4, 7, 0, 6, 0, 5, 1, 0, 0, 4, 10, 2, 0, 0, 8, 10, 0, 4, 0, 0, 3, 10, 0, 10, 0, 0, 0, 0, 6, 0, 3, 0, 0, 0, 0, 10, 0, 7, 0, 9, 6, 0, 3, 0, 0, 0, 0, 3, 1, 5, 0, 6, 0, 0, 0, 1, 9, 10, 9, 0, 10, 0, 0, 6, 7, 0, 0, 4, 10, 0, 9, 3, 0, 6, 8, 0, 0, 0, 2, 0, 9, 0, 0, 0, 0, 0, 9, 0, 0, 5, 7, 0, 0, 0, 3, 0, 0, 0, 8, 0, 9, 0, 3, 2, 10, 0, 2, 7, 1, 0, 0, 4, 5, 0, 1, 10, 0, 2, 1, 9, 0, 0, 6, 3, 0, 0, 0, 4, 0, 0, 0, 9, 0, 4, 0, 0, 2, 6, 1, 0, 0, 0, 0, 0, 0, 3, 1, 0, 0, 7, 5, 0, 0, 6, 0, 0, 0, 9, 3, 0, 0, 6, 10, 10, 0, 0, 10, 6, 8, 1, 9, 6, 0, 3, 6, 0, 2, 0, 0, 5, 2, 0, 3, 1, 0, 10, 0, 0, 1, 9, 0, 1, 7, 0, 2, 0, 0, 6, 0, 3, 0, 0, 0, 1, 0, 0, 0, 10, 6, 4, 10, 0, 0, 6, 6, 5, 8, 0, 0, 0, 9, 5, 0, 0, 3, 0, 6, 6, 0, 2, 1, 0, 0, 0, 9, 7, 1, 4, 0, 0, 0, 0, 0, 7, 9, 0, 6, 0, 6, 0, 0, 8, 10, 0, 0, 1, 9, 9, 0, 0, 0, 9, 4, 7, 0, 0, 7, 4, 6, 5, 0, 2, 10, 0, 0, 0, 0, 2, 0, 7, 1, 0, 1, 0, 0, 4, 0, 0, 0, 0, 8, 0, 8, 0, 9, 5, 0, 1, 2, 7, 0, 0, 0, 4, 0, 5, 7, 0, 0, 0]);

suc = [
   {2, 3, 4},
   {8, 17, 7},
   {38, 22, 55},
   {56, 5, 86},
   {9, 12, 6},
   {24, 10, 43},
   {50, 79, 15},
   {57, 29},
   {76, 14},
   {11, 20, 30},
   {16, 39},
   {19, 69, 13},
   {25},
   {32, 18, 46},
   {30},
   {33, 26, 23},
   {34, 45, 21},
   {65, 59, 60},
   {40, 21},
   {85},
   {42},
   {27},
   {48, 72, 70},
   {64, 49, 51},
   {45},
   {28, 47},
   {52},
   {37, 63},
   {73, 54},
   {83, 52, 31},
   {88, 44},
   {81, 62},
   {46},
   {67, 35, 36},
   {65, 41},
   {42, 63},
   {48, 41, 71},
   {89},
   {55},
   {41, 67},
   {52},
   {81, 73},
   {74},
   {76},
   {53},
   {51, 62, 63},
   {80, 82},
   {67},
   {68, 69},
   {58, 86, 71},
   {54, 79},
   {68, 70},
   {60, 54},
   {80, 55},
   {82},
   {72, 85},
   {72, 59},
   {77},
   {61, 87},
   {66},
   {78, 62},
   {88, 79},
   {74, 82, 70},
   {66, 69, 71},
   {80, 66},
   {74},
   {68, 77},
   {75},
   {78},
   {73},
   {75, 84},
   {75},
   {84, 78},
   {85, 77},
   {76},
   {91},
   {81},
   {88},
   {90, 84},
   {90},
   {83},
   {83},
   {87},
   {91},
   {89, 87},
   {91},
   {90},
   {89},
   {92},
   {92},
   {92},
   {  } ];

deadline = array2d(1..92, 1..3, [2, 0, 3, 4, 3, 4, 4, 2, 3, 5, 2, 3, 6, 5, 5, 11, 1, 0, 13, 3, 2, 18, 2, 2, 26, 1, 5, 29, 2, 3, 29, 2, 2, 30, 4, 1, 31, 3, 2, 34, 2, 1, 35, 0, 1, 35, 5, 3, 36, 0, 3, 38, 1, 1, 41, 2, 0, 41, 3, 1, 43, 1, 1, 44, 2, 4, 46, 0, 2, 46, 2, 0, 49, 3, 2, 50, 5, 4, 53, 1, 0, 55, 4, 2, 57, 1, 3, 65, 2, 4, 65, 2, 1, 67, 0, 0, 68, 4, 3, 69, 2, 0, 69, 5, 2, 70, 3, 1, 70, 1, 3, 73, 0, 2, 73, 0, 3, 77, 1, 2, 78, 2, 3, 78, 0, 4, 81, 4, 1, 86, 0, 3, 87, 2, 1, 88, 3, 2, 90, 4, 0, 93, 3, 5, 98, 3, 3, 106, 2, 2, 110, 5, 1, 112, 2, 1, 114, 5, 1, 120, 1, 3, 135, 5, 1, 136, 2, 1, 136, 2, 5, 148, 3, 2, 150, 4, 0, 151, 5, 5, 152, 5, 5, 152, 1, 2, 155, 3, 2, 162, 2, 1, 163, 0, 2, 167, 0, 5, 169, 2, 2, 173, 5, 0, 175, 1, 1, 183, 1, 1, 184, 0, 2, 188, 1, 5, 189, 4, 5, 191, 0, 4, 193, 1, 2, 194, 2, 4, 195, 3, 2, 198, 5, 4, 199, 1, 1, 203, 3, 5, 204, 0, 4, 205, 2, 5, 207, 5, 5, 209, 0, 0, 210, 2, 1, 210, 3, 4, 212, 1, 4, 212, 0, 4, 214, 0, 3, 216, 4, 4, 219, 3, 4, 219, 1, 3]);
