n_res = 4;
rc = [ 17, 16, 16, 18 ];
n_tasks = 92;
d = [0, 4, 9, 10, 1, 9, 7, 4, 9, 7, 9, 7, 8, 7, 5, 1, 10, 6, 6, 8, 4, 5, 1, 5, 3, 3, 7, 2, 6, 10, 7, 8, 9, 8, 6, 4, 8, 7, 3, 4, 10, 3, 6, 7, 10, 7, 2, 6, 2, 10, 3, 4, 10, 5, 7, 10, 8, 3, 9, 8, 7, 4, 6, 9, 2, 1, 9, 7, 5, 1, 9, 10, 1, 9, 7, 10, 4, 7, 8, 8, 9, 7, 8, 5, 4, 1, 10, 2, 10, 10, 4, 0];
rr = array2d(1..4, 1..92, [0, 0, 1, 9, 8, 7, 7, 0, 0, 9, 0, 6, 0, 5, 10, 0, 7, 0, 2, 6, 0, 10, 0, 8, 3, 6, 0, 0, 0, 0, 2, 1, 0, 0, 4, 4, 0, 7, 9, 2, 1, 0, 10, 0, 2, 0, 0, 1, 0, 7, 3, 9, 4, 0, 0, 0, 0, 7, 0, 0, 0, 0, 0, 0, 9, 4, 6, 0, 1, 0, 0, 6, 1, 0, 7, 0, 1, 10, 0, 0, 7, 2, 0, 0, 0, 2, 2, 10, 5, 4, 0, 0, 0, 5, 2, 0, 0, 0, 0, 0, 0, 9, 9, 0, 7, 8, 8, 8, 0, 0, 0, 0, 9, 1, 0, 2, 10, 0, 4, 7, 6, 0, 6, 0, 0, 4, 3, 0, 2, 0, 0, 0, 8, 0, 0, 0, 0, 2, 1, 0, 5, 0, 0, 0, 5, 2, 2, 9, 9, 0, 0, 5, 6, 5, 0, 2, 0, 0, 2, 3, 0, 9, 0, 0, 0, 9, 0, 10, 9, 2, 0, 6, 0, 0, 6, 0, 0, 8, 0, 9, 5, 0, 9, 0, 0, 0, 4, 0, 0, 0, 1, 2, 5, 4, 0, 0, 4, 0, 0, 0, 0, 5, 0, 10, 0, 0, 3, 5, 0, 1, 0, 0, 6, 5, 4, 0, 0, 0, 0, 0, 0, 0, 0, 9, 0, 2, 0, 6, 4, 0, 5, 10, 1, 0, 4, 0, 0, 0, 2, 10, 0, 0, 3, 0, 3, 2, 9, 4, 0, 0, 0, 3, 3, 0, 8, 6, 0, 0, 3, 3, 4, 6, 0, 2, 0, 0, 0, 6, 3, 0, 3, 0, 9, 6, 9, 0, 0, 1, 0, 9, 0, 9, 0, 8, 7, 4, 0, 0, 0, 0, 4, 5, 0, 0, 9, 0, 1, 0, 0, 7, 0, 0, 0, 9, 5, 8, 0, 9, 8, 0, 0, 7, 0, 0, 4, 9, 9, 0, 0, 5, 10, 4, 0, 0, 0, 8, 0, 0, 4, 10, 10, 0, 0, 1, 1, 0, 0, 2, 0, 6, 4, 0, 10, 0, 0, 0, 0, 1, 0, 0, 3, 0, 0, 4, 8, 0, 2, 0, 9, 7, 6, 0, 1, 8, 0, 0, 10, 0]);

suc = [
   {2, 3, 4},
   {17, 60, 54},
   {8, 16, 6},
   {64, 29, 5},
   {83, 18, 67},
   {9, 10, 7},
   {67, 68, 79},
   {12, 14, 15},
   {11, 36, 86},
   {48, 81, 58},
   {40, 45, 13},
   {29, 42, 21},
   {56, 26, 55},
   {57, 58, 43},
   {26, 28, 38},
   {32, 28, 22},
   {19, 20, 70},
   {25, 41, 23},
   {24, 84, 23},
   {39, 31},
   {41},
   {66, 47, 23},
   {36, 30},
   {59, 91, 35},
   {72, 34, 27},
   {48, 60},
   {65, 43, 38},
   {41, 37, 29},
   {75, 51, 39},
   {82, 62},
   {52, 68, 47},
   {33, 46, 39},
   {34, 51, 52},
   {66, 43, 71},
   {64, 36, 44},
   {50, 90},
   {56, 49, 44},
   {52, 78},
   {80, 53},
   {58, 54},
   {72, 66, 70},
   {49, 67, 59},
   {50},
   {50, 53},
   {48, 72},
   {63, 71, 47},
   {73, 61, 87},
   {65, 49, 54},
   {69, 63},
   {85, 55},
   {56, 74, 61},
   {73, 57, 62},
   {61, 55},
   {69, 63},
   {89},
   {78},
   {71},
   {65, 60},
   {62, 79},
   {64, 91},
   {82, 79},
   {74},
   {76, 87},
   {88, 85},
   {68, 70},
   {77},
   {77},
   {69},
   {90, 76},
   {78},
   {75, 87},
   {76},
   {74, 75},
   {80},
   {77},
   {82, 91},
   {80, 84},
   {84},
   {81, 83},
   {81},
   {86},
   {89},
   {86},
   {85},
   {89},
   {88},
   {88},
   {90},
   {92},
   {92},
   {92},
   {  } ];

deadline = array2d(1..92, 1..3, [1, 0, 5, 2, 0, 5, 5, 1, 2, 9, 2, 4, 10, 3, 0, 10, 4, 1, 11, 1, 1, 14, 4, 4, 19, 0, 2, 20, 1, 5, 21, 4, 0, 22, 0, 0, 25, 0, 5, 26, 3, 1, 28, 3, 2, 28, 2, 4, 31, 2, 0, 32, 0, 4, 35, 4, 1, 39, 4, 4, 45, 3, 2, 54, 2, 0, 55, 3, 3, 59, 1, 0, 66, 3, 0, 67, 4, 3, 71, 1, 0, 71, 3, 4, 72, 3, 0, 72, 1, 1, 74, 0, 0, 81, 5, 1, 92, 2, 0, 93, 0, 5, 96, 2, 2, 98, 5, 3, 101, 1, 4, 101, 3, 0, 102, 2, 2, 105, 1, 5, 106, 1, 0, 109, 0, 0, 115, 2, 2, 116, 0, 5, 116, 4, 3, 119, 1, 0, 121, 4, 1, 126, 2, 2, 130, 3, 0, 130, 2, 0, 134, 5, 0, 134, 5, 3, 136, 1, 5, 137, 0, 2, 139, 5, 0, 142, 0, 2, 143, 2, 2, 145, 2, 4, 148, 0, 0, 155, 3, 1, 163, 5, 2, 165, 5, 0, 165, 2, 2, 166, 1, 1, 167, 1, 0, 175, 1, 5, 175, 1, 2, 176, 0, 0, 177, 3, 5, 180, 1, 5, 181, 4, 1, 182, 3, 0, 183, 1, 1, 190, 2, 0, 194, 2, 2, 195, 2, 1, 206, 2, 0, 210, 3, 4, 211, 4, 3, 212, 2, 5, 217, 0, 0, 222, 2, 5, 222, 2, 4, 222, 0, 3, 224, 1, 0, 227, 4, 2, 230, 2, 1, 233, 4, 4, 237, 0, 3, 237, 2, 1, 238, 1, 5, 240, 2, 5]);
