n_res = 4;
rc = [ 56, 42, 44, 37 ];
n_tasks = 92;
d = [0, 2, 9, 1, 6, 6, 5, 7, 2, 10, 8, 2, 5, 9, 9, 7, 2, 3, 10, 2, 8, 8, 7, 3, 7, 1, 1, 3, 3, 10, 3, 8, 6, 2, 3, 3, 10, 8, 4, 7, 5, 7, 1, 10, 7, 5, 2, 2, 9, 9, 7, 8, 5, 6, 5, 9, 2, 1, 8, 3, 3, 4, 3, 2, 10, 3, 8, 3, 2, 1, 9, 3, 5, 9, 10, 5, 8, 10, 5, 5, 8, 1, 8, 1, 3, 7, 9, 3, 9, 4, 4, 0];
rr = array2d(1..4, 1..92, [0, 1, 6, 7, 9, 10, 0, 10, 7, 0, 10, 1, 0, 3, 8, 3, 6, 9, 8, 0, 3, 0, 10, 6, 7, 5, 7, 8, 8, 0, 9, 2, 9, 9, 6, 5, 0, 4, 10, 5, 6, 10, 5, 0, 0, 3, 0, 10, 4, 9, 2, 10, 0, 0, 9, 2, 2, 1, 8, 10, 5, 0, 6, 5, 1, 5, 2, 1, 7, 2, 5, 10, 9, 10, 9, 2, 0, 6, 10, 9, 7, 6, 8, 6, 1, 2, 0, 4, 0, 1, 2, 0, 0, 4, 4, 5, 7, 0, 0, 0, 2, 4, 3, 8, 0, 3, 1, 4, 0, 4, 9, 0, 0, 0, 8, 8, 2, 0, 6, 5, 3, 3, 9, 9, 0, 6, 4, 0, 8, 7, 4, 0, 0, 6, 6, 9, 4, 0, 4, 0, 0, 7, 10, 4, 2, 10, 1, 9, 9, 7, 0, 7, 7, 8, 2, 4, 10, 3, 10, 0, 0, 6, 8, 6, 3, 0, 9, 6, 5, 8, 8, 0, 9, 10, 3, 1, 0, 9, 7, 8, 0, 10, 5, 0, 0, 7, 8, 0, 3, 1, 8, 0, 5, 10, 4, 1, 8, 3, 5, 9, 5, 1, 7, 0, 0, 7, 5, 0, 1, 4, 8, 9, 4, 1, 5, 9, 0, 9, 8, 2, 10, 4, 4, 6, 2, 0, 0, 0, 8, 9, 2, 10, 7, 0, 7, 8, 0, 1, 2, 9, 8, 0, 10, 0, 6, 5, 0, 0, 0, 0, 9, 10, 0, 8, 0, 8, 3, 3, 10, 6, 9, 5, 10, 0, 0, 3, 1, 2, 0, 9, 0, 8, 4, 0, 7, 0, 0, 4, 6, 7, 1, 6, 9, 5, 0, 0, 2, 6, 7, 2, 1, 10, 3, 0, 2, 6, 4, 9, 1, 3, 5, 0, 0, 7, 0, 7, 5, 9, 4, 9, 6, 0, 8, 5, 0, 0, 7, 0, 1, 7, 1, 0, 1, 10, 2, 0, 0, 4, 10, 0, 1, 4, 6, 0, 1, 2, 4, 3, 0, 10, 5, 4, 0, 0, 0, 0, 4, 0, 6, 0, 8, 2, 5, 5, 7, 5, 3, 0, 0, 6, 9, 0, 2, 9, 0, 2, 10, 0]);

suc = [
   {2, 3, 4},
   {16, 5, 14},
   {33, 10, 27},
   {75, 6, 47},
   {38, 21, 30},
   {8, 11, 7},
   {9, 60, 87},
   {56, 20},
   {56, 53, 23},
   {64, 66, 91},
   {49, 12, 13},
   {34, 53, 15},
   {25, 18},
   {36, 60, 31},
   {48, 22, 31},
   {17, 19, 20},
   {24, 26, 32},
   {83, 67, 29},
   {41, 49, 39},
   {57},
   {72, 61, 54},
   {86, 39},
   {65, 37, 30},
   {52, 39},
   {43},
   {50, 53, 45},
   {35, 28, 38},
   {88},
   {72, 54},
   {90, 43},
   {32, 57, 44},
   {56, 65},
   {50},
   {48, 51, 55},
   {41, 44, 49},
   {89, 58, 75},
   {40, 61, 45},
   {62, 42, 46},
   {84},
   {69, 46},
   {42, 59, 55},
   {50, 52},
   {45, 63},
   {58, 67, 46},
   {71},
   {72, 59},
   {57, 51, 52},
   {80, 69, 70},
   {66, 69, 54},
   {75, 67, 51},
   {73, 58, 63},
   {64, 65, 60},
   {82},
   {77, 86},
   {61, 78},
   {59, 77, 63},
   {78, 76, 62},
   {64, 80},
   {91},
   {68},
   {68, 62},
   {81, 74},
   {66, 74, 70},
   {83, 79},
   {70},
   {88},
   {82, 68, 79},
   {74, 76, 71},
   {73},
   {71},
   {88},
   {73, 82, 79},
   {76},
   {91},
   {81, 78},
   {81, 77},
   {89},
   {80, 83},
   {85},
   {87},
   {84},
   {84},
   {85, 86},
   {85},
   {90},
   {87},
   {90},
   {89},
   {92},
   {92},
   {92},
   {  } ];

deadline = array2d(1..92, 1..3, [1, 0, 2, 3, 4, 4, 3, 4, 1, 5, 1, 5, 6, 0, 3, 9, 0, 2, 12, 1, 3, 21, 5, 3, 26, 5, 3, 31, 5, 1, 33, 0, 0, 35, 0, 5, 35, 2, 2, 39, 0, 0, 40, 3, 1, 41, 2, 3, 42, 4, 5, 45, 1, 2, 46, 1, 0, 47, 0, 5, 48, 2, 0, 51, 0, 3, 52, 2, 2, 52, 4, 5, 55, 4, 5, 55, 1, 5, 58, 2, 3, 65, 2, 0, 66, 1, 2, 68, 1, 4, 69, 3, 0, 70, 3, 4, 70, 3, 0, 73, 5, 4, 73, 1, 5, 75, 5, 2, 79, 3, 4, 80, 3, 4, 81, 1, 5, 88, 2, 0, 88, 4, 2, 94, 4, 4, 95, 1, 2, 98, 4, 5, 101, 2, 3, 102, 1, 0, 104, 3, 3, 104, 0, 5, 105, 0, 1, 110, 3, 2, 112, 5, 0, 114, 0, 2, 115, 4, 3, 121, 2, 4, 123, 2, 1, 123, 2, 1, 131, 4, 3, 133, 0, 2, 134, 5, 3, 137, 2, 4, 138, 5, 3, 138, 2, 5, 146, 2, 1, 146, 0, 5, 147, 5, 4, 148, 0, 4, 150, 4, 1, 150, 2, 5, 153, 0, 4, 154, 3, 0, 157, 2, 5, 170, 5, 5, 170, 0, 2, 171, 5, 4, 172, 0, 4, 176, 2, 4, 177, 2, 3, 177, 1, 0, 178, 2, 1, 179, 5, 2, 181, 2, 0, 190, 3, 0, 198, 3, 0, 199, 3, 3, 202, 0, 5, 204, 0, 0, 210, 0, 5, 210, 3, 5, 214, 1, 4, 216, 4, 0, 218, 4, 2, 220, 2, 4]);
