n_res = 4;
rc = [ 65, 66, 77, 80 ];
n_tasks = 92;
d = [0, 1, 6, 2, 7, 4, 4, 3, 9, 10, 10, 6, 9, 5, 2, 1, 2, 9, 7, 2, 2, 6, 9, 10, 4, 9, 9, 1, 8, 10, 7, 7, 6, 4, 10, 5, 10, 2, 2, 1, 4, 4, 3, 9, 2, 5, 4, 10, 2, 8, 8, 5, 8, 1, 2, 5, 9, 3, 7, 5, 6, 9, 5, 9, 7, 5, 1, 1, 3, 10, 2, 1, 3, 5, 3, 10, 4, 10, 4, 6, 2, 3, 3, 3, 7, 9, 9, 2, 7, 7, 9, 0];
rr = array2d(1..4, 1..92, [0, 1, 0, 5, 2, 8, 8, 0, 6, 8, 6, 9, 1, 8, 1, 8, 0, 0, 0, 2, 3, 4, 6, 9, 4, 0, 6, 0, 0, 10, 8, 1, 9, 10, 5, 2, 0, 0, 8, 5, 8, 0, 9, 1, 0, 3, 0, 0, 7, 4, 1, 5, 10, 6, 7, 2, 7, 8, 0, 7, 6, 1, 5, 9, 6, 1, 1, 1, 2, 0, 5, 5, 0, 2, 3, 0, 7, 0, 0, 1, 7, 0, 8, 9, 0, 10, 0, 0, 2, 9, 1, 0, 0, 0, 4, 6, 8, 1, 10, 2, 3, 5, 7, 0, 7, 0, 0, 0, 9, 9, 2, 2, 9, 2, 1, 4, 10, 0, 10, 4, 8, 5, 1, 6, 0, 8, 6, 0, 7, 6, 3, 9, 0, 3, 8, 0, 3, 9, 9, 7, 4, 2, 0, 3, 0, 9, 5, 0, 3, 9, 8, 5, 0, 1, 2, 0, 0, 0, 1, 0, 3, 9, 0, 0, 0, 7, 0, 0, 4, 6, 9, 10, 7, 0, 10, 8, 4, 10, 10, 6, 8, 7, 3, 0, 0, 8, 0, 5, 7, 9, 0, 0, 9, 1, 10, 2, 8, 0, 2, 6, 2, 1, 7, 6, 3, 0, 10, 9, 1, 0, 3, 0, 7, 0, 6, 2, 0, 3, 10, 9, 0, 7, 6, 6, 1, 7, 1, 4, 6, 0, 7, 8, 2, 10, 5, 1, 0, 0, 0, 4, 0, 3, 8, 0, 4, 0, 7, 10, 7, 8, 9, 1, 0, 2, 6, 0, 1, 7, 5, 10, 0, 5, 0, 0, 9, 0, 0, 8, 1, 4, 2, 6, 8, 9, 3, 0, 0, 10, 0, 5, 1, 9, 4, 2, 8, 5, 0, 10, 10, 8, 5, 6, 7, 0, 0, 5, 3, 0, 2, 9, 0, 5, 3, 5, 5, 0, 9, 5, 5, 4, 0, 0, 6, 5, 5, 8, 6, 0, 8, 5, 10, 3, 2, 6, 1, 0, 10, 0, 10, 7, 6, 0, 3, 10, 0, 7, 1, 1, 10, 3, 7, 9, 5, 2, 3, 9, 8, 3, 1, 10, 0, 3, 4, 1, 9, 0, 1, 1, 4, 4, 10, 7, 10, 7, 5, 0, 2, 0]);

suc = [
   {2, 3, 4},
   {17, 19, 5},
   {60, 54, 7},
   {87},
   {8, 29, 6},
   {87, 14, 23},
   {9, 11, 12},
   {25},
   {16, 10, 29},
   {33, 18, 15},
   {24, 41, 56},
   {21, 44, 13},
   {61, 79, 47},
   {26, 36, 22},
   {17, 50, 86},
   {40, 45, 31},
   {32, 27, 20},
   {43, 79},
   {58},
   {28, 47},
   {82, 35},
   {64, 49, 42},
   {60, 30},
   {38, 30, 39},
   {34, 35, 53},
   {52, 46, 76},
   {65, 51, 61},
   {81, 75},
   {65, 82, 55},
   {78},
   {69},
   {63},
   {43},
   {56, 67, 37},
   {57, 76, 63},
   {42, 69},
   {70},
   {72, 42, 90},
   {48, 77, 63},
   {49},
   {78},
   {58},
   {89, 53},
   {62},
   {48, 65, 56},
   {91, 59},
   {82},
   {66, 52},
   {57, 77},
   {74},
   {70},
   {68, 55},
   {70},
   {59},
   {72},
   {73, 76, 84},
   {58, 68},
   {62},
   {69},
   {71},
   {81},
   {88},
   {71},
   {83, 67},
   {80, 67},
   {73, 74},
   {85},
   {73, 75},
   {72},
   {81, 84},
   {75},
   {83},
   {86},
   {84, 85, 79},
   {78},
   {77, 86},
   {80, 85},
   {80},
   {83},
   {89},
   {87},
   {88},
   {88},
   {90},
   {90},
   {91},
   {91},
   {89},
   {92},
   {92},
   {92},
   {  } ];

deadline = array2d(1..92, 1..3, [4, 2, 5, 4, 1, 1, 5, 2, 4, 7, 3, 3, 9, 0, 5, 9, 4, 1, 10, 3, 0, 17, 5, 2, 19, 3, 5, 20, 3, 2, 24, 0, 1, 26, 1, 4, 27, 1, 3, 28, 2, 4, 30, 4, 4, 30, 5, 3, 31, 2, 1, 32, 4, 5, 32, 2, 5, 34, 5, 4, 39, 2, 0, 52, 4, 3, 56, 5, 1, 56, 2, 0, 64, 4, 5, 69, 1, 1, 77, 3, 2, 77, 2, 2, 78, 0, 4, 79, 3, 0, 80, 5, 1, 83, 2, 4, 85, 0, 5, 86, 5, 2, 87, 3, 1, 89, 2, 3, 89, 5, 4, 89, 0, 0, 92, 3, 3, 92, 4, 0, 96, 0, 0, 97, 0, 2, 103, 1, 5, 104, 2, 0, 111, 3, 5, 112, 5, 3, 112, 0, 4, 113, 0, 0, 114, 3, 2, 115, 3, 4, 117, 4, 4, 118, 0, 1, 119, 5, 3, 129, 3, 5, 131, 1, 1, 131, 0, 5, 131, 4, 2, 132, 1, 3, 135, 1, 4, 135, 4, 4, 137, 5, 5, 137, 4, 5, 137, 2, 1, 140, 1, 3, 145, 4, 5, 149, 1, 2, 150, 2, 2, 157, 3, 4, 157, 2, 1, 157, 1, 1, 164, 0, 0, 165, 2, 1, 169, 1, 2, 169, 5, 1, 172, 0, 1, 172, 4, 3, 176, 3, 0, 177, 1, 4, 178, 0, 0, 179, 1, 0, 182, 3, 5, 184, 4, 3, 185, 5, 3, 188, 0, 4, 189, 1, 3, 192, 1, 0, 193, 0, 2, 194, 4, 2, 194, 2, 1, 195, 3, 1, 196, 0, 2, 199, 3, 3]);
