n_res = 4;
rc = [ 41, 40, 29, 37 ];
n_tasks = 92;
d = [0, 9, 5, 7, 7, 5, 7, 6, 3, 7, 5, 9, 2, 3, 1, 8, 1, 10, 6, 3, 10, 8, 5, 4, 3, 7, 5, 1, 8, 2, 2, 4, 6, 2, 1, 8, 7, 1, 10, 9, 5, 3, 9, 9, 4, 1, 8, 6, 1, 5, 1, 1, 5, 8, 1, 3, 7, 6, 9, 8, 3, 2, 1, 3, 7, 4, 8, 4, 2, 2, 9, 2, 8, 2, 4, 6, 1, 2, 1, 5, 9, 9, 2, 7, 6, 2, 1, 4, 9, 9, 10, 0];
rr = array2d(1..4, 1..92, [0, 10, 1, 3, 5, 4, 2, 3, 0, 2, 0, 0, 10, 0, 9, 0, 0, 8, 4, 5, 0, 8, 5, 9, 4, 7, 5, 3, 0, 0, 5, 9, 0, 3, 0, 8, 10, 6, 9, 8, 6, 0, 1, 8, 6, 0, 9, 6, 9, 9, 5, 10, 0, 1, 2, 0, 0, 0, 4, 0, 8, 1, 3, 10, 7, 1, 0, 3, 2, 0, 8, 2, 3, 0, 3, 9, 3, 1, 1, 8, 1, 4, 6, 2, 6, 3, 1, 0, 1, 9, 3, 0, 0, 4, 0, 9, 8, 0, 10, 2, 5, 9, 3, 0, 0, 0, 4, 7, 0, 10, 0, 0, 2, 3, 2, 2, 8, 0, 0, 7, 4, 3, 10, 6, 0, 0, 3, 3, 6, 9, 8, 0, 2, 3, 0, 10, 3, 5, 10, 4, 7, 6, 3, 8, 3, 0, 0, 4, 0, 0, 7, 8, 8, 2, 7, 10, 7, 10, 6, 7, 0, 1, 4, 4, 7, 7, 9, 6, 1, 0, 0, 5, 5, 7, 0, 5, 5, 0, 0, 0, 5, 7, 8, 0, 0, 7, 0, 0, 4, 4, 0, 0, 8, 4, 7, 1, 8, 2, 7, 0, 6, 4, 0, 8, 0, 2, 0, 2, 7, 9, 6, 0, 4, 4, 5, 1, 6, 10, 0, 0, 1, 0, 8, 7, 0, 6, 2, 7, 2, 4, 0, 7, 10, 4, 9, 0, 5, 4, 1, 6, 2, 0, 1, 0, 0, 2, 6, 0, 1, 0, 0, 7, 9, 5, 0, 10, 6, 7, 1, 2, 7, 3, 4, 7, 1, 4, 8, 10, 0, 4, 4, 0, 3, 5, 8, 0, 0, 0, 6, 6, 0, 3, 4, 0, 1, 10, 6, 4, 1, 3, 0, 5, 2, 0, 1, 6, 2, 3, 8, 1, 9, 4, 4, 9, 2, 7, 0, 4, 4, 2, 1, 3, 0, 0, 0, 9, 0, 4, 2, 9, 1, 3, 5, 0, 5, 10, 4, 3, 8, 6, 0, 8, 7, 10, 0, 4, 2, 9, 0, 7, 8, 3, 6, 4, 0, 0, 9, 0, 1, 5, 3, 7, 4, 2, 9, 2, 10, 3, 0, 5, 1, 5, 6, 9, 4, 1, 2, 0]);

suc = [
   {2, 3, 4},
   {8},
   {24, 12, 5},
   {57, 34, 19},
   {10, 13, 6},
   {9, 11, 7},
   {18, 36, 44},
   {81, 84},
   {25, 22, 15},
   {16, 17, 56},
   {74, 14},
   {33},
   {49, 20, 30},
   {46},
   {34, 67, 71},
   {40, 28},
   {79},
   {70},
   {32, 74, 21},
   {29, 31},
   {69},
   {85, 23},
   {48, 26},
   {72, 39},
   {45},
   {27},
   {50, 59, 82},
   {35},
   {47},
   {83, 78},
   {64, 66},
   {64, 52, 62},
   {62},
   {79, 38, 55},
   {61, 43, 37},
   {42},
   {47},
   {41, 52, 60},
   {71},
   {57},
   {85},
   {56},
   {73},
   {72},
   {88},
   {51},
   {65, 63},
   {58, 53},
   {86},
   {60},
   {80, 54},
   {90},
   {81},
   {89},
   {66},
   {73, 74},
   {86},
   {77},
   {69},
   {68},
   {80},
   {75},
   {76},
   {84},
   {82},
   {89},
   {77},
   {72},
   {75},
   {90},
   {73, 83},
   {75},
   {76},
   {84},
   {81},
   {91},
   {89},
   {88, 90},
   {85},
   {82},
   {87},
   {83},
   {91},
   {87},
   {86},
   {87},
   {88},
   {91},
   {92},
   {92},
   {92},
   {  } ];

deadline = array2d(1..92, 1..3, [7, 5, 0, 9, 5, 3, 12, 0, 0, 13, 4, 2, 14, 5, 2, 15, 3, 3, 23, 2, 2, 35, 5, 2, 36, 3, 5, 37, 1, 0, 39, 1, 4, 45, 4, 1, 48, 5, 4, 48, 4, 5, 50, 5, 3, 50, 1, 1, 50, 3, 4, 52, 2, 4, 53, 0, 0, 54, 0, 4, 57, 1, 3, 60, 0, 3, 62, 3, 0, 64, 4, 1, 65, 5, 4, 74, 5, 4, 75, 2, 4, 77, 5, 5, 80, 3, 0, 83, 2, 0, 86, 4, 2, 88, 5, 2, 89, 0, 3, 90, 1, 3, 91, 5, 2, 94, 5, 5, 95, 4, 0, 100, 4, 2, 102, 3, 3, 107, 5, 0, 111, 5, 1, 114, 1, 4, 115, 3, 3, 116, 1, 0, 116, 5, 3, 123, 4, 1, 124, 2, 3, 125, 4, 4, 127, 2, 4, 133, 0, 5, 134, 1, 4, 135, 1, 2, 135, 1, 0, 137, 5, 4, 138, 3, 4, 146, 0, 2, 149, 3, 3, 159, 0, 4, 159, 4, 5, 160, 5, 4, 162, 5, 3, 163, 5, 1, 168, 0, 3, 172, 0, 3, 174, 1, 1, 174, 0, 1, 175, 4, 0, 177, 5, 2, 178, 3, 1, 180, 3, 1, 183, 5, 3, 187, 1, 2, 187, 4, 3, 189, 5, 4, 190, 3, 1, 193, 1, 4, 194, 2, 3, 198, 4, 4, 202, 1, 0, 206, 2, 3, 207, 4, 2, 208, 5, 2, 208, 4, 5, 209, 3, 5, 218, 2, 3, 219, 5, 2, 220, 0, 0, 225, 4, 4, 225, 5, 4, 228, 2, 3, 228, 0, 0, 230, 0, 5]);
