n_res = 4;
rc = [ 40, 45, 45, 55 ];
n_tasks = 92;
d = [0, 7, 3, 3, 8, 1, 8, 6, 3, 5, 4, 8, 6, 3, 6, 9, 4, 7, 6, 3, 5, 2, 2, 2, 10, 10, 8, 4, 4, 3, 5, 1, 8, 2, 4, 5, 9, 1, 5, 1, 7, 4, 2, 3, 6, 5, 7, 8, 4, 8, 9, 6, 9, 9, 6, 2, 2, 8, 10, 6, 3, 3, 2, 8, 1, 6, 1, 4, 6, 7, 6, 2, 4, 2, 9, 8, 3, 7, 7, 2, 9, 6, 2, 10, 10, 9, 10, 6, 3, 9, 10, 0];
rr = array2d(1..4, 1..92, [0, 10, 1, 10, 0, 7, 3, 2, 4, 1, 9, 4, 8, 4, 1, 6, 1, 2, 0, 7, 0, 8, 6, 0, 0, 10, 7, 0, 3, 5, 9, 5, 1, 9, 5, 3, 0, 6, 2, 5, 9, 4, 5, 9, 5, 8, 3, 4, 6, 0, 10, 8, 10, 7, 5, 4, 5, 10, 0, 0, 5, 4, 4, 6, 0, 0, 3, 6, 0, 0, 0, 6, 4, 9, 6, 0, 6, 4, 7, 10, 9, 10, 7, 8, 8, 5, 2, 10, 0, 0, 1, 0, 0, 3, 3, 5, 6, 0, 5, 8, 2, 0, 3, 0, 0, 0, 0, 5, 2, 7, 0, 7, 1, 0, 4, 9, 2, 7, 5, 2, 4, 0, 0, 0, 0, 10, 10, 4, 2, 0, 2, 6, 1, 3, 4, 4, 7, 8, 5, 5, 7, 10, 5, 8, 8, 9, 4, 5, 1, 0, 9, 0, 2, 6, 3, 0, 3, 3, 0, 0, 0, 10, 3, 5, 0, 0, 4, 2, 4, 5, 9, 1, 6, 2, 9, 0, 4, 8, 3, 0, 0, 0, 9, 0, 0, 9, 7, 1, 0, 3, 3, 0, 4, 10, 3, 7, 5, 0, 1, 0, 0, 8, 9, 1, 1, 4, 0, 8, 2, 9, 0, 4, 7, 5, 8, 0, 4, 0, 9, 9, 2, 10, 0, 2, 9, 6, 6, 10, 0, 9, 0, 9, 10, 0, 7, 8, 0, 9, 6, 9, 3, 5, 0, 10, 10, 9, 5, 0, 0, 3, 3, 0, 10, 0, 9, 4, 9, 7, 0, 2, 2, 9, 10, 0, 4, 8, 7, 0, 5, 2, 7, 6, 0, 5, 8, 0, 0, 1, 4, 5, 0, 0, 0, 6, 5, 3, 8, 0, 8, 5, 3, 8, 6, 0, 0, 0, 1, 8, 8, 5, 6, 0, 7, 0, 8, 0, 6, 4, 5, 9, 1, 2, 9, 10, 0, 1, 6, 0, 7, 3, 6, 0, 6, 5, 5, 8, 7, 10, 8, 2, 0, 5, 10, 3, 9, 10, 0, 9, 2, 7, 3, 3, 8, 5, 6, 1, 0, 9, 6, 0, 0, 0, 0, 10, 6, 5, 7, 0, 3, 8, 5, 0, 0, 10, 3, 1, 4, 0]);

suc = [
   {2, 3, 4},
   {5, 6, 7},
   {8, 9, 10},
   {67, 20},
   {16, 83, 59},
   {25, 18},
   {25, 33},
   {21},
   {26, 11, 12},
   {45, 13, 14},
   {19, 60, 15},
   {24, 65, 38},
   {17, 28, 41},
   {46, 58, 30},
   {88, 62},
   {73, 53},
   {35, 29},
   {23},
   {50, 22, 79},
   {32, 34},
   {77, 54},
   {44},
   {31},
   {76},
   {74, 27},
   {37, 39},
   {40, 47},
   {80, 57},
   {36, 69},
   {42},
   {72},
   {49},
   {61},
   {69},
   {90},
   {51},
   {63, 55},
   {43},
   {48},
   {42, 91},
   {58},
   {77},
   {70},
   {56},
   {54},
   {82, 75},
   {66, 52, 68},
   {69},
   {88},
   {77},
   {76},
   {67, 78},
   {86},
   {89},
   {65, 57},
   {88},
   {82},
   {64},
   {60},
   {61, 70},
   {64},
   {84},
   {68},
   {85},
   {78},
   {81},
   {73},
   {72, 78, 71},
   {80},
   {74},
   {80, 85},
   {73},
   {87},
   {82},
   {86},
   {81, 84},
   {89},
   {89},
   {85},
   {81},
   {87},
   {91},
   {84},
   {86},
   {90},
   {87},
   {91},
   {90},
   {92},
   {92},
   {92},
   {  } ];

deadline = array2d(1..92, 1..3, [5, 0, 2, 6, 2, 5, 7, 4, 0, 11, 5, 5, 12, 4, 4, 14, 2, 2, 15, 2, 5, 15, 0, 4, 16, 2, 1, 20, 3, 0, 24, 1, 0, 25, 1, 4, 26, 5, 5, 27, 5, 3, 29, 5, 0, 30, 5, 0, 31, 3, 0, 43, 4, 0, 44, 1, 1, 45, 0, 1, 45, 3, 1, 46, 2, 1, 47, 3, 3, 48, 3, 1, 53, 4, 5, 54, 2, 3, 55, 3, 4, 59, 5, 3, 62, 2, 4, 63, 3, 5, 63, 4, 0, 64, 0, 0, 68, 0, 4, 72, 0, 4, 72, 5, 2, 74, 1, 3, 82, 3, 1, 85, 1, 4, 89, 1, 0, 89, 1, 5, 91, 3, 0, 93, 1, 3, 95, 2, 4, 96, 2, 2, 101, 3, 2, 106, 0, 2, 107, 2, 3, 107, 4, 5, 109, 4, 1, 109, 4, 4, 110, 4, 1, 113, 1, 4, 118, 5, 0, 119, 3, 4, 121, 0, 4, 121, 4, 2, 122, 2, 3, 124, 4, 1, 125, 2, 2, 131, 2, 0, 132, 2, 5, 136, 0, 1, 138, 4, 4, 143, 1, 4, 148, 3, 0, 149, 3, 2, 155, 1, 3, 155, 2, 2, 156, 3, 5, 156, 2, 2, 157, 3, 2, 158, 2, 3, 161, 5, 1, 164, 4, 4, 169, 2, 0, 169, 3, 2, 172, 2, 2, 173, 1, 1, 173, 2, 3, 174, 1, 2, 176, 0, 0, 185, 5, 4, 189, 5, 4, 189, 5, 0, 190, 1, 5, 191, 2, 5, 196, 5, 3, 202, 4, 2, 203, 0, 1, 204, 4, 2, 206, 3, 5, 206, 5, 0]);
