n_res = 4;
rc = [ 59, 56, 36, 50 ];
n_tasks = 92;
d = [0, 9, 2, 6, 8, 1, 3, 1, 6, 8, 6, 4, 7, 8, 4, 6, 8, 10, 6, 4, 7, 1, 2, 8, 3, 1, 1, 8, 9, 10, 3, 4, 7, 1, 9, 8, 1, 4, 2, 9, 3, 2, 7, 1, 3, 2, 8, 5, 6, 3, 6, 1, 3, 9, 1, 8, 2, 9, 7, 7, 10, 3, 2, 5, 8, 5, 8, 2, 4, 1, 10, 5, 3, 7, 7, 7, 10, 10, 3, 8, 1, 7, 5, 8, 5, 2, 6, 8, 9, 5, 3, 0];
rr = array2d(1..4, 1..92, [0, 5, 0, 1, 0, 6, 0, 0, 0, 0, 0, 10, 0, 8, 0, 4, 6, 5, 8, 5, 8, 10, 4, 0, 0, 0, 4, 4, 0, 1, 6, 8, 0, 1, 8, 0, 0, 5, 9, 5, 0, 0, 0, 0, 7, 4, 7, 0, 8, 5, 0, 2, 4, 0, 0, 10, 0, 0, 4, 7, 0, 3, 6, 2, 9, 0, 0, 0, 0, 0, 8, 0, 0, 0, 0, 5, 0, 6, 0, 0, 0, 2, 4, 0, 0, 0, 0, 3, 7, 0, 7, 0, 0, 3, 10, 1, 6, 0, 0, 0, 7, 6, 8, 0, 4, 0, 0, 7, 4, 10, 0, 10, 4, 0, 0, 0, 0, 8, 9, 0, 9, 0, 0, 7, 0, 1, 0, 4, 7, 10, 9, 0, 0, 1, 10, 0, 0, 9, 2, 0, 5, 0, 4, 9, 8, 10, 6, 4, 4, 6, 0, 0, 0, 0, 8, 9, 0, 10, 0, 0, 1, 0, 0, 7, 0, 0, 2, 0, 6, 0, 4, 10, 5, 0, 4, 7, 8, 7, 0, 0, 7, 0, 0, 0, 0, 0, 0, 0, 2, 0, 9, 0, 5, 0, 10, 0, 0, 0, 5, 0, 0, 4, 9, 0, 0, 0, 8, 0, 0, 0, 2, 5, 0, 6, 0, 0, 9, 4, 0, 10, 0, 8, 0, 0, 1, 0, 0, 0, 5, 3, 0, 7, 8, 0, 1, 0, 0, 10, 2, 0, 0, 0, 0, 0, 0, 3, 8, 4, 1, 0, 10, 6, 10, 5, 0, 0, 1, 8, 3, 7, 6, 0, 6, 0, 0, 9, 1, 0, 0, 0, 0, 8, 0, 3, 0, 0, 0, 0, 1, 0, 0, 5, 0, 9, 2, 0, 0, 7, 6, 0, 5, 0, 0, 0, 5, 0, 0, 1, 3, 6, 7, 3, 0, 4, 4, 0, 0, 3, 0, 3, 10, 9, 0, 0, 0, 2, 9, 4, 10, 1, 0, 0, 0, 0, 6, 0, 8, 0, 0, 4, 0, 0, 0, 1, 0, 8, 7, 1, 0, 0, 7, 9, 6, 2, 0, 2, 10, 0, 0, 10, 0, 0, 0, 8, 0, 0, 6, 5, 0, 0, 0, 7, 3, 0, 7, 0, 8, 0]);

suc = [
   {2, 3, 4},
   {18, 11, 44},
   {33, 52, 30},
   {61, 36, 5},
   {8, 6, 7},
   {24, 19, 20},
   {42, 59, 21},
   {72, 9, 15},
   {10, 22, 39},
   {32, 17, 12},
   {89, 13, 14},
   {16, 69, 53},
   {64, 28, 45},
   {83, 76},
   {35, 29},
   {42, 83},
   {33, 37},
   {25},
   {56, 57},
   {23},
   {49, 27},
   {48, 82, 43},
   {40, 75},
   {62, 52, 38},
   {26, 45, 38},
   {40, 60},
   {33, 75, 67},
   {54},
   {59, 43, 31},
   {47},
   {34},
   {50},
   {70},
   {66},
   {88, 50},
   {53, 47},
   {43, 76, 55},
   {49},
   {41, 51, 46},
   {71},
   {74},
   {60, 55},
   {56, 81, 66},
   {48},
   {63},
   {87},
   {62},
   {56},
   {58, 54},
   {86, 79},
   {74, 62, 55},
   {64, 78},
   {73, 77},
   {68, 87},
   {81, 66},
   {80},
   {64, 89},
   {67},
   {73, 76, 79},
   {68},
   {65, 67},
   {80},
   {72, 74, 85},
   {73},
   {82, 70},
   {75, 70},
   {71},
   {82, 79},
   {83},
   {77},
   {72, 77},
   {84, 78},
   {87},
   {81},
   {80, 88},
   {85},
   {78},
   {90},
   {90},
   {89},
   {86},
   {84, 85},
   {84},
   {90, 86},
   {88},
   {91},
   {91},
   {91},
   {92},
   {92},
   {92},
   {  } ];

deadline = array2d(1..92, 1..3, [1, 0, 2, 4, 5, 2, 4, 3, 3, 8, 2, 2, 10, 3, 5, 12, 4, 5, 17, 2, 3, 21, 4, 0, 24, 0, 0, 30, 1, 5, 33, 3, 5, 34, 2, 3, 34, 3, 4, 37, 1, 1, 41, 2, 0, 44, 3, 4, 44, 1, 5, 44, 4, 3, 45, 0, 1, 52, 4, 4, 55, 5, 4, 55, 4, 1, 58, 3, 2, 61, 5, 0, 61, 0, 4, 61, 5, 1, 63, 0, 0, 64, 2, 0, 66, 5, 2, 68, 0, 5, 70, 0, 1, 74, 2, 1, 75, 1, 1, 77, 5, 4, 83, 1, 3, 85, 5, 5, 89, 1, 1, 91, 2, 4, 91, 0, 5, 94, 2, 0, 95, 0, 1, 100, 5, 1, 100, 3, 4, 101, 2, 0, 103, 4, 5, 103, 4, 5, 105, 5, 3, 108, 5, 4, 111, 3, 0, 112, 1, 1, 116, 0, 1, 117, 1, 5, 119, 5, 3, 120, 5, 0, 124, 0, 2, 126, 4, 5, 127, 2, 3, 127, 0, 3, 128, 2, 0, 128, 3, 4, 134, 0, 1, 135, 5, 3, 135, 2, 2, 143, 4, 4, 145, 5, 3, 146, 5, 2, 155, 2, 4, 157, 2, 3, 158, 4, 1, 159, 0, 4, 159, 3, 4, 161, 1, 1, 165, 1, 0, 165, 5, 5, 168, 4, 1, 169, 1, 5, 172, 3, 5, 173, 1, 1, 175, 3, 3, 179, 5, 0, 183, 5, 0, 184, 5, 1, 193, 1, 1, 193, 1, 0, 194, 1, 4, 194, 5, 4, 195, 5, 5, 197, 0, 2, 198, 5, 5, 202, 1, 1, 210, 0, 1, 211, 0, 3]);
