n_res = 4;
rc = [ 24, 17, 38, 26 ];
n_tasks = 92;
d = [0, 6, 9, 2, 3, 4, 9, 10, 2, 5, 8, 7, 10, 9, 4, 4, 8, 6, 1, 7, 7, 1, 10, 5, 1, 7, 6, 1, 9, 8, 10, 10, 5, 8, 3, 8, 3, 3, 3, 3, 5, 1, 2, 5, 4, 9, 10, 7, 4, 7, 5, 9, 4, 7, 10, 8, 7, 5, 6, 9, 5, 10, 4, 6, 5, 2, 7, 6, 2, 5, 4, 1, 8, 8, 4, 4, 3, 1, 6, 6, 9, 6, 3, 4, 10, 3, 4, 8, 9, 1, 8, 0];
rr = array2d(1..4, 1..92, [0, 10, 0, 0, 0, 0, 1, 0, 0, 1, 0, 0, 0, 0, 0, 0, 0, 7, 0, 0, 0, 0, 0, 0, 0, 0, 8, 1, 0, 0, 6, 0, 0, 0, 0, 0, 7, 0, 0, 5, 0, 5, 0, 0, 0, 0, 0, 0, 0, 0, 0, 6, 0, 9, 3, 0, 0, 8, 0, 0, 0, 0, 2, 0, 0, 0, 5, 0, 0, 0, 0, 0, 4, 0, 4, 0, 0, 1, 0, 7, 10, 1, 0, 0, 0, 1, 6, 3, 0, 0, 10, 0, 0, 0, 5, 0, 0, 0, 0, 2, 0, 0, 10, 0, 0, 2, 0, 0, 0, 0, 9, 0, 0, 0, 0, 0, 0, 0, 0, 0, 0, 0, 0, 0, 6, 5, 0, 0, 0, 0, 0, 0, 2, 0, 0, 0, 10, 0, 0, 0, 6, 0, 0, 0, 0, 0, 0, 0, 0, 0, 0, 0, 0, 7, 0, 0, 0, 0, 0, 0, 0, 2, 4, 0, 0, 0, 0, 0, 2, 0, 0, 0, 0, 0, 0, 3, 0, 0, 0, 0, 7, 7, 0, 0, 0, 0, 0, 5, 7, 0, 0, 0, 0, 0, 0, 0, 8, 0, 0, 0, 0, 0, 0, 5, 0, 0, 5, 0, 10, 0, 0, 0, 0, 5, 0, 0, 0, 0, 0, 0, 0, 4, 0, 0, 0, 0, 0, 6, 0, 1, 6, 0, 0, 0, 10, 0, 8, 0, 0, 1, 0, 0, 9, 7, 2, 0, 0, 0, 1, 9, 0, 5, 1, 0, 0, 4, 0, 3, 0, 10, 0, 0, 2, 0, 0, 0, 3, 0, 4, 0, 0, 0, 0, 0, 0, 0, 0, 0, 0, 0, 0, 6, 0, 0, 7, 0, 0, 9, 0, 0, 1, 7, 6, 0, 0, 0, 5, 8, 0, 1, 0, 10, 0, 0, 3, 0, 0, 8, 0, 0, 1, 9, 0, 0, 8, 0, 0, 0, 9, 0, 0, 0, 0, 4, 0, 4, 0, 0, 0, 0, 0, 0, 7, 0, 0, 0, 0, 0, 0, 2, 0, 0, 0, 0, 0, 0, 0, 0, 0, 0, 0, 0, 0, 0, 0, 0, 0, 0, 0, 0, 0, 0, 0, 0, 0, 0, 0, 0]);

suc = [
   {2, 3, 4},
   {9, 18, 6},
   {10, 5, 7},
   {16, 11, 14},
   {59, 68, 29},
   {19, 12, 15},
   {8, 26, 53},
   {52, 29, 62},
   {65, 30, 23},
   {25},
   {20, 13, 22},
   {41, 42, 87},
   {17, 38, 33},
   {40, 28, 86},
   {79, 46, 63},
   {80, 28},
   {26, 44, 74},
   {24, 51, 35},
   {41, 27, 21},
   {66, 45},
   {40, 50, 53},
   {73, 55},
   {64, 57, 28},
   {58, 36, 31},
   {32, 83},
   {34, 50, 63},
   {32, 78, 31},
   {48, 43, 87},
   {36, 45, 30},
   {43, 47},
   {60, 86, 39},
   {44, 37},
   {88, 34, 75},
   {59, 69, 62},
   {42, 36, 55},
   {65, 41, 72},
   {49},
   {40, 52, 55},
   {91, 44},
   {56, 42, 54},
   {83, 76},
   {80, 61, 46},
   {81, 66},
   {84},
   {61},
   {48},
   {67, 54, 71},
   {60},
   {52, 53, 71},
   {58, 59, 68},
   {64, 57, 61},
   {58, 74},
   {54},
   {75},
   {91, 62},
   {64, 57, 65},
   {60, 68},
   {66, 86},
   {70},
   {82, 75},
   {73, 69, 63},
   {67},
   {85},
   {72, 74, 67},
   {83, 77, 70},
   {72, 82},
   {70, 79},
   {69, 71},
   {77, 78},
   {80, 78},
   {73, 87},
   {88},
   {76},
   {76},
   {85},
   {77},
   {81, 82, 79},
   {81},
   {90},
   {90, 84},
   {84},
   {85},
   {89},
   {89},
   {91},
   {88},
   {90},
   {89},
   {92},
   {92},
   {92},
   {  } ];

deadline = array2d(1..92, 1..3, [1, 1, 0, 3, 0, 2, 11, 2, 4, 11, 1, 4, 15, 5, 2, 27, 2, 3, 30, 1, 2, 30, 1, 3, 35, 1, 2, 39, 2, 4, 43, 0, 4, 44, 4, 4, 54, 3, 4, 56, 2, 1, 61, 4, 2, 62, 4, 3, 62, 3, 3, 66, 0, 5, 69, 3, 4, 70, 1, 1, 71, 2, 3, 75, 1, 5, 75, 5, 2, 78, 2, 5, 80, 0, 2, 83, 3, 4, 83, 5, 3, 83, 2, 2, 83, 4, 0, 90, 3, 4, 94, 5, 5, 99, 5, 2, 101, 3, 5, 108, 0, 4, 109, 0, 5, 110, 5, 2, 111, 2, 4, 113, 3, 2, 114, 5, 0, 116, 3, 1, 117, 2, 5, 120, 0, 4, 123, 2, 0, 129, 5, 3, 136, 3, 5, 138, 1, 5, 141, 0, 2, 143, 4, 5, 147, 0, 0, 148, 3, 2, 150, 5, 3, 150, 0, 5, 156, 4, 3, 159, 3, 3, 162, 4, 4, 165, 0, 5, 166, 1, 4, 170, 5, 0, 170, 2, 1, 171, 0, 4, 171, 4, 4, 171, 2, 4, 172, 2, 5, 174, 2, 1, 176, 2, 2, 176, 0, 0, 180, 4, 3, 181, 1, 1, 184, 4, 3, 186, 3, 0, 188, 3, 2, 193, 1, 0, 193, 2, 1, 195, 3, 4, 201, 5, 1, 205, 5, 2, 205, 1, 0, 208, 4, 2, 210, 5, 1, 213, 2, 1, 214, 2, 5, 216, 5, 2, 216, 5, 5, 217, 5, 1, 217, 0, 1, 220, 2, 2, 221, 3, 4, 232, 3, 4, 233, 3, 1, 234, 3, 4, 244, 1, 3, 245, 1, 5]);
