n_res = 4;
rc = [ 90, 81, 101, 92 ];
n_tasks = 92;
d = [0, 9, 9, 5, 1, 1, 9, 2, 5, 4, 8, 6, 3, 6, 4, 5, 10, 6, 5, 4, 10, 9, 9, 1, 2, 1, 4, 8, 1, 7, 1, 9, 7, 2, 8, 1, 7, 4, 8, 5, 5, 1, 8, 4, 3, 5, 8, 9, 4, 7, 8, 4, 2, 4, 8, 1, 1, 6, 5, 3, 8, 8, 4, 8, 3, 2, 7, 5, 1, 6, 5, 3, 6, 2, 10, 3, 10, 3, 6, 8, 6, 9, 5, 4, 10, 6, 6, 8, 10, 7, 4, 0];
rr = array2d(1..4, 1..92, [0, 6, 10, 10, 5, 8, 9, 2, 2, 3, 4, 4, 10, 1, 2, 10, 5, 10, 3, 3, 3, 10, 8, 3, 5, 7, 2, 2, 7, 5, 8, 1, 10, 6, 2, 7, 6, 5, 3, 6, 5, 4, 4, 1, 4, 10, 3, 7, 10, 4, 6, 9, 8, 6, 3, 8, 2, 3, 1, 8, 1, 10, 5, 1, 1, 8, 9, 10, 6, 4, 3, 3, 3, 3, 7, 5, 4, 3, 9, 1, 1, 7, 4, 4, 1, 2, 3, 5, 7, 7, 3, 0, 0, 4, 4, 5, 2, 5, 9, 2, 6, 3, 6, 1, 2, 10, 7, 4, 2, 7, 8, 6, 2, 9, 1, 2, 10, 10, 6, 1, 6, 3, 4, 10, 10, 8, 6, 4, 10, 3, 2, 6, 7, 7, 9, 8, 1, 7, 10, 1, 10, 4, 10, 10, 6, 2, 7, 10, 2, 5, 1, 3, 6, 3, 5, 2, 2, 9, 10, 4, 4, 5, 6, 9, 2, 9, 3, 2, 8, 9, 8, 1, 6, 7, 1, 2, 3, 8, 5, 5, 4, 2, 10, 0, 0, 9, 8, 5, 10, 9, 9, 2, 6, 8, 6, 9, 2, 10, 2, 2, 7, 9, 8, 5, 6, 1, 4, 10, 1, 2, 8, 6, 9, 2, 6, 6, 9, 8, 5, 5, 10, 6, 4, 6, 10, 8, 6, 9, 6, 4, 5, 5, 6, 8, 4, 5, 3, 4, 4, 2, 4, 1, 10, 2, 2, 4, 9, 6, 1, 3, 6, 6, 7, 9, 7, 6, 3, 3, 10, 10, 1, 7, 1, 6, 2, 4, 5, 6, 9, 5, 5, 9, 1, 6, 4, 0, 0, 7, 1, 10, 10, 5, 10, 2, 8, 5, 9, 3, 9, 1, 6, 4, 10, 7, 8, 9, 7, 8, 9, 2, 8, 4, 1, 10, 6, 10, 6, 1, 10, 7, 4, 3, 5, 8, 3, 3, 5, 4, 9, 5, 10, 10, 3, 7, 3, 4, 10, 5, 4, 2, 5, 3, 5, 6, 3, 9, 7, 3, 4, 7, 8, 8, 2, 4, 1, 3, 2, 10, 4, 5, 3, 3, 4, 2, 6, 3, 3, 5, 8, 6, 10, 10, 4, 2, 1, 8, 8, 0]);

suc = [
   {2, 3, 4},
   {8, 10, 6},
   {25, 5, 15},
   {24, 90, 79},
   {19, 21, 7},
   {56, 18, 23},
   {9, 61},
   {16, 50, 77},
   {11, 12, 13},
   {34, 59, 22},
   {65, 42, 14},
   {81, 30},
   {48, 64, 20},
   {26, 28, 85},
   {17},
   {56, 67},
   {41, 82, 44},
   {41},
   {73, 47},
   {32, 41, 65},
   {80, 38},
   {29},
   {52, 46},
   {57, 66, 39},
   {27, 37, 31},
   {66},
   {72},
   {88, 49, 36},
   {82, 43, 45},
   {34},
   {40, 33},
   {57, 62},
   {35, 53},
   {88},
   {36, 44, 63},
   {77, 45},
   {63},
   {67, 53},
   {46},
   {49, 44, 69},
   {83, 71},
   {71},
   {60, 84},
   {45, 54},
   {91, 70},
   {51, 55},
   {69, 62},
   {57, 51, 60},
   {89, 67, 76},
   {78},
   {76, 63},
   {58},
   {55},
   {56, 74, 83},
   {64, 68},
   {72},
   {76},
   {84},
   {82, 61, 62},
   {73, 74},
   {68},
   {79},
   {70},
   {73},
   {80},
   {74, 68, 86},
   {90},
   {91, 75, 70},
   {88, 81},
   {71},
   {84},
   {75},
   {81, 77},
   {75},
   {78},
   {86},
   {78},
   {89},
   {80, 85},
   {86},
   {87},
   {83},
   {85},
   {89},
   {87},
   {87},
   {91},
   {90},
   {92},
   {92},
   {92},
   {  } ];

deadline = array2d(1..92, 1..3, [3, 4, 4, 3, 2, 4, 5, 0, 0, 5, 5, 2, 7, 0, 2, 8, 3, 4, 9, 5, 1, 13, 1, 3, 15, 4, 5, 17, 4, 3, 20, 5, 5, 20, 0, 3, 22, 5, 5, 23, 5, 1, 24, 3, 1, 25, 0, 5, 25, 1, 2, 27, 5, 1, 36, 2, 0, 42, 3, 1, 48, 5, 2, 49, 0, 1, 50, 0, 0, 52, 2, 3, 55, 3, 3, 56, 0, 4, 57, 3, 3, 66, 0, 4, 66, 5, 4, 70, 3, 1, 74, 1, 0, 75, 2, 5, 76, 4, 2, 78, 4, 2, 78, 3, 5, 79, 1, 1, 81, 3, 5, 85, 3, 3, 88, 0, 4, 89, 5, 3, 90, 1, 0, 91, 3, 3, 94, 3, 2, 94, 1, 2, 94, 4, 2, 95, 4, 1, 96, 1, 4, 103, 0, 3, 107, 4, 3, 110, 5, 2, 112, 1, 0, 113, 2, 3, 113, 3, 2, 116, 5, 1, 120, 4, 1, 121, 5, 3, 123, 2, 0, 123, 1, 1, 126, 0, 5, 127, 2, 4, 127, 4, 2, 131, 5, 4, 133, 3, 4, 136, 4, 1, 140, 2, 3, 144, 4, 2, 152, 1, 1, 153, 1, 0, 154, 4, 0, 155, 2, 5, 161, 4, 3, 161, 3, 3, 164, 4, 1, 164, 2, 5, 166, 4, 0, 167, 5, 3, 170, 1, 2, 171, 2, 4, 173, 3, 2, 175, 2, 0, 175, 3, 0, 178, 4, 3, 178, 2, 5, 178, 5, 1, 178, 1, 3, 183, 1, 4, 185, 3, 1, 185, 4, 2, 188, 3, 3, 188, 0, 4, 189, 4, 1, 194, 5, 0]);
