n_res = 4;
rc = [ 13, 13, 16, 14 ];
n_tasks = 92;
d = [0, 9, 5, 6, 2, 4, 2, 2, 2, 1, 9, 4, 7, 1, 4, 10, 8, 9, 5, 6, 6, 8, 3, 7, 4, 3, 6, 10, 3, 2, 5, 9, 4, 4, 5, 4, 4, 4, 8, 7, 4, 9, 7, 4, 6, 10, 4, 3, 1, 2, 9, 7, 5, 4, 5, 5, 3, 7, 9, 10, 9, 9, 7, 10, 2, 8, 6, 9, 5, 3, 8, 6, 7, 7, 1, 10, 2, 2, 9, 1, 1, 2, 7, 8, 4, 5, 2, 3, 5, 4, 3, 0];
rr = array2d(1..4, 1..92, [0, 3, 6, 0, 0, 0, 0, 0, 2, 0, 0, 0, 0, 0, 0, 0, 5, 1, 6, 0, 0, 1, 0, 0, 0, 0, 0, 0, 0, 0, 0, 0, 0, 0, 0, 0, 0, 0, 5, 0, 10, 0, 0, 0, 0, 0, 0, 0, 0, 8, 0, 0, 0, 0, 7, 0, 5, 0, 0, 0, 9, 2, 9, 6, 0, 5, 0, 0, 0, 0, 0, 0, 0, 0, 7, 6, 8, 0, 0, 1, 0, 9, 0, 0, 0, 8, 0, 0, 0, 4, 0, 0, 0, 0, 0, 9, 5, 0, 0, 5, 0, 0, 0, 0, 0, 10, 5, 0, 0, 0, 0, 0, 0, 0, 0, 0, 0, 0, 0, 0, 0, 0, 0, 0, 0, 0, 0, 0, 0, 0, 0, 0, 0, 3, 0, 4, 6, 0, 2, 0, 0, 0, 4, 7, 0, 0, 0, 0, 0, 3, 0, 3, 0, 0, 0, 0, 2, 0, 0, 0, 5, 0, 0, 0, 0, 0, 0, 0, 0, 0, 3, 0, 0, 0, 1, 3, 0, 0, 0, 0, 0, 0, 6, 0, 0, 0, 0, 0, 0, 9, 7, 0, 0, 7, 3, 0, 0, 0, 0, 8, 0, 0, 0, 0, 5, 0, 0, 0, 9, 8, 0, 10, 0, 1, 9, 8, 0, 0, 6, 0, 0, 0, 0, 1, 0, 0, 0, 0, 0, 0, 0, 0, 0, 0, 0, 0, 10, 0, 0, 8, 0, 0, 0, 0, 0, 0, 0, 0, 0, 0, 0, 5, 0, 0, 0, 4, 3, 0, 0, 0, 0, 9, 0, 0, 3, 0, 0, 0, 6, 0, 0, 0, 5, 0, 0, 0, 0, 0, 0, 0, 0, 0, 0, 0, 0, 0, 0, 9, 5, 0, 0, 0, 0, 0, 0, 1, 0, 0, 8, 5, 0, 0, 4, 0, 1, 0, 0, 0, 6, 1, 0, 6, 7, 7, 0, 0, 0, 0, 2, 0, 0, 3, 0, 4, 2, 0, 0, 0, 0, 8, 0, 0, 0, 0, 1, 0, 0, 0, 0, 0, 0, 0, 3, 0, 0, 6, 10, 0, 0, 10, 0, 0, 0, 0, 0, 0, 0, 0, 0, 0, 0, 0, 9, 3, 0, 0, 0, 0]);

suc = [
   {2, 3, 4},
   {5, 6, 7},
   {8, 17, 29},
   {18, 43, 28},
   {10, 53, 13},
   {9, 12, 37},
   {28, 55},
   {66, 60, 23},
   {14, 15},
   {24, 11, 44},
   {84, 21, 47},
   {57},
   {16, 23},
   {19},
   {54, 20, 30},
   {38, 35, 22},
   {42},
   {74, 63},
   {40, 27, 45},
   {36, 31},
   {54},
   {25, 52},
   {27},
   {56, 50, 75},
   {26, 34, 58},
   {32},
   {85, 79},
   {33, 68},
   {64, 42, 61},
   {56},
   {73, 41},
   {72, 76},
   {48, 34, 67},
   {61},
   {50},
   {39},
   {72, 51, 70},
   {49, 90, 83},
   {52},
   {82},
   {64, 50, 68},
   {89, 68, 53},
   {46},
   {81},
   {49},
   {53},
   {64, 65, 90},
   {59, 77},
   {80, 77},
   {65, 78},
   {82, 62},
   {80, 65, 55},
   {66, 78},
   {63},
   {57},
   {66, 86},
   {61},
   {69},
   {82},
   {73, 69},
   {69, 62, 79},
   {85, 63},
   {73, 87},
   {88, 67, 77},
   {74, 67, 87},
   {72, 71},
   {71},
   {84},
   {83, 75, 71},
   {75, 76},
   {91},
   {80},
   {81, 78},
   {83, 76},
   {81},
   {79},
   {86},
   {88},
   {86},
   {84},
   {89},
   {85},
   {88},
   {87},
   {90},
   {89},
   {91},
   {91},
   {92},
   {92},
   {92},
   {  } ];

deadline = array2d(1..92, 1..3, [3, 5, 2, 4, 3, 3, 7, 1, 0, 8, 1, 5, 8, 3, 3, 9, 0, 2, 12, 4, 1, 13, 4, 2, 14, 2, 3, 14, 1, 0, 15, 4, 3, 18, 5, 4, 22, 4, 4, 23, 4, 1, 24, 4, 4, 25, 0, 1, 27, 1, 2, 27, 0, 2, 30, 5, 2, 31, 1, 1, 40, 5, 4, 41, 0, 2, 42, 3, 5, 42, 0, 4, 45, 1, 2, 45, 2, 5, 57, 4, 4, 59, 1, 3, 64, 3, 5, 69, 5, 1, 72, 1, 0, 74, 1, 0, 76, 3, 5, 77, 0, 2, 81, 5, 2, 83, 3, 4, 83, 0, 2, 89, 2, 0, 89, 0, 4, 92, 5, 1, 94, 2, 5, 96, 3, 5, 97, 5, 0, 99, 3, 1, 102, 1, 4, 102, 5, 4, 104, 4, 4, 115, 0, 5, 116, 2, 2, 119, 5, 0, 120, 5, 0, 129, 0, 4, 129, 3, 4, 130, 5, 2, 130, 1, 4, 132, 2, 1, 132, 4, 3, 133, 2, 3, 138, 4, 0, 141, 0, 2, 147, 5, 3, 147, 5, 0, 150, 0, 5, 151, 0, 3, 159, 1, 4, 159, 1, 0, 161, 3, 5, 170, 0, 5, 170, 5, 2, 173, 2, 1, 173, 4, 2, 175, 3, 3, 175, 4, 5, 179, 5, 3, 180, 0, 3, 181, 3, 4, 184, 2, 2, 184, 3, 4, 188, 2, 0, 188, 2, 3, 192, 2, 4, 194, 2, 3, 201, 1, 0, 201, 4, 2, 203, 4, 3, 212, 5, 2, 213, 0, 2, 224, 4, 2, 226, 2, 3, 228, 1, 5, 230, 1, 4, 230, 5, 0]);
