n_res = 4;
rc = [ 12, 14, 17, 13 ];
n_tasks = 92;
d = [0, 8, 10, 1, 2, 10, 8, 6, 9, 1, 8, 2, 7, 2, 7, 4, 10, 9, 9, 3, 7, 2, 9, 6, 3, 3, 6, 5, 6, 8, 5, 4, 7, 7, 2, 8, 4, 9, 5, 7, 6, 8, 8, 1, 1, 8, 6, 9, 1, 8, 8, 10, 3, 6, 3, 10, 5, 2, 3, 3, 3, 5, 9, 5, 4, 8, 9, 4, 2, 7, 2, 1, 5, 9, 4, 2, 7, 8, 8, 1, 6, 10, 9, 2, 7, 9, 8, 1, 2, 9, 3, 0];
rr = array2d(1..4, 1..92, [0, 0, 0, 2, 0, 0, 0, 8, 0, 0, 0, 0, 0, 0, 8, 0, 0, 2, 0, 0, 0, 0, 9, 2, 1, 0, 0, 0, 0, 7, 4, 0, 0, 0, 8, 0, 0, 0, 0, 0, 0, 0, 4, 0, 0, 0, 0, 0, 0, 0, 0, 6, 0, 0, 0, 0, 0, 0, 5, 0, 0, 0, 0, 3, 0, 0, 0, 0, 8, 0, 0, 0, 7, 0, 0, 0, 0, 0, 0, 0, 0, 0, 0, 7, 0, 0, 0, 0, 3, 0, 0, 0, 0, 0, 0, 0, 0, 0, 0, 0, 0, 2, 7, 0, 0, 0, 0, 2, 0, 0, 0, 7, 6, 0, 0, 0, 0, 0, 0, 0, 0, 0, 0, 0, 7, 0, 0, 4, 9, 6, 0, 0, 0, 0, 0, 0, 0, 0, 4, 0, 0, 0, 0, 0, 0, 0, 8, 0, 0, 0, 0, 4, 5, 7, 3, 0, 1, 0, 0, 8, 0, 4, 0, 10, 0, 0, 0, 0, 8, 2, 0, 0, 0, 0, 0, 0, 0, 0, 10, 8, 0, 6, 6, 0, 0, 0, 7, 0, 0, 10, 0, 0, 0, 0, 0, 6, 0, 0, 0, 0, 0, 0, 6, 0, 0, 0, 0, 0, 0, 10, 9, 7, 9, 0, 0, 1, 0, 0, 0, 0, 0, 0, 8, 0, 0, 9, 0, 4, 9, 4, 0, 6, 0, 0, 7, 0, 5, 0, 0, 6, 7, 7, 0, 0, 0, 0, 0, 0, 0, 0, 0, 0, 0, 0, 0, 0, 0, 0, 5, 0, 0, 0, 0, 0, 10, 5, 0, 0, 0, 3, 0, 0, 0, 0, 0, 0, 0, 3, 0, 0, 7, 0, 6, 0, 4, 0, 0, 0, 10, 10, 0, 0, 6, 0, 0, 0, 0, 6, 0, 0, 0, 0, 0, 0, 0, 0, 0, 0, 0, 1, 0, 0, 0, 0, 0, 7, 5, 0, 0, 0, 0, 0, 0, 0, 5, 3, 0, 0, 0, 5, 0, 0, 0, 0, 0, 0, 0, 0, 0, 0, 0, 2, 1, 0, 0, 0, 3, 0, 0, 5, 0, 2, 0, 0, 2, 4, 0, 0, 9, 0, 5, 0, 0, 0, 0, 0, 0, 0]);

suc = [
   {2, 3, 4},
   {24, 11},
   {8, 15, 7},
   {19, 5, 6},
   {10, 91, 30},
   {9, 26, 22},
   {27, 23},
   {42},
   {17, 61, 25},
   {52, 13},
   {45, 12, 29},
   {16, 18, 14},
   {83},
   {56},
   {35, 20, 36},
   {38},
   {65},
   {66, 21, 47},
   {71},
   {33, 28},
   {32, 57, 88},
   {63},
   {34, 70},
   {67, 47, 31},
   {70},
   {37, 54, 39},
   {49},
   {41, 77, 63},
   {44},
   {85},
   {82},
   {51, 71},
   {52, 53, 78},
   {73},
   {55},
   {40, 48, 43},
   {61, 46},
   {82},
   {59},
   {63},
   {73, 76, 86},
   {50},
   {77},
   {58},
   {68},
   {90},
   {54},
   {50},
   {68},
   {87},
   {72},
   {61},
   {81},
   {84},
   {62},
   {80, 60, 69},
   {79},
   {59, 76},
   {85},
   {72, 74},
   {74},
   {64},
   {70},
   {75},
   {85},
   {79},
   {86},
   {78},
   {73, 83},
   {72},
   {78},
   {81, 90},
   {90},
   {79},
   {80},
   {83},
   {86},
   {84},
   {87},
   {82},
   {91},
   {89},
   {88},
   {91},
   {87},
   {88},
   {89},
   {89},
   {92},
   {92},
   {92},
   {  } ];

deadline = array2d(1..92, 1..3, [3, 2, 5, 3, 0, 3, 4, 3, 3, 5, 4, 4, 7, 3, 5, 9, 0, 1, 11, 1, 0, 15, 5, 3, 23, 0, 3, 24, 1, 3, 26, 4, 3, 26, 0, 0, 28, 2, 5, 29, 5, 3, 32, 1, 5, 36, 5, 2, 37, 4, 4, 37, 2, 5, 39, 4, 2, 39, 2, 1, 44, 5, 0, 45, 0, 1, 45, 1, 0, 48, 0, 1, 52, 4, 4, 52, 5, 1, 55, 3, 1, 57, 4, 2, 57, 2, 2, 57, 5, 5, 59, 0, 1, 61, 0, 3, 62, 1, 5, 68, 4, 0, 69, 4, 2, 69, 5, 2, 69, 2, 3, 73, 1, 3, 74, 3, 5, 75, 1, 4, 75, 2, 0, 78, 2, 0, 82, 0, 1, 83, 3, 3, 87, 5, 0, 87, 1, 2, 88, 4, 4, 89, 1, 5, 90, 0, 1, 93, 2, 0, 97, 0, 2, 98, 3, 3, 98, 1, 4, 99, 2, 4, 100, 1, 1, 102, 5, 5, 103, 1, 0, 109, 5, 4, 110, 1, 5, 110, 0, 1, 113, 4, 5, 113, 5, 1, 114, 3, 5, 118, 1, 0, 120, 4, 2, 121, 4, 3, 121, 1, 5, 121, 3, 2, 121, 2, 4, 125, 3, 1, 130, 3, 2, 131, 0, 0, 131, 5, 4, 133, 1, 5, 133, 0, 5, 134, 1, 3, 135, 2, 3, 135, 2, 0, 135, 4, 5, 139, 2, 2, 145, 4, 3, 149, 4, 3, 151, 1, 5, 151, 3, 0, 153, 1, 1, 154, 3, 4, 154, 0, 1, 155, 5, 2, 158, 5, 5, 161, 4, 5, 161, 5, 1, 163, 4, 4]);
