n_res = 4;
rc = [ 47, 50, 31, 34 ];
n_tasks = 92;
d = [0, 2, 9, 6, 7, 9, 5, 10, 7, 5, 8, 7, 1, 6, 6, 4, 2, 8, 9, 5, 8, 5, 5, 3, 2, 1, 3, 2, 1, 6, 3, 5, 5, 3, 8, 10, 10, 8, 3, 1, 9, 4, 9, 5, 6, 1, 1, 1, 7, 2, 2, 1, 2, 6, 6, 8, 2, 3, 10, 4, 5, 5, 2, 10, 5, 4, 2, 9, 8, 9, 10, 4, 7, 6, 6, 4, 5, 4, 4, 8, 10, 9, 4, 10, 4, 5, 6, 1, 3, 7, 3, 0];
rr = array2d(1..4, 1..92, [0, 8, 10, 3, 0, 8, 2, 1, 8, 3, 9, 0, 9, 1, 8, 2, 8, 3, 3, 0, 10, 5, 2, 5, 7, 9, 8, 3, 0, 5, 6, 0, 10, 9, 3, 0, 10, 5, 9, 0, 8, 5, 2, 7, 6, 1, 3, 0, 2, 4, 1, 2, 0, 1, 2, 2, 0, 3, 0, 0, 6, 7, 2, 0, 7, 9, 1, 9, 7, 9, 1, 0, 4, 6, 9, 6, 3, 6, 9, 7, 1, 3, 7, 0, 7, 0, 2, 8, 0, 6, 0, 0, 0, 1, 4, 0, 10, 4, 0, 7, 7, 8, 0, 5, 8, 8, 10, 1, 5, 10, 10, 7, 0, 1, 4, 9, 7, 0, 10, 6, 5, 4, 0, 6, 8, 9, 7, 2, 4, 2, 1, 0, 5, 5, 0, 10, 10, 8, 5, 2, 0, 0, 0, 5, 0, 5, 0, 1, 10, 6, 0, 0, 0, 6, 10, 0, 0, 7, 1, 6, 0, 2, 7, 10, 10, 0, 0, 10, 0, 1, 6, 8, 9, 10, 0, 9, 7, 2, 0, 7, 10, 0, 8, 0, 0, 4, 3, 0, 8, 0, 3, 9, 7, 0, 2, 7, 2, 7, 0, 0, 3, 0, 0, 2, 9, 0, 1, 5, 0, 7, 6, 0, 3, 5, 9, 9, 0, 4, 2, 7, 5, 8, 0, 2, 2, 0, 10, 4, 7, 1, 3, 0, 7, 8, 6, 1, 4, 0, 0, 1, 5, 5, 1, 5, 4, 0, 7, 9, 8, 0, 9, 0, 6, 0, 0, 9, 0, 2, 4, 1, 1, 10, 1, 7, 3, 0, 10, 7, 0, 0, 0, 0, 4, 9, 5, 0, 0, 1, 5, 4, 8, 0, 10, 0, 10, 5, 7, 5, 0, 0, 2, 6, 3, 3, 7, 3, 8, 5, 2, 3, 6, 0, 4, 2, 4, 5, 3, 10, 10, 7, 2, 10, 1, 0, 3, 7, 0, 0, 2, 5, 5, 2, 4, 7, 2, 9, 0, 0, 5, 8, 3, 0, 8, 0, 3, 10, 8, 7, 4, 2, 0, 9, 10, 5, 7, 0, 0, 1, 1, 0, 3, 9, 0, 0, 0, 2, 3, 9, 9, 9, 8, 4, 1, 1, 5, 3, 9, 0]);

suc = [
   {2, 3, 4},
   {16, 9, 22},
   {8, 5, 6},
   {18, 21, 15},
   {47, 14, 7},
   {41, 12},
   {17, 28, 13},
   {33, 10, 12},
   {57, 29, 78},
   {19, 11, 55},
   {40, 26, 39},
   {43},
   {24, 34, 29},
   {32, 54, 15},
   {73, 20, 23},
   {91, 51, 47},
   {35, 27, 36},
   {56, 41, 52},
   {25, 83, 30},
   {35, 36, 37},
   {57, 50},
   {25, 29, 55},
   {51, 35, 60},
   {50},
   {48, 68, 45},
   {47},
   {48, 34, 31},
   {59, 79},
   {40, 58, 90},
   {56, 60, 31},
   {49, 54},
   {43, 38, 63},
   {56, 74, 71},
   {66, 52, 77},
   {64, 61, 46},
   {86, 46},
   {57, 43},
   {49, 44},
   {80, 58, 46},
   {72, 88},
   {42},
   {65, 58, 61},
   {50, 68, 62},
   {48, 59, 51},
   {72, 62},
   {49},
   {85},
   {74, 60, 53},
   {90, 69, 70},
   {75, 71},
   {64, 81, 83},
   {64, 67, 76},
   {65},
   {73, 69, 61},
   {59, 70},
   {65, 75, 63},
   {66, 68, 70},
   {69},
   {75, 66, 67},
   {84, 71},
   {74, 62, 63},
   {79},
   {67, 77},
   {85},
   {72},
   {83},
   {80},
   {79},
   {82},
   {88},
   {82, 76},
   {73, 77},
   {81},
   {80, 78},
   {82, 76, 78},
   {88},
   {81},
   {86},
   {89, 84, 87},
   {87},
   {89},
   {87},
   {84},
   {85},
   {86},
   {90},
   {91},
   {89, 91},
   {92},
   {92},
   {92},
   {  } ];

deadline = array2d(1..92, 1..3, [8, 3, 4, 8, 3, 3, 9, 4, 2, 9, 1, 1, 11, 0, 4, 12, 3, 4, 17, 1, 4, 24, 4, 3, 29, 2, 5, 31, 4, 3, 33, 0, 5, 34, 1, 5, 35, 5, 1, 42, 5, 4, 45, 5, 0, 47, 3, 0, 48, 0, 0, 55, 4, 4, 57, 4, 1, 59, 2, 1, 60, 4, 2, 68, 4, 1, 69, 2, 0, 71, 1, 2, 73, 0, 2, 77, 0, 0, 82, 5, 5, 82, 4, 3, 84, 1, 4, 85, 2, 5, 87, 1, 3, 88, 4, 2, 92, 5, 3, 93, 1, 3, 97, 2, 4, 98, 5, 2, 100, 1, 1, 102, 3, 3, 106, 5, 1, 106, 4, 3, 109, 3, 2, 111, 0, 4, 118, 3, 2, 119, 1, 5, 121, 3, 4, 122, 3, 4, 124, 2, 3, 124, 1, 0, 125, 3, 1, 128, 0, 2, 128, 2, 4, 130, 5, 4, 131, 5, 4, 131, 3, 0, 131, 0, 3, 133, 2, 2, 138, 0, 5, 140, 2, 2, 141, 3, 3, 143, 3, 1, 145, 5, 3, 146, 2, 4, 150, 0, 0, 159, 5, 0, 159, 0, 5, 159, 5, 2, 161, 0, 3, 161, 3, 0, 162, 2, 4, 163, 5, 2, 163, 3, 2, 163, 1, 5, 164, 2, 5, 164, 0, 1, 168, 1, 3, 168, 2, 2, 172, 1, 4, 172, 5, 2, 173, 0, 3, 174, 2, 1, 182, 0, 5, 182, 5, 1, 183, 3, 1, 183, 4, 3, 188, 5, 4, 190, 4, 2, 192, 5, 0, 200, 5, 3, 201, 3, 2, 202, 0, 5, 208, 5, 2, 217, 5, 4]);
