n_res = 4;
rc = [ 27, 28, 40, 27 ];
n_tasks = 92;
d = [0, 4, 5, 3, 6, 5, 9, 10, 1, 7, 3, 4, 4, 6, 4, 8, 6, 9, 6, 7, 9, 3, 5, 4, 2, 3, 4, 2, 2, 5, 9, 1, 4, 1, 1, 8, 6, 3, 4, 3, 10, 7, 3, 6, 9, 8, 7, 4, 10, 2, 6, 1, 10, 5, 3, 1, 1, 8, 5, 9, 7, 4, 2, 6, 7, 1, 8, 6, 8, 10, 3, 6, 1, 7, 7, 10, 2, 9, 10, 10, 3, 4, 1, 10, 10, 4, 10, 2, 7, 4, 3, 0];
rr = array2d(1..4, 1..92, [0, 9, 3, 4, 0, 8, 4, 5, 7, 0, 7, 2, 7, 4, 1, 0, 1, 7, 10, 7, 0, 0, 10, 0, 0, 6, 2, 10, 3, 10, 5, 6, 1, 9, 0, 2, 4, 10, 10, 7, 2, 7, 1, 0, 0, 4, 0, 1, 6, 7, 5, 0, 1, 0, 0, 6, 2, 7, 5, 8, 1, 0, 10, 5, 0, 4, 1, 8, 9, 0, 7, 9, 4, 4, 0, 3, 6, 9, 2, 5, 0, 10, 10, 2, 7, 0, 3, 5, 2, 9, 0, 0, 0, 1, 2, 4, 10, 0, 3, 4, 3, 1, 6, 5, 3, 4, 0, 6, 1, 0, 0, 6, 9, 0, 0, 2, 0, 8, 7, 8, 9, 1, 1, 1, 10, 4, 6, 3, 0, 7, 1, 7, 4, 9, 9, 8, 0, 6, 1, 6, 10, 0, 3, 4, 7, 0, 6, 2, 0, 9, 6, 4, 4, 0, 2, 6, 3, 10, 1, 5, 4, 0, 0, 8, 5, 2, 4, 9, 1, 1, 6, 3, 4, 6, 1, 6, 5, 10, 0, 8, 1, 0, 0, 0, 0, 4, 3, 10, 0, 0, 1, 4, 2, 2, 0, 7, 0, 0, 6, 0, 8, 4, 9, 3, 0, 5, 0, 5, 10, 2, 10, 1, 3, 0, 8, 8, 0, 10, 9, 0, 9, 10, 8, 9, 0, 9, 9, 4, 0, 4, 1, 3, 7, 0, 8, 0, 0, 6, 0, 8, 0, 1, 2, 3, 0, 9, 0, 0, 4, 7, 7, 6, 4, 0, 0, 4, 6, 7, 0, 0, 1, 5, 0, 6, 7, 1, 5, 6, 5, 0, 3, 9, 7, 4, 9, 0, 0, 9, 0, 7, 7, 3, 2, 0, 7, 9, 10, 8, 8, 9, 5, 2, 5, 8, 0, 9, 8, 8, 2, 5, 2, 5, 6, 5, 4, 0, 0, 0, 6, 7, 6, 9, 0, 1, 0, 0, 0, 0, 0, 4, 3, 0, 8, 0, 6, 0, 3, 3, 0, 3, 1, 1, 4, 4, 0, 9, 8, 5, 8, 4, 6, 0, 0, 3, 6, 1, 5, 8, 2, 6, 4, 3, 0, 0, 2, 1, 0, 7, 10, 0, 9, 1, 3, 1, 6, 5, 1, 0]);

suc = [
   {2, 3, 4},
   {34, 13, 6},
   {9},
   {50, 12, 5},
   {8, 14, 15},
   {56, 22, 7},
   {53, 23},
   {10, 11, 39},
   {19, 36},
   {81, 61, 31},
   {18, 22, 47},
   {32, 85, 30},
   {52},
   {16, 87, 55},
   {42, 27, 28},
   {24, 17, 46},
   {25, 27},
   {57, 69, 29},
   {66, 20, 21},
   {25, 44, 37},
   {48, 55},
   {43},
   {26, 42},
   {73, 33, 39},
   {51},
   {67, 54},
   {80},
   {52, 68},
   {75, 51, 55},
   {65},
   {41, 42, 45},
   {40, 49, 45},
   {59},
   {35},
   {46},
   {38, 71},
   {73, 60},
   {77, 86, 63},
   {56, 60},
   {58, 74},
   {58, 75, 47},
   {76},
   {64},
   {65, 49},
   {68, 54},
   {61},
   {66},
   {67, 77, 70},
   {64, 90},
   {67, 70},
   {60, 54},
   {53, 62},
   {65, 74},
   {76, 84},
   {71},
   {86},
   {89},
   {82},
   {81},
   {70},
   {85},
   {74, 79, 71},
   {72, 66},
   {84},
   {77, 69},
   {78, 79},
   {68},
   {72, 73},
   {80, 82},
   {91, 78},
   {86},
   {75, 76},
   {91},
   {81},
   {78, 87},
   {80},
   {83},
   {90},
   {83, 85},
   {88},
   {84},
   {89, 83},
   {87},
   {91},
   {89},
   {88},
   {88},
   {90},
   {92},
   {92},
   {92},
   {  } ];

deadline = array2d(1..92, 1..3, [1, 4, 1, 2, 5, 1, 2, 5, 3, 3, 2, 2, 3, 1, 1, 6, 2, 5, 8, 5, 3, 11, 3, 2, 13, 1, 5, 14, 3, 2, 18, 2, 4, 21, 1, 4, 22, 2, 4, 23, 5, 5, 28, 4, 1, 31, 1, 2, 32, 4, 4, 33, 2, 2, 36, 1, 3, 37, 4, 1, 40, 1, 1, 41, 3, 0, 44, 0, 4, 44, 4, 0, 45, 0, 5, 47, 3, 2, 48, 1, 0, 49, 5, 1, 55, 2, 0, 56, 0, 3, 60, 1, 3, 63, 5, 5, 65, 5, 4, 72, 5, 1, 73, 4, 0, 73, 1, 3, 74, 1, 2, 76, 1, 1, 77, 3, 0, 80, 3, 1, 81, 3, 2, 82, 0, 2, 83, 2, 1, 89, 3, 1, 91, 2, 3, 91, 1, 4, 92, 0, 0, 105, 0, 1, 110, 2, 5, 111, 3, 1, 116, 1, 5, 116, 2, 2, 116, 2, 5, 117, 1, 5, 118, 2, 4, 118, 2, 5, 120, 0, 1, 124, 5, 4, 124, 0, 4, 125, 5, 0, 125, 1, 1, 129, 3, 3, 133, 4, 4, 137, 2, 3, 138, 3, 2, 139, 3, 4, 140, 3, 5, 143, 5, 5, 146, 2, 1, 148, 4, 3, 149, 3, 3, 154, 3, 3, 154, 4, 2, 155, 1, 3, 156, 5, 3, 157, 4, 3, 162, 1, 2, 164, 0, 1, 164, 2, 4, 170, 0, 2, 174, 0, 5, 176, 1, 5, 184, 0, 1, 191, 5, 2, 192, 3, 1, 194, 5, 2, 194, 5, 0, 196, 2, 0, 198, 4, 1, 200, 4, 5, 201, 4, 3, 204, 5, 2]);
