n_res = 4;
rc = [ 42, 36, 33, 14 ];
n_tasks = 92;
d = [0, 7, 10, 5, 3, 9, 1, 5, 5, 8, 3, 2, 4, 5, 6, 9, 3, 9, 9, 10, 9, 6, 1, 5, 1, 2, 2, 1, 8, 9, 2, 6, 1, 5, 8, 10, 3, 4, 1, 8, 5, 7, 1, 2, 6, 10, 6, 1, 6, 9, 6, 9, 8, 9, 1, 3, 10, 6, 10, 1, 1, 9, 9, 9, 8, 8, 8, 4, 9, 1, 2, 10, 6, 4, 6, 4, 7, 7, 4, 6, 5, 1, 9, 6, 10, 2, 2, 4, 10, 8, 4, 0];
rr = array2d(1..4, 1..92, [0, 0, 9, 0, 0, 0, 0, 0, 6, 0, 9, 0, 6, 0, 0, 0, 2, 10, 0, 0, 1, 0, 6, 0, 0, 4, 0, 0, 0, 0, 9, 0, 7, 0, 0, 10, 0, 3, 0, 0, 3, 0, 4, 0, 0, 1, 0, 0, 6, 10, 10, 0, 0, 0, 0, 7, 4, 0, 0, 0, 0, 0, 6, 0, 9, 7, 2, 0, 0, 0, 0, 0, 0, 0, 0, 0, 0, 4, 5, 0, 0, 0, 0, 0, 0, 6, 0, 0, 0, 0, 0, 0, 0, 0, 0, 8, 9, 0, 0, 0, 0, 0, 0, 8, 0, 10, 9, 0, 0, 0, 0, 2, 0, 0, 0, 0, 0, 0, 0, 0, 6, 0, 0, 0, 0, 9, 9, 0, 10, 0, 0, 0, 0, 0, 0, 0, 8, 0, 0, 5, 0, 0, 0, 0, 0, 0, 4, 0, 0, 8, 5, 0, 4, 3, 0, 0, 0, 0, 0, 0, 5, 0, 7, 0, 0, 9, 0, 10, 0, 0, 0, 0, 10, 4, 0, 0, 8, 0, 0, 0, 0, 0, 0, 0, 0, 10, 0, 0, 0, 1, 0, 0, 0, 0, 0, 0, 0, 0, 0, 9, 0, 0, 7, 0, 0, 10, 0, 9, 0, 0, 0, 0, 0, 0, 0, 4, 0, 0, 0, 0, 0, 0, 7, 0, 0, 0, 0, 0, 0, 0, 7, 0, 0, 0, 0, 4, 0, 0, 0, 0, 0, 0, 0, 0, 0, 0, 0, 0, 0, 0, 0, 6, 0, 0, 0, 5, 0, 0, 3, 0, 2, 0, 0, 0, 0, 0, 9, 3, 0, 0, 10, 0, 0, 0, 0, 0, 0, 0, 0, 0, 0, 0, 7, 5, 0, 8, 0, 0, 0, 0, 0, 0, 0, 0, 0, 0, 0, 0, 0, 0, 3, 0, 6, 2, 0, 2, 0, 0, 0, 0, 0, 0, 0, 0, 0, 3, 0, 1, 0, 4, 0, 0, 0, 0, 0, 0, 0, 0, 2, 1, 0, 0, 0, 0, 0, 1, 0, 0, 0, 3, 0, 0, 0, 0, 0, 9, 0, 0, 5, 0, 0, 0, 0, 0, 0, 4, 0, 0, 0, 0, 0, 0, 0, 6, 1, 2, 6, 0]);

suc = [
   {2, 3, 4},
   {10, 5, 47},
   {16, 12, 6},
   {11, 28},
   {72, 43, 78},
   {18, 35, 7},
   {8, 82, 13},
   {9, 45, 49},
   {53, 30, 39},
   {32, 64, 29},
   {13, 30},
   {27, 14, 15},
   {17, 26, 25},
   {91, 21},
   {24, 22, 23},
   {66, 70},
   {73},
   {41, 50, 19},
   {40, 57, 20},
   {65, 79},
   {68},
   {83, 68, 62},
   {87, 38, 55},
   {88, 73},
   {80, 58, 54},
   {34, 66, 62},
   {75, 37, 46},
   {30},
   {59, 54, 31},
   {64, 83, 84},
   {50, 37},
   {33, 35},
   {73, 50, 76},
   {53, 45},
   {36},
   {45},
   {40, 42, 72},
   {41, 67, 44},
   {40, 69},
   {56, 58, 78},
   {86},
   {61},
   {52, 71},
   {75},
   {48},
   {69},
   {63},
   {57, 77},
   {60},
   {56, 51},
   {57, 52},
   {86},
   {76},
   {56, 76},
   {65, 63},
   {74, 85, 70},
   {80},
   {60, 71},
   {65, 61},
   {77},
   {81},
   {63},
   {67},
   {67, 71},
   {81},
   {78},
   {72},
   {82, 77},
   {79},
   {84},
   {79},
   {80},
   {91},
   {86, 87},
   {81},
   {83},
   {90, 84},
   {89},
   {88},
   {89},
   {82},
   {85},
   {85, 87},
   {89},
   {88},
   {90},
   {91},
   {90},
   {92},
   {92},
   {92},
   {  } ];

deadline = array2d(1..92, 1..3, [2, 0, 0, 4, 2, 0, 6, 1, 5, 8, 5, 3, 10, 0, 3, 15, 4, 4, 16, 5, 1, 16, 4, 2, 16, 3, 0, 18, 2, 0, 20, 2, 3, 22, 0, 5, 22, 3, 3, 25, 4, 1, 26, 5, 3, 27, 5, 3, 29, 1, 4, 31, 4, 2, 31, 4, 4, 32, 2, 5, 38, 3, 3, 43, 2, 5, 45, 4, 2, 45, 5, 1, 47, 2, 0, 53, 3, 5, 57, 2, 4, 60, 5, 2, 60, 5, 2, 64, 3, 5, 64, 5, 2, 64, 4, 2, 67, 3, 0, 68, 2, 0, 69, 5, 5, 74, 0, 3, 76, 5, 2, 77, 2, 5, 79, 3, 5, 79, 0, 0, 83, 0, 5, 84, 5, 2, 85, 3, 0, 85, 4, 0, 87, 1, 4, 89, 1, 2, 91, 1, 5, 91, 5, 5, 102, 5, 2, 107, 3, 1, 108, 3, 4, 110, 4, 1, 115, 1, 0, 118, 1, 1, 119, 1, 5, 121, 1, 0, 126, 3, 0, 131, 1, 2, 136, 5, 5, 137, 4, 5, 143, 5, 5, 145, 5, 5, 147, 1, 0, 148, 0, 1, 149, 1, 3, 157, 0, 5, 158, 4, 2, 159, 3, 1, 160, 0, 4, 165, 4, 2, 165, 4, 1, 169, 0, 2, 170, 0, 2, 174, 5, 0, 176, 1, 5, 177, 3, 1, 177, 0, 3, 183, 4, 2, 183, 4, 0, 184, 0, 2, 185, 0, 5, 186, 3, 1, 190, 1, 2, 192, 1, 0, 195, 4, 4, 202, 5, 3, 202, 3, 2, 203, 0, 5, 203, 5, 0, 203, 5, 1, 207, 1, 2, 207, 5, 0]);
