n_res = 4;
rc = [ 43, 47, 47, 54 ];
n_tasks = 92;
d = [0, 2, 2, 5, 8, 6, 1, 6, 5, 4, 9, 1, 4, 4, 4, 9, 8, 7, 5, 7, 9, 4, 10, 9, 7, 6, 9, 1, 1, 1, 9, 2, 1, 4, 10, 5, 2, 7, 10, 2, 10, 3, 10, 9, 9, 10, 9, 2, 5, 7, 10, 9, 10, 9, 2, 5, 7, 3, 9, 10, 4, 6, 8, 1, 10, 5, 9, 10, 6, 7, 9, 7, 5, 5, 9, 7, 3, 6, 7, 1, 4, 8, 7, 6, 10, 2, 6, 2, 5, 10, 2, 0];
rr = array2d(1..4, 1..92, [0, 1, 10, 8, 0, 7, 6, 5, 1, 6, 3, 0, 6, 8, 4, 10, 3, 8, 0, 7, 2, 10, 0, 1, 0, 0, 0, 7, 0, 5, 7, 3, 0, 2, 0, 5, 1, 0, 1, 9, 5, 0, 9, 1, 5, 0, 2, 0, 3, 5, 9, 0, 8, 5, 3, 3, 3, 10, 4, 0, 4, 0, 1, 0, 7, 0, 4, 5, 3, 5, 3, 0, 5, 2, 0, 3, 4, 6, 0, 5, 9, 10, 4, 6, 0, 4, 0, 7, 9, 0, 8, 0, 0, 2, 10, 2, 8, 0, 9, 8, 7, 0, 8, 0, 0, 2, 0, 6, 1, 3, 9, 0, 3, 1, 0, 1, 5, 0, 7, 2, 1, 1, 10, 8, 6, 4, 10, 0, 0, 7, 0, 2, 10, 10, 9, 6, 2, 0, 4, 9, 0, 8, 2, 4, 3, 5, 0, 0, 4, 8, 4, 1, 0, 4, 0, 9, 6, 6, 2, 1, 6, 10, 9, 1, 10, 6, 0, 7, 10, 6, 0, 4, 4, 9, 0, 4, 8, 9, 3, 1, 1, 9, 0, 0, 0, 3, 5, 1, 0, 4, 1, 5, 0, 0, 2, 7, 5, 2, 2, 9, 5, 0, 4, 3, 0, 5, 5, 2, 1, 8, 3, 9, 10, 0, 0, 4, 10, 0, 7, 1, 1, 1, 8, 0, 4, 3, 6, 6, 1, 9, 2, 8, 8, 4, 5, 0, 2, 2, 0, 8, 0, 2, 9, 0, 7, 0, 10, 8, 0, 0, 0, 0, 0, 0, 1, 3, 7, 6, 0, 4, 0, 0, 5, 10, 0, 3, 3, 3, 5, 3, 9, 0, 5, 5, 1, 0, 0, 0, 0, 0, 3, 2, 0, 5, 0, 0, 9, 0, 0, 9, 5, 0, 8, 5, 5, 6, 10, 9, 10, 10, 6, 7, 0, 4, 8, 5, 3, 3, 2, 9, 4, 8, 4, 8, 8, 8, 0, 5, 2, 6, 1, 3, 10, 5, 5, 2, 1, 2, 7, 4, 1, 0, 4, 3, 8, 3, 0, 5, 7, 9, 4, 0, 6, 9, 7, 5, 10, 3, 0, 7, 4, 8, 9, 8, 0, 6, 6, 0, 7, 1, 6, 0, 3, 8, 6, 6, 10, 0]);

suc = [
   {2, 3, 4},
   {16, 24, 5},
   {9, 6, 7},
   {17, 10, 21},
   {32, 27, 84},
   {11, 63},
   {8, 19, 23},
   {80},
   {35, 13, 15},
   {12},
   {64, 20, 31},
   {25, 14, 22},
   {91, 59},
   {26},
   {68},
   {61, 69, 37},
   {18, 34, 77},
   {35},
   {43, 28},
   {45, 29, 47},
   {33, 41},
   {76},
   {32},
   {30},
   {49, 83, 53},
   {54},
   {70},
   {52, 39},
   {42, 66, 55},
   {53},
   {88, 50},
   {73, 58},
   {57, 36, 46},
   {37, 38},
   {71},
   {85},
   {40, 68},
   {65},
   {47},
   {87},
   {48, 78},
   {44},
   {74},
   {50},
   {61},
   {56},
   {60, 62},
   {63},
   {51},
   {75},
   {74},
   {53},
   {77},
   {72},
   {58},
   {82},
   {89},
   {72, 65, 90},
   {81, 74},
   {91},
   {62},
   {65},
   {82, 75},
   {67},
   {68},
   {77},
   {70},
   {78},
   {76},
   {79},
   {82},
   {79},
   {85},
   {88},
   {86, 79},
   {87},
   {88},
   {81},
   {91},
   {81, 83},
   {85},
   {84},
   {86},
   {86},
   {87},
   {90},
   {89},
   {90},
   {92},
   {92},
   {92},
   {  } ];

deadline = array2d(1..92, 1..3, [4, 0, 3, 7, 2, 5, 9, 5, 4, 21, 4, 4, 29, 2, 2, 29, 5, 3, 31, 1, 5, 32, 4, 0, 33, 0, 3, 34, 4, 0, 40, 5, 4, 40, 5, 2, 45, 3, 5, 47, 0, 4, 48, 2, 0, 53, 0, 1, 55, 0, 3, 60, 3, 0, 64, 5, 2, 65, 0, 3, 67, 0, 2, 69, 2, 2, 70, 1, 0, 70, 4, 5, 75, 1, 1, 77, 3, 5, 78, 4, 1, 79, 5, 0, 82, 2, 2, 85, 2, 1, 85, 0, 4, 87, 4, 5, 91, 0, 0, 93, 5, 2, 96, 4, 4, 96, 3, 3, 104, 0, 1, 106, 3, 0, 108, 5, 0, 108, 0, 3, 110, 4, 2, 114, 3, 5, 114, 5, 5, 119, 5, 5, 120, 2, 2, 121, 5, 3, 124, 2, 3, 126, 1, 0, 130, 4, 0, 130, 0, 5, 132, 5, 2, 137, 5, 5, 140, 0, 2, 141, 3, 3, 145, 2, 1, 145, 4, 3, 147, 1, 1, 147, 2, 1, 151, 2, 3, 152, 2, 4, 153, 3, 5, 154, 1, 2, 162, 1, 3, 163, 5, 2, 164, 1, 1, 165, 0, 1, 167, 5, 2, 171, 4, 5, 171, 2, 0, 174, 1, 0, 175, 5, 4, 179, 5, 4, 181, 5, 2, 181, 1, 1, 181, 0, 5, 188, 3, 1, 195, 5, 1, 196, 2, 2, 197, 3, 0, 198, 2, 0, 198, 2, 2, 198, 0, 3, 207, 3, 5, 207, 4, 0, 215, 0, 4, 217, 0, 2, 219, 2, 2, 223, 3, 1, 223, 0, 0, 228, 4, 0, 235, 1, 3, 235, 0, 2]);
