n_res = 4;
rc = [ 19, 20, 18, 20 ];
n_tasks = 92;
d = [0, 4, 1, 8, 4, 6, 9, 4, 9, 3, 7, 3, 9, 4, 1, 9, 7, 4, 3, 3, 3, 3, 1, 8, 5, 6, 1, 4, 9, 1, 2, 9, 6, 2, 7, 2, 8, 7, 5, 2, 1, 4, 5, 1, 3, 7, 1, 8, 4, 4, 4, 6, 1, 3, 1, 2, 5, 1, 6, 4, 5, 2, 7, 6, 7, 10, 3, 9, 1, 3, 8, 6, 7, 5, 10, 4, 9, 6, 4, 8, 4, 3, 6, 10, 8, 6, 3, 4, 8, 5, 1, 0];
rr = array2d(1..4, 1..92, [0, 1, 6, 9, 8, 9, 7, 6, 10, 6, 8, 1, 1, 6, 8, 7, 9, 8, 5, 7, 5, 4, 3, 9, 2, 2, 7, 10, 10, 6, 4, 9, 1, 5, 3, 4, 10, 6, 7, 3, 9, 6, 7, 6, 7, 6, 5, 1, 5, 3, 8, 6, 3, 8, 3, 6, 10, 1, 1, 5, 6, 10, 5, 10, 3, 3, 7, 9, 1, 2, 10, 5, 5, 8, 1, 8, 5, 2, 3, 7, 2, 9, 6, 1, 3, 2, 10, 3, 3, 10, 8, 0, 0, 2, 9, 6, 7, 8, 8, 6, 1, 3, 1, 6, 2, 3, 8, 3, 4, 5, 2, 5, 8, 7, 8, 7, 1, 6, 5, 4, 1, 5, 2, 6, 10, 3, 1, 9, 5, 6, 7, 9, 7, 2, 5, 4, 3, 9, 1, 8, 10, 7, 3, 2, 10, 2, 7, 8, 3, 8, 4, 10, 9, 2, 9, 5, 4, 3, 4, 8, 5, 4, 8, 10, 5, 2, 1, 1, 7, 6, 7, 2, 1, 2, 3, 4, 5, 9, 6, 3, 8, 10, 6, 0, 0, 4, 7, 7, 4, 10, 3, 5, 6, 4, 9, 3, 2, 7, 5, 9, 2, 2, 1, 9, 10, 2, 1, 1, 10, 8, 10, 5, 8, 6, 2, 2, 8, 7, 1, 10, 5, 2, 4, 4, 6, 2, 3, 3, 9, 8, 5, 3, 5, 9, 7, 10, 9, 1, 4, 9, 3, 2, 5, 6, 6, 7, 1, 10, 4, 9, 5, 1, 3, 4, 8, 3, 9, 5, 10, 5, 9, 4, 10, 10, 10, 1, 6, 8, 4, 1, 3, 7, 2, 7, 4, 0, 0, 5, 3, 8, 9, 3, 9, 7, 4, 2, 3, 1, 8, 7, 3, 9, 9, 3, 2, 4, 10, 2, 5, 5, 4, 10, 2, 3, 4, 6, 5, 10, 7, 9, 1, 1, 4, 1, 4, 5, 8, 3, 6, 5, 3, 5, 1, 2, 1, 5, 1, 6, 8, 10, 6, 6, 1, 5, 10, 6, 9, 7, 4, 10, 4, 8, 1, 5, 9, 5, 4, 1, 7, 2, 5, 6, 5, 7, 1, 1, 10, 6, 2, 9, 1, 1, 6, 8, 1, 10, 5, 0]);

suc = [
   {2, 3, 4},
   {25, 61, 33},
   {9, 5, 6},
   {28, 20, 13},
   {16, 10, 7},
   {8, 18, 44},
   {12, 14, 30},
   {35},
   {11, 12, 15},
   {17, 58, 15},
   {66, 19, 21},
   {32, 40, 36},
   {48, 42, 22},
   {41, 83},
   {18, 42},
   {43, 36, 60},
   {34, 44, 54},
   {24, 34, 30},
   {31, 39, 23},
   {64, 38, 47},
   {26, 28, 30},
   {62},
   {32, 40, 61},
   {89, 68, 63},
   {32, 41, 69},
   {59, 27},
   {49, 52, 29},
   {46, 72, 38},
   {65, 51, 37},
   {88, 45},
   {33, 47},
   {48, 60},
   {72, 60, 55},
   {43, 52, 61},
   {50, 75},
   {80, 44, 63},
   {41, 42, 53},
   {56, 49, 91},
   {77, 52, 53},
   {80, 47},
   {88, 74, 70},
   {73, 43, 45},
   {57, 46},
   {53},
   {82},
   {67, 62},
   {48, 63},
   {59, 85},
   {50, 55},
   {71},
   {57, 82, 67},
   {56, 65, 80},
   {86, 62, 71},
   {56, 65, 59},
   {77, 71},
   {81},
   {64},
   {68, 79},
   {87},
   {64, 73, 75},
   {72, 67},
   {69, 70, 79},
   {74, 70},
   {76, 77, 78},
   {68, 69},
   {81, 76, 84},
   {75},
   {74, 82, 78},
   {84},
   {78},
   {73, 90, 85},
   {83},
   {84},
   {90},
   {76},
   {79},
   {83},
   {91},
   {85},
   {81},
   {90, 86},
   {91},
   {86},
   {87},
   {88},
   {87},
   {89},
   {89},
   {92},
   {92},
   {92},
   {  } ];

deadline = array2d(1..92, 1..3, [11, 2, 5, 18, 0, 4, 27, 2, 3, 31, 1, 0, 38, 1, 4, 40, 3, 5, 41, 0, 1, 41, 3, 5, 43, 4, 4, 44, 1, 2, 47, 4, 1, 49, 3, 0, 49, 1, 0, 50, 3, 5, 51, 4, 0, 52, 2, 1, 52, 0, 1, 54, 2, 0, 54, 5, 2, 62, 0, 5, 65, 2, 5, 65, 0, 3, 65, 4, 4, 67, 0, 2, 68, 0, 1, 69, 1, 0, 71, 3, 3, 73, 2, 1, 80, 3, 5, 82, 5, 0, 83, 3, 0, 87, 4, 0, 95, 1, 0, 95, 3, 5, 99, 1, 5, 99, 1, 0, 102, 4, 0, 103, 5, 0, 104, 2, 4, 106, 4, 2, 111, 5, 1, 117, 1, 2, 124, 3, 4, 126, 2, 1, 128, 2, 0, 129, 2, 1, 131, 1, 2, 132, 2, 0, 134, 5, 5, 138, 1, 5, 139, 0, 1, 139, 2, 4, 140, 3, 1, 144, 0, 5, 147, 4, 4, 163, 2, 0, 164, 5, 4, 165, 2, 3, 165, 0, 1, 165, 0, 3, 171, 3, 4, 172, 4, 2, 174, 2, 4, 179, 2, 3, 182, 0, 4, 188, 5, 0, 190, 1, 1, 194, 2, 4, 194, 4, 0, 195, 4, 1, 197, 3, 0, 198, 0, 0, 199, 2, 2, 199, 4, 1, 203, 3, 3, 209, 5, 3, 210, 0, 0, 211, 0, 2, 215, 1, 3, 216, 5, 5, 217, 1, 3, 219, 0, 2, 219, 1, 2, 223, 1, 5, 227, 2, 2, 232, 1, 3, 237, 1, 4, 242, 4, 1, 244, 3, 0, 247, 4, 1, 248, 3, 5, 251, 5, 2]);
