n_res = 4;
rc = [ 12, 13, 13, 15 ];
n_tasks = 92;
d = [0, 4, 9, 3, 1, 8, 2, 2, 6, 4, 10, 10, 3, 8, 5, 3, 8, 1, 9, 3, 8, 3, 6, 7, 8, 7, 3, 6, 3, 5, 9, 3, 6, 1, 7, 7, 10, 1, 1, 6, 10, 4, 3, 2, 5, 5, 6, 7, 8, 4, 7, 6, 1, 6, 6, 7, 1, 4, 5, 4, 2, 6, 2, 6, 2, 7, 5, 7, 3, 1, 6, 6, 2, 5, 3, 4, 3, 4, 6, 5, 6, 9, 7, 9, 7, 10, 2, 10, 10, 4, 10, 0];
rr = array2d(1..4, 1..92, [0, 0, 0, 0, 0, 0, 0, 0, 0, 0, 0, 0, 8, 0, 0, 2, 0, 0, 0, 0, 0, 0, 0, 0, 8, 0, 2, 0, 0, 1, 0, 0, 0, 0, 0, 0, 0, 0, 0, 0, 0, 0, 0, 0, 0, 0, 9, 0, 0, 0, 3, 0, 0, 6, 2, 5, 5, 0, 5, 2, 0, 0, 0, 0, 0, 0, 0, 0, 0, 10, 0, 0, 4, 0, 1, 2, 0, 2, 0, 0, 0, 2, 0, 0, 0, 0, 7, 7, 0, 6, 6, 0, 0, 0, 0, 3, 0, 9, 0, 0, 8, 0, 0, 0, 0, 0, 0, 0, 0, 0, 0, 0, 0, 8, 0, 0, 0, 0, 0, 6, 0, 0, 0, 10, 10, 0, 0, 0, 0, 9, 0, 5, 1, 9, 0, 0, 0, 0, 0, 7, 0, 0, 0, 3, 2, 0, 0, 0, 0, 0, 0, 0, 8, 1, 4, 8, 0, 0, 0, 10, 0, 0, 0, 0, 0, 0, 0, 0, 5, 0, 5, 0, 4, 0, 4, 0, 0, 0, 0, 0, 0, 0, 0, 0, 0, 6, 8, 0, 2, 0, 3, 0, 0, 0, 0, 8, 0, 0, 8, 0, 6, 1, 0, 2, 0, 0, 0, 0, 0, 9, 0, 0, 10, 0, 10, 0, 0, 0, 6, 2, 0, 0, 0, 0, 0, 0, 6, 0, 0, 5, 0, 0, 0, 0, 0, 0, 0, 0, 0, 0, 0, 0, 0, 0, 0, 0, 0, 0, 0, 0, 0, 0, 7, 0, 0, 6, 0, 0, 0, 0, 0, 0, 0, 8, 0, 0, 0, 0, 6, 1, 0, 0, 0, 0, 0, 0, 0, 0, 0, 0, 0, 0, 0, 9, 0, 8, 7, 0, 0, 5, 0, 0, 0, 0, 6, 0, 8, 0, 2, 3, 0, 0, 0, 0, 0, 0, 0, 0, 0, 9, 0, 0, 8, 0, 1, 0, 0, 0, 0, 6, 10, 0, 0, 0, 6, 10, 0, 0, 0, 0, 0, 0, 0, 10, 0, 0, 0, 0, 0, 0, 1, 5, 8, 0, 0, 0, 8, 0, 0, 4, 0, 0, 0, 0, 0, 0, 0, 0, 0, 10, 0, 0, 0, 0, 2, 0, 0, 0]);

suc = [
   {2, 3, 4},
   {8, 16, 5},
   {27, 6, 7},
   {36, 13, 15},
   {67, 54, 71},
   {17, 11, 41},
   {9, 20, 25},
   {32, 19, 79},
   {24, 10, 22},
   {40, 49, 57},
   {12, 14, 76},
   {52, 30, 39},
   {33, 26, 21},
   {18, 43, 42},
   {56, 29},
   {17, 29, 23},
   {60, 46},
   {35, 22, 23},
   {41, 46},
   {50, 47},
   {88, 75, 27},
   {50, 28, 85},
   {66, 52, 69},
   {67, 53, 55},
   {38},
   {41, 31},
   {65, 43},
   {40, 57, 48},
   {51, 44, 39},
   {34, 84, 37},
   {64, 72, 35},
   {42, 36, 52},
   {56, 65, 63},
   {83},
   {56, 63, 55},
   {59, 44, 39},
   {85},
   {57, 69, 45},
   {49},
   {71, 63},
   {45, 54, 55},
   {82, 51, 45},
   {64},
   {62, 58, 46},
   {58, 85},
   {81, 68, 54},
   {75, 62},
   {49, 53},
   {73, 61},
   {51, 53},
   {58, 59},
   {59, 70},
   {72, 65, 60},
   {74},
   {73, 60},
   {73, 61, 78},
   {61, 78},
   {80, 89},
   {64},
   {68},
   {66, 62},
   {82, 71},
   {81, 66, 69},
   {90, 77},
   {78, 77, 70},
   {68},
   {72, 76},
   {75, 70},
   {87},
   {83, 86},
   {77},
   {80, 79},
   {91},
   {76},
   {82},
   {80, 89},
   {84},
   {79},
   {81, 84},
   {88, 86},
   {91, 83},
   {87},
   {90},
   {86, 87},
   {88},
   {91},
   {89},
   {90},
   {92},
   {92},
   {92},
   {  } ];

deadline = array2d(1..92, 1..3, [3, 0, 2, 6, 4, 2, 7, 0, 5, 9, 2, 5, 16, 2, 5, 16, 2, 0, 25, 4, 4, 29, 5, 3, 36, 5, 3, 39, 1, 1, 41, 0, 0, 41, 0, 3, 41, 4, 2, 44, 2, 3, 45, 3, 0, 47, 5, 2, 51, 5, 4, 56, 0, 4, 56, 0, 0, 60, 5, 3, 62, 0, 5, 68, 4, 4, 70, 3, 2, 70, 2, 5, 74, 0, 5, 75, 2, 3, 76, 3, 1, 78, 3, 3, 94, 5, 4, 94, 5, 5, 98, 2, 4, 99, 2, 2, 100, 0, 3, 102, 2, 4, 106, 0, 4, 111, 5, 2, 112, 5, 1, 112, 3, 2, 114, 1, 0, 117, 5, 4, 118, 4, 3, 120, 2, 5, 125, 3, 5, 132, 0, 0, 132, 0, 0, 135, 0, 3, 137, 3, 4, 139, 2, 2, 140, 2, 3, 143, 5, 2, 143, 3, 1, 145, 0, 5, 147, 1, 5, 149, 0, 1, 154, 5, 0, 155, 0, 1, 162, 0, 3, 163, 2, 4, 164, 2, 4, 173, 5, 5, 175, 2, 2, 177, 2, 0, 178, 4, 5, 181, 5, 1, 188, 1, 0, 189, 4, 0, 191, 1, 5, 196, 4, 3, 200, 3, 0, 201, 5, 3, 204, 1, 5, 208, 1, 5, 209, 4, 2, 210, 2, 5, 212, 2, 4, 214, 3, 3, 220, 3, 0, 222, 2, 3, 225, 4, 0, 229, 2, 3, 229, 0, 0, 234, 0, 3, 236, 3, 3, 240, 1, 0, 241, 3, 0, 247, 5, 2, 253, 2, 5, 258, 0, 2, 260, 0, 3, 263, 0, 3, 263, 2, 2, 264, 0, 3]);
