n_res = 4;
rc = [ 24, 14, 29, 20 ];
n_tasks = 92;
d = [0, 9, 10, 5, 4, 2, 1, 4, 9, 4, 6, 10, 8, 8, 6, 6, 6, 8, 3, 2, 3, 8, 3, 9, 5, 10, 7, 8, 9, 1, 8, 10, 3, 8, 9, 9, 5, 3, 1, 4, 8, 1, 9, 4, 4, 5, 3, 3, 7, 2, 9, 1, 9, 2, 10, 5, 5, 9, 7, 10, 3, 7, 10, 6, 5, 6, 8, 5, 4, 8, 1, 1, 1, 8, 3, 4, 9, 4, 1, 9, 5, 3, 10, 9, 1, 10, 5, 6, 5, 7, 8, 0];
rr = array2d(1..4, 1..92, [0, 0, 0, 0, 0, 0, 0, 0, 0, 9, 0, 0, 0, 5, 0, 0, 0, 4, 0, 0, 0, 1, 7, 2, 0, 0, 0, 0, 2, 0, 0, 5, 0, 0, 0, 0, 0, 4, 0, 0, 0, 0, 9, 0, 0, 0, 0, 9, 0, 0, 7, 10, 0, 2, 0, 5, 0, 0, 0, 0, 3, 0, 0, 0, 8, 0, 0, 0, 0, 0, 5, 5, 0, 0, 0, 0, 0, 0, 0, 0, 0, 0, 0, 0, 0, 0, 0, 0, 5, 0, 5, 0, 0, 0, 0, 7, 0, 1, 10, 0, 0, 0, 0, 0, 0, 0, 0, 0, 2, 0, 6, 0, 1, 0, 0, 0, 0, 0, 2, 0, 0, 9, 0, 0, 8, 0, 0, 5, 0, 0, 0, 0, 0, 0, 0, 0, 0, 6, 0, 0, 0, 0, 0, 0, 0, 0, 0, 0, 0, 0, 0, 0, 0, 0, 0, 0, 0, 0, 0, 0, 0, 0, 0, 0, 0, 0, 0, 0, 6, 6, 5, 9, 7, 3, 0, 0, 2, 0, 9, 0, 0, 0, 0, 0, 0, 6, 7, 0, 0, 0, 0, 9, 8, 0, 6, 8, 1, 0, 7, 9, 0, 0, 0, 10, 0, 0, 0, 0, 0, 0, 0, 0, 0, 0, 7, 0, 0, 1, 6, 0, 0, 0, 0, 0, 5, 10, 0, 2, 0, 0, 0, 0, 8, 7, 0, 0, 1, 0, 0, 0, 8, 8, 9, 8, 0, 0, 0, 9, 0, 0, 0, 0, 0, 10, 0, 0, 0, 3, 0, 8, 0, 0, 0, 0, 0, 0, 1, 6, 0, 2, 0, 0, 0, 2, 0, 0, 0, 0, 0, 0, 6, 0, 0, 0, 0, 0, 0, 0, 0, 0, 0, 0, 0, 0, 0, 0, 0, 0, 0, 0, 7, 7, 0, 10, 0, 0, 0, 0, 0, 0, 0, 0, 2, 0, 4, 10, 0, 0, 0, 0, 4, 0, 7, 0, 0, 0, 0, 0, 0, 0, 3, 0, 0, 0, 0, 0, 0, 9, 5, 0, 0, 8, 8, 4, 2, 0, 0, 0, 7, 0, 7, 0, 0, 0, 0, 0, 0, 0, 0, 0, 0, 0, 0, 8, 0, 0, 0, 0]);

suc = [
   {2, 3, 4},
   {9, 26, 19},
   {32, 11, 5},
   {15, 6, 7},
   {8},
   {76, 38},
   {14, 23},
   {10, 20, 23},
   {24, 18, 13},
   {40},
   {16, 12, 61},
   {30},
   {17, 29},
   {33, 35, 22},
   {21},
   {44, 46},
   {60, 62},
   {25, 50, 47},
   {27},
   {80},
   {59, 75, 27},
   {64, 34},
   {28, 71},
   {42},
   {81, 58},
   {63},
   {28},
   {31},
   {74, 53},
   {31},
   {36},
   {41},
   {51, 39},
   {73, 43, 37},
   {41, 87},
   {88},
   {56},
   {82},
   {70},
   {46},
   {62},
   {48, 49},
   {45, 54},
   {52, 63},
   {67},
   {57},
   {75},
   {83, 59},
   {69, 55},
   {52},
   {65},
   {66, 79},
   {54},
   {83},
   {83, 67},
   {62},
   {77},
   {68, 78},
   {79},
   {72, 75},
   {85},
   {72, 66},
   {79},
   {91},
   {86},
   {68},
   {81},
   {90},
   {70},
   {84, 78},
   {84},
   {91},
   {74},
   {76},
   {76, 84},
   {85, 78},
   {80},
   {86},
   {89},
   {85, 87},
   {87},
   {90},
   {86},
   {88},
   {89},
   {88},
   {89},
   {90},
   {92},
   {92},
   {92},
   {  } ];

deadline = array2d(1..92, 1..3, [1, 4, 0, 1, 2, 1, 1, 5, 4, 6, 5, 2, 9, 5, 3, 14, 1, 3, 15, 3, 4, 17, 5, 0, 17, 4, 0, 18, 5, 5, 21, 0, 3, 25, 1, 4, 28, 2, 0, 33, 3, 0, 35, 2, 3, 36, 2, 5, 38, 0, 4, 40, 3, 1, 42, 3, 4, 47, 0, 0, 49, 4, 3, 49, 0, 2, 53, 1, 2, 56, 4, 4, 56, 1, 4, 57, 0, 2, 63, 0, 5, 64, 2, 5, 64, 4, 1, 65, 2, 4, 66, 1, 0, 68, 3, 0, 69, 0, 4, 70, 3, 0, 72, 5, 2, 73, 3, 3, 73, 4, 5, 74, 1, 1, 79, 5, 5, 80, 5, 3, 84, 4, 2, 86, 5, 2, 87, 5, 5, 90, 1, 3, 92, 2, 1, 97, 0, 0, 101, 2, 2, 104, 2, 3, 105, 0, 5, 107, 2, 4, 109, 5, 5, 109, 5, 5, 113, 2, 0, 114, 5, 5, 115, 2, 2, 122, 5, 2, 133, 0, 1, 135, 5, 2, 136, 0, 2, 136, 2, 5, 139, 1, 1, 141, 0, 2, 143, 1, 3, 145, 0, 5, 145, 5, 1, 146, 5, 1, 147, 3, 1, 149, 3, 0, 154, 5, 3, 154, 3, 4, 155, 4, 5, 157, 0, 2, 159, 4, 4, 160, 5, 3, 162, 4, 5, 164, 0, 5, 166, 2, 2, 167, 0, 4, 175, 1, 0, 175, 1, 4, 179, 0, 1, 180, 5, 2, 180, 3, 1, 181, 5, 5, 182, 0, 3, 186, 5, 5, 186, 3, 4, 188, 3, 5, 192, 1, 1, 192, 2, 4, 193, 4, 4, 194, 0, 3]);
