n_res = 4;
rc = [ 75, 75, 73, 66 ];
n_tasks = 92;
d = [0, 7, 6, 5, 2, 7, 4, 6, 9, 7, 9, 5, 6, 4, 1, 4, 4, 9, 6, 4, 1, 3, 5, 1, 7, 3, 10, 7, 5, 3, 10, 1, 5, 2, 9, 9, 1, 2, 3, 7, 1, 10, 6, 2, 4, 3, 1, 3, 7, 7, 7, 10, 9, 8, 5, 6, 10, 3, 1, 10, 8, 5, 1, 1, 10, 4, 8, 6, 6, 6, 8, 4, 8, 8, 9, 4, 4, 2, 8, 2, 3, 7, 10, 10, 10, 5, 9, 4, 7, 4, 5, 0];
rr = array2d(1..4, 1..92, [0, 1, 8, 9, 10, 5, 1, 3, 5, 8, 3, 10, 1, 8, 9, 8, 9, 7, 9, 5, 9, 10, 4, 1, 6, 9, 5, 7, 6, 2, 6, 9, 9, 2, 6, 4, 7, 9, 9, 6, 1, 9, 2, 2, 10, 9, 5, 10, 5, 8, 3, 10, 4, 8, 9, 6, 10, 1, 10, 8, 5, 2, 5, 4, 10, 2, 4, 6, 2, 1, 6, 3, 4, 9, 10, 5, 2, 4, 10, 2, 7, 7, 4, 9, 4, 6, 1, 2, 2, 1, 7, 0, 0, 9, 5, 10, 7, 7, 6, 1, 8, 1, 10, 1, 1, 10, 3, 6, 10, 10, 7, 2, 8, 5, 4, 1, 4, 5, 5, 7, 1, 8, 5, 6, 5, 9, 5, 4, 10, 2, 3, 1, 2, 2, 2, 9, 5, 5, 1, 7, 10, 10, 7, 9, 7, 4, 9, 10, 3, 8, 9, 4, 3, 3, 2, 7, 4, 4, 9, 2, 5, 5, 1, 6, 10, 9, 10, 9, 3, 1, 2, 10, 3, 10, 2, 7, 7, 2, 5, 3, 8, 3, 8, 0, 0, 4, 2, 4, 5, 2, 6, 1, 9, 10, 5, 7, 6, 8, 9, 10, 4, 3, 2, 7, 3, 9, 10, 2, 10, 4, 5, 10, 3, 6, 8, 3, 10, 3, 4, 2, 10, 6, 1, 6, 3, 9, 2, 8, 9, 9, 9, 1, 5, 4, 10, 9, 1, 5, 5, 5, 10, 6, 5, 6, 3, 8, 7, 4, 3, 10, 6, 10, 6, 10, 5, 9, 8, 6, 1, 6, 9, 9, 4, 1, 5, 2, 10, 6, 2, 5, 8, 8, 9, 3, 9, 0, 0, 2, 9, 9, 4, 2, 1, 2, 1, 10, 3, 4, 4, 10, 4, 9, 4, 2, 7, 10, 8, 1, 1, 8, 3, 1, 4, 3, 2, 3, 3, 7, 9, 3, 4, 2, 6, 6, 7, 5, 1, 3, 6, 9, 2, 10, 3, 8, 7, 6, 3, 3, 1, 3, 7, 2, 9, 3, 4, 3, 1, 7, 5, 9, 7, 10, 6, 4, 3, 10, 7, 8, 7, 10, 6, 4, 9, 6, 4, 3, 5, 9, 7, 8, 7, 3, 9, 1, 5, 5, 1, 0]);

suc = [
   {2, 3, 4},
   {10, 13, 5},
   {42, 20, 68},
   {40, 14, 23},
   {11, 6, 7},
   {81, 75},
   {8, 9, 15},
   {50, 82},
   {18, 12, 36},
   {16, 19},
   {51, 27},
   {26},
   {17, 35, 21},
   {35},
   {28, 30},
   {37},
   {24, 59, 22},
   {26},
   {91, 62, 39},
   {34, 58, 45},
   {26},
   {38, 55},
   {86},
   {25, 29},
   {49, 57, 55},
   {33, 44, 31},
   {79},
   {73},
   {32},
   {56, 86},
   {60, 84},
   {66},
   {88, 41},
   {73},
   {56},
   {43, 46},
   {66},
   {71},
   {80, 47},
   {65},
   {48, 53},
   {75, 76},
   {45},
   {67, 52},
   {74},
   {50},
   {56},
   {63},
   {60, 61, 54},
   {66},
   {52, 55},
   {75},
   {78},
   {82},
   {61},
   {69},
   {68},
   {83},
   {64},
   {72},
   {77},
   {64, 83, 86},
   {65},
   {89, 76},
   {80},
   {70},
   {70},
   {71},
   {71},
   {89},
   {87},
   {88},
   {90},
   {85},
   {80},
   {81},
   {78},
   {87},
   {91},
   {87},
   {82},
   {84},
   {85},
   {85},
   {90},
   {90},
   {89},
   {91},
   {92},
   {92},
   {92},
   {  } ];

deadline = array2d(1..92, 1..3, [1, 5, 5, 3, 1, 4, 3, 1, 5, 4, 1, 1, 6, 0, 3, 6, 4, 4, 11, 3, 4, 13, 1, 5, 14, 3, 1, 16, 3, 3, 16, 2, 3, 18, 3, 3, 19, 1, 5, 19, 1, 0, 22, 4, 2, 23, 3, 5, 24, 0, 2, 24, 1, 0, 24, 5, 1, 27, 5, 3, 30, 5, 1, 33, 4, 0, 40, 2, 3, 40, 0, 3, 41, 1, 2, 43, 0, 4, 44, 2, 3, 45, 5, 1, 47, 1, 2, 48, 0, 0, 52, 3, 5, 53, 4, 3, 54, 2, 4, 55, 4, 3, 55, 1, 3, 56, 0, 4, 58, 3, 3, 66, 1, 0, 66, 3, 4, 68, 0, 3, 72, 1, 4, 73, 1, 5, 77, 2, 5, 82, 3, 3, 83, 5, 4, 84, 4, 3, 85, 0, 2, 87, 2, 2, 87, 0, 3, 92, 1, 3, 101, 0, 0, 101, 3, 4, 102, 3, 3, 103, 5, 0, 104, 5, 3, 104, 5, 5, 110, 2, 2, 112, 2, 3, 113, 0, 2, 118, 5, 4, 119, 3, 2, 120, 1, 1, 122, 2, 1, 126, 0, 0, 128, 5, 3, 131, 3, 2, 133, 5, 3, 134, 1, 5, 138, 0, 4, 139, 5, 3, 139, 1, 4, 147, 1, 2, 148, 0, 1, 152, 4, 2, 153, 0, 4, 153, 5, 3, 156, 3, 3, 158, 3, 0, 162, 3, 2, 163, 4, 1, 163, 3, 5, 163, 2, 5, 164, 2, 4, 164, 3, 3, 165, 4, 5, 165, 5, 4, 168, 5, 5, 170, 4, 3, 175, 3, 5, 178, 0, 2, 180, 5, 3, 181, 4, 1]);
