n_res = 4;
rc = [ 45, 40, 46, 46 ];
n_tasks = 92;
d = [0, 8, 4, 8, 1, 1, 5, 7, 2, 10, 7, 6, 5, 10, 7, 4, 6, 3, 4, 9, 1, 2, 9, 4, 10, 4, 8, 1, 5, 6, 3, 10, 2, 5, 1, 4, 1, 2, 2, 10, 1, 1, 2, 5, 8, 6, 2, 9, 10, 7, 6, 4, 3, 3, 1, 2, 9, 8, 10, 10, 5, 10, 4, 4, 7, 2, 9, 10, 7, 6, 7, 10, 1, 1, 5, 9, 2, 1, 8, 4, 7, 8, 9, 9, 10, 3, 3, 8, 10, 4, 1, 0];
rr = array2d(1..4, 1..92, [0, 6, 5, 0, 1, 8, 5, 10, 3, 9, 6, 10, 2, 10, 1, 0, 7, 2, 5, 6, 0, 8, 6, 0, 7, 8, 8, 0, 5, 0, 10, 3, 3, 4, 1, 5, 6, 2, 3, 8, 0, 0, 6, 0, 3, 1, 0, 9, 4, 9, 3, 0, 5, 4, 6, 1, 7, 10, 0, 2, 3, 0, 8, 1, 6, 0, 0, 5, 1, 0, 9, 0, 0, 0, 0, 3, 0, 0, 7, 8, 1, 6, 9, 0, 0, 8, 3, 2, 10, 0, 1, 0, 0, 0, 0, 8, 9, 2, 0, 0, 0, 6, 2, 0, 3, 10, 7, 8, 0, 5, 9, 7, 0, 5, 3, 1, 0, 0, 0, 10, 6, 6, 4, 4, 5, 6, 10, 0, 8, 0, 0, 6, 9, 6, 0, 0, 1, 0, 8, 8, 3, 0, 0, 0, 4, 9, 10, 8, 3, 5, 0, 9, 1, 5, 7, 9, 4, 9, 7, 9, 3, 2, 0, 6, 1, 1, 9, 3, 8, 8, 8, 10, 10, 3, 2, 0, 0, 0, 8, 7, 6, 6, 8, 0, 0, 2, 1, 5, 0, 8, 9, 2, 2, 3, 8, 9, 1, 0, 5, 0, 5, 8, 8, 1, 5, 5, 9, 6, 0, 4, 3, 2, 0, 6, 7, 8, 1, 8, 9, 2, 1, 2, 4, 4, 8, 3, 7, 5, 3, 7, 10, 0, 4, 7, 5, 2, 0, 4, 4, 1, 0, 5, 3, 0, 4, 10, 0, 5, 10, 4, 0, 9, 3, 3, 0, 8, 0, 1, 3, 8, 9, 4, 10, 3, 5, 3, 6, 1, 5, 7, 7, 3, 2, 0, 3, 0, 0, 8, 0, 0, 6, 0, 7, 7, 0, 3, 8, 0, 1, 0, 0, 4, 3, 0, 8, 1, 7, 1, 2, 2, 7, 0, 5, 2, 10, 4, 0, 1, 5, 1, 7, 0, 3, 0, 6, 9, 4, 9, 1, 0, 0, 9, 1, 6, 5, 0, 1, 5, 0, 9, 4, 5, 6, 0, 6, 0, 0, 0, 5, 7, 4, 10, 8, 8, 0, 7, 9, 0, 10, 3, 6, 9, 10, 1, 0, 3, 1, 6, 2, 9, 0, 2, 10, 0, 6, 5, 1, 0]);

suc = [
   {2, 3, 4},
   {16, 17},
   {5, 14, 15},
   {8, 12, 6},
   {9},
   {20, 29, 7},
   {10},
   {11, 21, 22},
   {74},
   {41, 13},
   {25, 19, 37},
   {24, 36},
   {32, 85},
   {50, 59, 39},
   {18, 47, 23},
   {55},
   {80, 26, 30},
   {82},
   {27},
   {38},
   {40, 75},
   {60},
   {31},
   {28},
   {84},
   {48, 65, 44},
   {63},
   {35, 38},
   {33, 34, 54},
   {46},
   {42, 43},
   {49},
   {51, 84, 61},
   {53},
   {89},
   {37},
   {73, 86},
   {52},
   {68, 87, 79},
   {45},
   {57, 58},
   {44},
   {71},
   {78},
   {57, 83},
   {64, 67, 69},
   {49, 62},
   {64, 62},
   {66},
   {90},
   {72, 76},
   {56},
   {76, 78},
   {67},
   {64},
   {71},
   {88},
   {77},
   {81},
   {62},
   {77},
   {69},
   {68},
   {85},
   {70},
   {84},
   {77},
   {90},
   {72, 74, 76},
   {78},
   {83},
   {81},
   {74, 82},
   {81, 90},
   {80, 86},
   {87},
   {87},
   {79},
   {82},
   {91},
   {89},
   {83},
   {85},
   {88},
   {89},
   {91},
   {88},
   {91},
   {92},
   {92},
   {92},
   {  } ];

deadline = array2d(1..92, 1..3, [2, 1, 0, 3, 2, 4, 3, 1, 0, 4, 5, 4, 10, 5, 2, 10, 4, 1, 11, 2, 0, 13, 1, 1, 14, 1, 1, 17, 3, 1, 18, 1, 5, 21, 0, 5, 22, 2, 4, 23, 5, 3, 27, 0, 3, 30, 2, 2, 32, 3, 4, 33, 3, 2, 36, 0, 0, 38, 2, 1, 40, 3, 4, 41, 4, 3, 43, 0, 4, 50, 4, 2, 56, 1, 2, 57, 0, 1, 58, 3, 4, 63, 2, 0, 66, 3, 5, 68, 3, 1, 68, 5, 2, 68, 4, 0, 73, 0, 2, 80, 3, 0, 81, 3, 1, 81, 2, 0, 81, 4, 1, 84, 5, 2, 86, 2, 2, 87, 2, 3, 87, 0, 3, 88, 2, 5, 93, 3, 3, 94, 0, 0, 99, 0, 2, 99, 1, 5, 104, 0, 1, 105, 2, 1, 105, 2, 2, 108, 3, 5, 108, 4, 5, 113, 1, 3, 118, 0, 0, 120, 0, 4, 120, 1, 4, 121, 4, 4, 126, 1, 5, 126, 5, 2, 127, 4, 0, 127, 1, 4, 128, 4, 4, 129, 5, 4, 132, 1, 0, 132, 2, 2, 132, 1, 2, 135, 3, 0, 139, 3, 3, 140, 1, 2, 140, 0, 3, 142, 0, 0, 147, 0, 2, 147, 1, 2, 150, 3, 5, 150, 0, 4, 151, 5, 3, 158, 3, 2, 158, 0, 2, 159, 1, 1, 161, 3, 2, 162, 0, 5, 166, 0, 2, 173, 0, 5, 174, 1, 4, 174, 4, 4, 180, 0, 3, 182, 3, 2, 184, 5, 0, 184, 5, 3, 187, 3, 2, 189, 1, 1, 190, 1, 1, 191, 2, 4]);
