n_res = 4;
rc = [ 32, 19, 24, 23 ];
n_tasks = 92;
d = [0, 3, 4, 5, 10, 2, 9, 3, 7, 8, 5, 3, 4, 6, 8, 4, 5, 3, 6, 5, 6, 2, 4, 10, 7, 1, 4, 4, 2, 4, 7, 10, 7, 6, 3, 7, 2, 9, 6, 9, 9, 4, 10, 1, 4, 5, 5, 9, 4, 3, 5, 7, 5, 10, 5, 6, 5, 5, 5, 9, 3, 1, 9, 6, 5, 1, 4, 1, 9, 3, 9, 10, 2, 3, 5, 10, 1, 8, 1, 9, 4, 2, 8, 5, 8, 4, 6, 10, 10, 8, 6, 0];
rr = array2d(1..4, 1..92, [0, 6, 0, 0, 9, 9, 0, 0, 0, 0, 0, 0, 0, 0, 7, 0, 0, 0, 0, 10, 9, 0, 0, 0, 0, 0, 0, 0, 3, 0, 0, 4, 0, 0, 0, 10, 0, 0, 2, 0, 0, 0, 5, 0, 1, 0, 2, 0, 0, 0, 0, 0, 0, 0, 0, 0, 0, 0, 0, 5, 0, 0, 1, 0, 4, 0, 5, 0, 8, 0, 0, 0, 5, 0, 0, 0, 0, 0, 0, 0, 0, 0, 5, 6, 0, 0, 3, 10, 3, 0, 5, 0, 0, 0, 0, 8, 0, 0, 0, 0, 0, 0, 0, 8, 0, 3, 0, 0, 0, 0, 0, 0, 0, 8, 0, 6, 0, 0, 7, 0, 0, 0, 0, 0, 6, 0, 0, 0, 10, 0, 0, 0, 4, 0, 0, 8, 0, 1, 0, 4, 0, 0, 0, 0, 0, 0, 8, 9, 0, 0, 0, 0, 0, 2, 0, 0, 0, 0, 0, 10, 0, 0, 0, 10, 0, 0, 0, 0, 0, 0, 0, 6, 0, 0, 0, 0, 5, 0, 0, 0, 0, 4, 0, 0, 0, 0, 5, 0, 0, 0, 5, 4, 0, 4, 8, 0, 8, 0, 0, 0, 0, 4, 4, 0, 0, 0, 0, 0, 0, 6, 0, 1, 0, 6, 7, 0, 0, 0, 0, 0, 0, 1, 0, 4, 0, 0, 0, 0, 0, 0, 0, 0, 0, 0, 0, 2, 0, 9, 0, 0, 0, 8, 6, 0, 0, 0, 0, 0, 0, 0, 0, 0, 0, 2, 2, 0, 0, 0, 0, 0, 0, 2, 0, 0, 9, 3, 0, 0, 0, 6, 0, 0, 0, 0, 0, 0, 0, 0, 0, 0, 0, 0, 0, 0, 1, 0, 0, 0, 0, 0, 0, 10, 6, 0, 0, 0, 0, 0, 7, 0, 2, 0, 0, 0, 0, 0, 0, 0, 0, 1, 3, 0, 0, 0, 0, 0, 0, 9, 0, 0, 0, 0, 0, 0, 8, 9, 8, 0, 1, 0, 0, 0, 3, 0, 0, 0, 4, 0, 0, 5, 0, 6, 0, 0, 0, 0, 0, 0, 0, 8, 10, 8, 5, 0, 6, 0, 0, 0, 0, 0, 0, 0, 0, 0, 0, 0, 0, 0]);

suc = [
   {2, 3, 4},
   {8, 6, 7},
   {11, 5, 22},
   {35, 27, 12},
   {9, 10, 29},
   {16, 19, 20},
   {28, 44},
   {18, 47, 15},
   {75},
   {56, 17, 30},
   {35, 13},
   {49, 21},
   {40, 62, 14},
   {72, 26, 51},
   {24, 49, 55},
   {25, 82, 61},
   {84},
   {32, 26},
   {65},
   {76},
   {23},
   {67, 44},
   {38, 31},
   {48, 45, 63},
   {26, 51, 77},
   {57, 36, 38},
   {33, 43},
   {74, 45, 54},
   {52, 61},
   {32, 34},
   {58, 37, 86},
   {48},
   {48, 42},
   {65, 41},
   {79, 38, 55},
   {69, 53, 63},
   {39},
   {64},
   {91},
   {50},
   {60},
   {72, 57, 90},
   {57},
   {61, 68, 53},
   {59, 46},
   {83},
   {70, 69, 54},
   {75, 71},
   {51, 78},
   {73, 66, 68},
   {81, 52},
   {88},
   {79},
   {81, 67},
   {82},
   {77},
   {74},
   {59},
   {75, 69, 71},
   {64, 72, 68},
   {73},
   {71},
   {78},
   {66, 85},
   {73, 82, 87},
   {67},
   {89},
   {74},
   {91, 76},
   {83},
   {80},
   {80},
   {88, 84},
   {85},
   {76, 77},
   {78, 87},
   {79},
   {89, 84},
   {80},
   {81},
   {88},
   {86},
   {85, 87},
   {90},
   {86},
   {89},
   {90},
   {91},
   {92},
   {92},
   {92},
   {  } ];

deadline = array2d(1..92, 1..3, [3, 3, 2, 7, 4, 5, 7, 1, 2, 7, 5, 5, 9, 3, 5, 14, 5, 3, 16, 5, 3, 16, 0, 3, 17, 3, 3, 20, 3, 2, 24, 5, 3, 25, 5, 0, 26, 1, 1, 26, 4, 5, 30, 5, 2, 34, 1, 2, 34, 5, 2, 37, 1, 3, 38, 3, 1, 39, 2, 5, 43, 4, 2, 45, 2, 2, 51, 3, 2, 52, 4, 5, 57, 1, 0, 57, 4, 1, 58, 2, 3, 61, 5, 0, 61, 1, 0, 62, 1, 3, 65, 2, 4, 66, 4, 4, 69, 0, 5, 73, 2, 0, 75, 2, 4, 78, 0, 0, 78, 1, 5, 80, 3, 0, 82, 4, 3, 82, 4, 5, 84, 0, 5, 84, 0, 1, 89, 5, 2, 89, 3, 1, 94, 2, 0, 98, 4, 0, 100, 1, 5, 102, 4, 4, 106, 2, 2, 107, 2, 5, 107, 3, 5, 109, 5, 0, 118, 1, 5, 124, 1, 0, 128, 5, 3, 130, 1, 3, 130, 2, 5, 132, 3, 4, 135, 2, 4, 136, 1, 3, 136, 5, 5, 141, 5, 1, 148, 3, 2, 152, 1, 1, 156, 2, 2, 168, 4, 5, 168, 2, 3, 170, 0, 4, 170, 3, 4, 174, 3, 3, 180, 4, 4, 182, 0, 5, 183, 1, 4, 185, 5, 2, 188, 1, 2, 198, 5, 0, 199, 0, 1, 199, 3, 5, 200, 2, 2, 201, 1, 3, 201, 1, 4, 202, 3, 2, 203, 4, 4, 206, 0, 1, 208, 3, 1, 210, 1, 2, 210, 3, 3, 211, 5, 1, 214, 3, 0, 217, 4, 0, 221, 3, 0, 221, 2, 2]);
