n_res = 4;
rc = [ 14, 14, 15, 13 ];
n_tasks = 92;
d = [0, 9, 5, 7, 9, 4, 6, 2, 2, 9, 9, 2, 8, 5, 10, 4, 2, 8, 5, 5, 7, 5, 6, 10, 8, 2, 3, 7, 8, 1, 6, 9, 7, 8, 4, 1, 1, 7, 7, 5, 1, 9, 9, 3, 7, 6, 1, 1, 8, 7, 1, 4, 9, 1, 3, 7, 2, 2, 2, 7, 9, 6, 4, 3, 4, 1, 5, 6, 4, 3, 7, 7, 6, 4, 7, 8, 10, 10, 9, 10, 10, 9, 3, 1, 8, 9, 3, 2, 6, 8, 8, 0];
rr = array2d(1..4, 1..92, [0, 0, 7, 0, 10, 0, 0, 0, 2, 0, 0, 1, 0, 0, 0, 0, 2, 0, 3, 0, 0, 5, 10, 0, 4, 0, 0, 0, 0, 0, 0, 1, 0, 0, 0, 8, 0, 3, 2, 7, 2, 0, 0, 0, 2, 0, 0, 6, 0, 0, 0, 0, 9, 0, 0, 0, 0, 2, 0, 0, 0, 0, 2, 0, 0, 0, 0, 0, 0, 0, 0, 8, 0, 5, 6, 9, 0, 0, 0, 0, 10, 0, 6, 8, 0, 0, 0, 0, 0, 4, 0, 0, 0, 0, 0, 0, 0, 0, 0, 0, 0, 8, 0, 0, 7, 10, 0, 9, 0, 0, 0, 0, 0, 0, 0, 9, 0, 0, 0, 2, 3, 0, 7, 0, 0, 0, 0, 0, 0, 0, 0, 0, 0, 4, 0, 0, 0, 2, 0, 0, 0, 0, 0, 0, 0, 0, 0, 0, 0, 0, 0, 3, 10, 0, 0, 0, 0, 7, 8, 0, 0, 0, 0, 0, 0, 0, 0, 0, 0, 8, 1, 0, 0, 0, 0, 0, 0, 10, 8, 0, 5, 0, 0, 0, 0, 5, 0, 1, 0, 0, 0, 2, 0, 0, 8, 0, 0, 0, 8, 0, 0, 0, 0, 0, 8, 0, 0, 0, 0, 3, 0, 0, 0, 0, 0, 0, 1, 0, 9, 0, 8, 0, 0, 0, 0, 0, 10, 8, 0, 0, 5, 0, 0, 0, 8, 8, 0, 8, 4, 4, 0, 0, 5, 0, 0, 0, 0, 0, 3, 0, 0, 0, 1, 0, 0, 0, 0, 0, 0, 0, 6, 0, 0, 8, 0, 7, 0, 0, 0, 0, 0, 1, 0, 0, 0, 0, 0, 0, 0, 0, 0, 3, 6, 0, 0, 0, 0, 0, 0, 0, 0, 0, 0, 1, 0, 5, 0, 0, 0, 0, 0, 0, 1, 0, 0, 5, 0, 0, 0, 6, 0, 0, 0, 0, 0, 0, 0, 0, 0, 0, 0, 0, 0, 0, 6, 9, 0, 0, 0, 0, 0, 0, 8, 0, 0, 0, 0, 7, 0, 2, 0, 0, 0, 5, 0, 7, 4, 0, 8, 0, 0, 0, 0, 0, 0, 0, 0, 0, 0, 0, 2, 0, 0, 0, 0, 0, 9, 0]);

suc = [
   {2, 3, 4},
   {12, 20, 23},
   {75, 15},
   {10, 5, 6},
   {8, 56, 63},
   {25, 22, 7},
   {47, 79, 31},
   {9, 11},
   {18, 19},
   {50},
   {45, 44, 29},
   {16, 13},
   {17, 21, 14},
   {24, 70},
   {72, 55},
   {36},
   {70},
   {26, 34},
   {32, 57},
   {79},
   {35},
   {27, 61},
   {33, 58, 49},
   {33},
   {37},
   {48, 30},
   {28},
   {40, 41, 39},
   {42, 68, 54},
   {47},
   {42},
   {88, 46},
   {91, 51, 38},
   {47},
   {89, 41, 50},
   {76},
   {59, 43},
   {74},
   {60},
   {81, 84},
   {67},
   {65},
   {61, 53},
   {64},
   {53},
   {53},
   {68},
   {90},
   {64, 52},
   {67, 62},
   {90},
   {56},
   {60},
   {78},
   {59},
   {75},
   {69},
   {70},
   {79},
   {80},
   {68},
   {77, 71},
   {85, 78},
   {66, 77},
   {80, 71},
   {75},
   {78},
   {82},
   {72},
   {73},
   {87},
   {76},
   {80},
   {82},
   {89},
   {83},
   {81},
   {81},
   {87},
   {86},
   {91},
   {83, 86},
   {89},
   {85},
   {87},
   {90},
   {88},
   {91},
   {92},
   {92},
   {92},
   {  } ];

deadline = array2d(1..92, 1..3, [2, 0, 0, 3, 4, 1, 9, 5, 3, 10, 0, 2, 12, 1, 4, 15, 5, 2, 17, 3, 3, 17, 1, 2, 21, 2, 4, 23, 4, 0, 25, 3, 3, 25, 4, 5, 38, 1, 4, 38, 1, 2, 43, 2, 1, 45, 0, 1, 45, 2, 5, 45, 5, 2, 47, 2, 3, 50, 4, 0, 52, 3, 2, 56, 3, 5, 58, 1, 0, 60, 2, 1, 62, 1, 2, 64, 3, 5, 65, 2, 4, 65, 4, 1, 65, 0, 0, 75, 2, 3, 76, 4, 1, 77, 5, 0, 78, 3, 5, 81, 0, 2, 85, 1, 5, 86, 0, 2, 87, 0, 3, 90, 3, 5, 91, 5, 0, 91, 3, 2, 97, 3, 2, 97, 4, 5, 98, 4, 4, 102, 2, 5, 104, 4, 5, 105, 5, 2, 108, 0, 1, 111, 0, 0, 111, 5, 5, 114, 3, 4, 119, 3, 3, 124, 1, 3, 124, 0, 0, 126, 0, 0, 126, 1, 0, 128, 1, 3, 130, 0, 4, 131, 3, 2, 132, 4, 2, 137, 0, 3, 138, 3, 2, 138, 4, 1, 139, 4, 3, 139, 5, 0, 142, 0, 2, 146, 1, 5, 157, 3, 1, 160, 5, 4, 161, 2, 2, 162, 1, 5, 168, 2, 3, 169, 0, 3, 170, 0, 0, 170, 5, 0, 171, 2, 4, 171, 2, 2, 180, 2, 2, 184, 3, 5, 185, 2, 3, 186, 3, 0, 187, 3, 0, 189, 2, 4, 191, 2, 0, 192, 0, 1, 193, 5, 1, 193, 2, 5, 196, 0, 2, 199, 0, 5, 203, 5, 0, 204, 5, 5, 204, 4, 0, 206, 3, 2]);
