n_res = 4;
rc = [ 45, 50, 39, 42 ];
n_tasks = 92;
d = [0, 10, 9, 9, 9, 6, 7, 2, 2, 10, 7, 2, 6, 1, 10, 7, 3, 6, 8, 5, 1, 3, 2, 5, 5, 4, 6, 10, 5, 2, 4, 8, 2, 2, 10, 10, 10, 5, 3, 8, 9, 1, 2, 3, 10, 1, 5, 3, 2, 1, 3, 8, 6, 8, 2, 10, 1, 7, 1, 9, 7, 8, 10, 2, 3, 1, 4, 6, 2, 4, 1, 1, 3, 7, 10, 10, 10, 10, 3, 7, 6, 7, 10, 3, 9, 5, 2, 5, 10, 8, 8, 0];
rr = array2d(1..4, 1..92, [0, 4, 5, 5, 7, 7, 5, 10, 6, 3, 9, 9, 5, 7, 4, 2, 5, 1, 5, 6, 10, 6, 1, 9, 4, 10, 1, 9, 8, 3, 8, 3, 3, 3, 2, 5, 2, 1, 9, 8, 2, 7, 7, 1, 2, 10, 8, 9, 6, 1, 2, 6, 8, 8, 8, 1, 8, 6, 4, 1, 10, 4, 1, 1, 6, 8, 3, 2, 5, 3, 5, 2, 9, 3, 3, 1, 6, 6, 4, 4, 9, 10, 1, 10, 2, 8, 8, 8, 1, 3, 8, 0, 0, 5, 5, 2, 10, 10, 7, 9, 9, 5, 2, 4, 3, 7, 10, 8, 10, 5, 3, 10, 10, 4, 2, 10, 7, 9, 10, 9, 8, 9, 3, 9, 10, 4, 7, 3, 10, 5, 6, 8, 8, 3, 3, 9, 8, 4, 6, 3, 4, 7, 3, 5, 5, 10, 5, 10, 2, 2, 2, 4, 5, 2, 5, 8, 1, 3, 5, 8, 10, 2, 1, 8, 4, 7, 6, 5, 2, 4, 1, 3, 8, 4, 2, 7, 10, 9, 10, 1, 4, 4, 2, 0, 0, 4, 4, 5, 10, 5, 4, 6, 5, 6, 3, 7, 4, 5, 8, 2, 9, 5, 2, 3, 7, 8, 8, 8, 2, 9, 3, 8, 2, 2, 2, 6, 2, 6, 1, 9, 8, 1, 7, 2, 1, 8, 5, 4, 2, 4, 8, 8, 1, 2, 6, 6, 2, 4, 4, 7, 6, 1, 7, 7, 3, 1, 1, 9, 4, 10, 5, 1, 6, 6, 9, 9, 5, 4, 7, 1, 2, 10, 9, 10, 2, 5, 9, 7, 5, 5, 7, 2, 6, 5, 5, 0, 0, 6, 6, 9, 1, 6, 10, 10, 1, 10, 9, 1, 5, 10, 9, 4, 6, 4, 5, 8, 3, 8, 1, 6, 4, 8, 2, 1, 8, 4, 3, 3, 6, 7, 5, 1, 1, 2, 8, 2, 5, 1, 10, 9, 1, 1, 10, 10, 4, 1, 6, 6, 6, 4, 3, 7, 3, 2, 2, 10, 9, 6, 4, 8, 1, 4, 9, 9, 2, 9, 7, 7, 2, 3, 8, 2, 2, 4, 7, 10, 3, 5, 5, 4, 9, 7, 5, 2, 3, 7, 4, 0]);

suc = [
   {2, 3, 4},
   {18, 5},
   {12, 15},
   {9, 13, 25},
   {8, 6, 7},
   {27, 21},
   {16, 28},
   {43},
   {10, 11, 22},
   {19, 85, 46},
   {50},
   {41, 37},
   {65, 14},
   {82, 39},
   {56, 42, 54},
   {24, 17, 30},
   {20, 45, 36},
   {55},
   {33, 29, 31},
   {68},
   {32, 44, 23},
   {26, 35, 69},
   {59},
   {50},
   {42, 53},
   {58},
   {59, 47},
   {71},
   {73},
   {34},
   {49, 38},
   {76},
   {51, 52, 63},
   {40, 66, 67},
   {48},
   {59},
   {88, 79},
   {42},
   {46},
   {72},
   {47},
   {84},
   {57, 79},
   {87},
   {60},
   {80, 61, 86},
   {70},
   {89, 68, 62},
   {83},
   {64, 79},
   {81},
   {81},
   {67},
   {74},
   {74},
   {83},
   {64},
   {75},
   {70},
   {75, 85},
   {88},
   {70},
   {76},
   {66},
   {72, 86},
   {73},
   {84},
   {78},
   {72},
   {71},
   {74},
   {76},
   {77},
   {77, 86},
   {81, 77},
   {88},
   {87},
   {83},
   {91},
   {90},
   {84},
   {89},
   {87},
   {91},
   {91},
   {90},
   {90},
   {89},
   {92},
   {92},
   {92},
   {  } ];

deadline = array2d(1..92, 1..3, [2, 1, 5, 4, 5, 5, 6, 5, 1, 8, 1, 5, 11, 4, 4, 13, 1, 4, 16, 5, 4, 20, 5, 5, 21, 0, 4, 23, 3, 1, 23, 3, 3, 25, 1, 2, 25, 1, 5, 26, 2, 2, 27, 2, 2, 39, 5, 2, 45, 5, 0, 50, 5, 3, 50, 0, 2, 53, 3, 1, 53, 4, 1, 54, 4, 2, 57, 1, 3, 58, 5, 5, 61, 2, 0, 63, 1, 2, 66, 2, 4, 80, 0, 3, 82, 1, 5, 83, 5, 3, 83, 2, 0, 86, 2, 0, 92, 2, 2, 93, 0, 4, 94, 0, 4, 95, 4, 4, 96, 1, 5, 99, 4, 3, 102, 5, 3, 110, 1, 0, 111, 2, 4, 113, 5, 4, 113, 1, 0, 119, 2, 3, 120, 2, 0, 127, 0, 0, 130, 4, 3, 131, 2, 0, 131, 0, 4, 133, 1, 5, 136, 2, 4, 136, 5, 5, 138, 0, 1, 144, 0, 2, 146, 1, 2, 148, 5, 0, 148, 3, 0, 148, 3, 2, 148, 4, 0, 149, 2, 4, 151, 4, 5, 151, 2, 3, 151, 5, 0, 152, 0, 3, 154, 3, 4, 160, 5, 2, 162, 1, 0, 162, 1, 4, 166, 1, 5, 170, 1, 0, 172, 3, 1, 174, 2, 1, 174, 0, 0, 176, 2, 0, 177, 5, 5, 183, 0, 2, 186, 0, 2, 187, 5, 3, 188, 1, 3, 191, 1, 3, 193, 1, 3, 195, 1, 0, 197, 5, 4, 204, 0, 0, 204, 5, 5, 206, 3, 3, 207, 4, 1, 207, 0, 1, 209, 4, 0, 211, 3, 5, 212, 0, 3, 212, 4, 0]);
