n_res = 4;
rc = [ 50, 50, 34, 61 ];
n_tasks = 92;
d = [0, 2, 1, 8, 7, 1, 1, 4, 4, 3, 10, 9, 7, 3, 7, 9, 3, 10, 7, 8, 2, 10, 7, 10, 10, 8, 9, 9, 3, 9, 10, 6, 4, 9, 6, 9, 6, 10, 2, 10, 3, 9, 8, 7, 4, 2, 2, 1, 7, 5, 1, 6, 4, 8, 7, 3, 9, 2, 2, 4, 9, 9, 2, 6, 9, 4, 3, 10, 10, 7, 3, 3, 9, 5, 4, 1, 4, 8, 2, 5, 10, 5, 9, 3, 3, 10, 4, 10, 3, 2, 9, 0];
rr = array2d(1..4, 1..92, [0, 0, 0, 0, 8, 3, 6, 7, 6, 9, 0, 0, 0, 9, 0, 0, 8, 0, 0, 6, 0, 10, 0, 6, 4, 0, 0, 0, 0, 0, 8, 2, 9, 7, 4, 8, 9, 0, 9, 0, 6, 7, 0, 0, 5, 10, 0, 0, 7, 0, 7, 6, 10, 0, 0, 3, 2, 10, 0, 1, 0, 0, 0, 6, 0, 6, 0, 8, 0, 9, 6, 3, 0, 0, 4, 0, 0, 0, 9, 0, 0, 2, 3, 0, 0, 10, 0, 0, 3, 7, 9, 0, 0, 9, 0, 0, 10, 0, 2, 9, 0, 0, 0, 5, 0, 0, 0, 2, 4, 0, 6, 0, 0, 3, 4, 3, 0, 0, 0, 0, 8, 5, 6, 0, 10, 0, 0, 9, 0, 0, 2, 10, 4, 0, 0, 3, 0, 0, 6, 5, 0, 1, 0, 8, 0, 2, 9, 0, 7, 10, 2, 0, 0, 3, 0, 0, 4, 0, 10, 0, 3, 4, 8, 8, 5, 3, 8, 0, 0, 0, 8, 0, 2, 0, 0, 0, 0, 0, 0, 5, 0, 0, 0, 0, 0, 0, 8, 6, 0, 0, 0, 8, 0, 0, 0, 0, 0, 0, 0, 9, 4, 0, 0, 6, 0, 0, 0, 0, 3, 5, 0, 0, 0, 6, 4, 0, 8, 0, 0, 0, 0, 0, 3, 0, 0, 9, 4, 2, 9, 4, 0, 6, 3, 0, 0, 8, 0, 0, 1, 3, 0, 0, 0, 1, 0, 6, 0, 0, 0, 7, 0, 4, 0, 0, 7, 9, 7, 10, 0, 1, 1, 2, 0, 8, 5, 5, 0, 0, 5, 4, 0, 8, 1, 0, 6, 0, 0, 3, 0, 5, 2, 0, 3, 0, 0, 0, 1, 0, 9, 10, 5, 0, 0, 5, 5, 0, 4, 0, 1, 0, 1, 10, 10, 8, 4, 0, 9, 0, 6, 8, 4, 1, 0, 2, 2, 0, 0, 0, 7, 3, 0, 0, 2, 0, 0, 5, 0, 0, 1, 6, 6, 0, 0, 0, 4, 0, 5, 8, 4, 10, 10, 0, 3, 4, 1, 3, 0, 7, 0, 0, 8, 6, 10, 0, 4, 0, 0, 0, 0, 8, 6, 3, 6, 0, 6, 10, 0, 0]);

suc = [
   {2, 3, 4},
   {10, 36},
   {8, 12, 38},
   {27, 5},
   {19, 6, 7},
   {11, 13, 23},
   {72, 9, 43},
   {49, 50, 28},
   {41, 14, 39},
   {16, 29},
   {40, 48, 31},
   {76, 77},
   {21, 15},
   {18, 20, 37},
   {17, 67},
   {24, 73, 42},
   {22},
   {47, 22, 30},
   {56, 57, 35},
   {26},
   {33},
   {25, 63},
   {65, 83},
   {35},
   {26},
   {44, 69, 62},
   {32, 51, 52},
   {78},
   {84},
   {89},
   {80, 34},
   {45, 70},
   {74},
   {58},
   {47},
   {64, 65, 60},
   {75},
   {58, 47},
   {54, 46},
   {66},
   {82, 77, 55},
   {79},
   {57},
   {66},
   {88},
   {68},
   {69},
   {83, 61},
   {53},
   {59},
   {71},
   {87},
   {76},
   {57},
   {81},
   {61},
   {73},
   {66, 59},
   {71},
   {70},
   {88},
   {79},
   {81},
   {79},
   {68},
   {84},
   {90, 86},
   {82},
   {74},
   {77},
   {78},
   {85},
   {84},
   {89},
   {78},
   {81},
   {91},
   {86},
   {83},
   {85},
   {89},
   {90},
   {85},
   {86},
   {88},
   {91},
   {91},
   {90},
   {92},
   {92},
   {92},
   {  } ];

deadline = array2d(1..92, 1..3, [12, 3, 3, 15, 2, 5, 16, 5, 0, 17, 4, 3, 20, 4, 4, 20, 1, 3, 26, 3, 0, 27, 3, 2, 28, 3, 5, 36, 0, 1, 49, 3, 0, 52, 4, 1, 53, 3, 0, 56, 5, 5, 59, 5, 3, 65, 0, 2, 68, 4, 3, 73, 0, 1, 73, 4, 2, 74, 5, 5, 75, 3, 5, 77, 4, 4, 79, 2, 1, 80, 4, 0, 81, 4, 5, 83, 3, 4, 83, 2, 3, 88, 2, 0, 88, 0, 4, 89, 4, 4, 92, 0, 4, 94, 4, 2, 94, 1, 0, 95, 1, 2, 98, 0, 1, 99, 5, 4, 100, 4, 2, 103, 2, 3, 105, 3, 3, 109, 0, 3, 111, 4, 4, 113, 2, 1, 114, 0, 2, 116, 2, 4, 118, 3, 4, 123, 5, 5, 127, 1, 5, 129, 4, 2, 132, 4, 1, 132, 2, 3, 135, 0, 2, 139, 3, 4, 139, 1, 3, 141, 3, 2, 144, 4, 3, 147, 5, 0, 152, 1, 3, 155, 2, 0, 156, 2, 5, 159, 0, 2, 161, 0, 4, 162, 0, 3, 162, 5, 3, 170, 3, 3, 171, 4, 3, 173, 4, 2, 180, 2, 2, 180, 3, 1, 183, 2, 2, 187, 4, 5, 189, 2, 1, 192, 5, 5, 198, 3, 4, 200, 1, 1, 204, 5, 0, 206, 5, 2, 206, 3, 1, 219, 3, 2, 221, 3, 2, 222, 3, 1, 223, 3, 5, 227, 0, 3, 229, 2, 0, 229, 5, 4, 229, 4, 1, 231, 1, 3, 231, 3, 0, 233, 0, 0, 235, 1, 0, 237, 2, 2, 237, 2, 1, 237, 1, 5]);
