n_res = 4;
rc = [ 19, 21, 17, 21 ];
n_tasks = 92;
d = [0, 4, 3, 6, 2, 1, 10, 4, 3, 7, 9, 7, 9, 4, 8, 2, 8, 3, 8, 8, 10, 5, 6, 9, 3, 3, 2, 2, 2, 7, 8, 7, 5, 1, 8, 6, 10, 10, 8, 10, 7, 3, 9, 2, 10, 9, 2, 5, 9, 3, 7, 9, 3, 1, 9, 5, 6, 8, 9, 2, 2, 1, 5, 1, 10, 5, 8, 8, 3, 2, 7, 6, 10, 2, 7, 4, 8, 2, 6, 9, 7, 8, 9, 1, 8, 3, 4, 10, 6, 4, 2, 0];
rr = array2d(1..4, 1..92, [0, 3, 0, 0, 5, 7, 0, 2, 3, 0, 0, 0, 0, 0, 5, 10, 5, 10, 0, 8, 0, 0, 10, 0, 8, 0, 0, 0, 0, 1, 0, 0, 0, 0, 7, 0, 2, 0, 0, 0, 0, 0, 0, 2, 0, 0, 0, 7, 0, 0, 0, 3, 0, 0, 0, 0, 0, 5, 0, 6, 4, 1, 0, 0, 0, 1, 0, 0, 8, 0, 5, 0, 0, 5, 0, 2, 0, 0, 0, 6, 0, 5, 0, 0, 5, 8, 0, 0, 0, 0, 0, 0, 0, 0, 0, 0, 0, 0, 6, 0, 0, 3, 0, 0, 0, 0, 0, 0, 0, 0, 0, 0, 0, 0, 0, 0, 0, 0, 0, 0, 0, 0, 10, 0, 0, 0, 0, 4, 0, 0, 1, 4, 9, 0, 8, 0, 8, 0, 7, 0, 0, 0, 0, 0, 9, 0, 0, 0, 0, 0, 0, 0, 0, 0, 10, 0, 0, 0, 0, 0, 0, 0, 0, 0, 0, 0, 0, 0, 0, 0, 0, 0, 3, 0, 0, 5, 0, 0, 0, 7, 2, 8, 7, 0, 0, 0, 4, 0, 0, 0, 0, 0, 0, 0, 0, 0, 0, 6, 0, 0, 0, 0, 10, 0, 0, 0, 0, 4, 0, 3, 0, 0, 0, 0, 0, 0, 5, 0, 0, 0, 0, 2, 0, 0, 0, 3, 0, 0, 0, 0, 0, 0, 0, 5, 0, 0, 0, 0, 0, 0, 0, 0, 9, 0, 0, 0, 0, 2, 0, 0, 0, 0, 0, 1, 0, 2, 0, 0, 0, 0, 9, 4, 0, 0, 0, 0, 10, 0, 0, 0, 10, 0, 0, 0, 0, 0, 0, 0, 0, 1, 0, 0, 0, 0, 0, 0, 6, 8, 8, 0, 0, 0, 0, 0, 0, 0, 4, 9, 0, 0, 0, 0, 3, 2, 6, 0, 0, 8, 0, 10, 0, 0, 0, 0, 0, 0, 0, 0, 0, 0, 0, 9, 0, 0, 6, 0, 5, 0, 0, 10, 5, 8, 8, 0, 0, 0, 0, 0, 0, 0, 6, 0, 3, 5, 0, 0, 0, 0, 8, 0, 4, 0, 0, 0, 9, 0, 0, 0, 0, 0, 0, 0, 0, 0, 0, 0, 0, 0]);

suc = [
   {2, 3, 4},
   {18, 19, 13},
   {9, 5, 7},
   {26},
   {41, 6, 14},
   {16, 25, 34},
   {8, 17, 20},
   {10, 22, 15},
   {24, 11, 21},
   {35, 12},
   {73, 33, 84},
   {56, 38, 47},
   {40, 41, 78},
   {53},
   {29, 21},
   {36, 70},
   {91, 54, 71},
   {46, 47},
   {66, 67, 76},
   {88, 60},
   {27},
   {61, 23},
   {58, 28},
   {48, 59, 31},
   {32, 39},
   {51, 30, 31},
   {40, 48, 43},
   {57},
   {64, 41},
   {60},
   {50, 35, 74},
   {62},
   {65, 44},
   {66, 35},
   {49, 45, 37},
   {90, 69, 55},
   {65},
   {63},
   {81, 50, 43},
   {72, 42, 61},
   {83, 86},
   {75, 54},
   {62},
   {58, 51, 77},
   {67},
   {69},
   {51, 52, 79},
   {87},
   {72},
   {72, 73},
   {59, 87},
   {67, 53},
   {71},
   {64},
   {66, 77},
   {68},
   {68, 77},
   {59, 60, 85},
   {88},
   {78},
   {68},
   {82},
   {64, 69},
   {89},
   {79, 71},
   {86},
   {91},
   {81, 74},
   {73},
   {80, 74, 78},
   {81},
   {75, 76, 79},
   {86},
   {84},
   {80, 82, 85},
   {80},
   {85},
   {83},
   {82},
   {84},
   {83},
   {88},
   {87},
   {89},
   {91},
   {89},
   {90},
   {90},
   {92},
   {92},
   {92},
   {  } ];

deadline = array2d(1..92, 1..3, [1, 0, 3, 3, 3, 1, 4, 4, 2, 7, 1, 4, 8, 5, 5, 8, 4, 3, 8, 2, 3, 10, 4, 0, 11, 5, 2, 18, 5, 1, 22, 2, 1, 23, 4, 2, 24, 3, 1, 27, 4, 1, 32, 1, 4, 32, 2, 0, 33, 4, 1, 33, 5, 2, 36, 4, 4, 36, 1, 1, 40, 5, 0, 42, 1, 1, 42, 2, 3, 45, 1, 5, 46, 1, 4, 50, 3, 5, 52, 1, 2, 54, 5, 0, 67, 5, 3, 67, 3, 5, 68, 4, 0, 71, 5, 0, 74, 5, 1, 75, 1, 0, 76, 4, 3, 77, 5, 5, 77, 3, 2, 77, 1, 3, 77, 5, 3, 80, 3, 2, 82, 5, 3, 83, 4, 2, 84, 3, 5, 90, 3, 1, 95, 0, 1, 96, 1, 1, 99, 1, 5, 99, 4, 0, 100, 5, 4, 100, 2, 1, 102, 0, 1, 107, 5, 1, 112, 2, 0, 113, 3, 4, 114, 4, 0, 116, 5, 3, 120, 3, 4, 120, 2, 5, 120, 2, 4, 121, 0, 2, 122, 3, 2, 125, 0, 5, 126, 5, 2, 126, 3, 2, 131, 2, 1, 135, 1, 1, 139, 5, 0, 140, 3, 1, 142, 0, 5, 145, 4, 5, 146, 4, 3, 151, 5, 1, 154, 2, 3, 161, 3, 0, 163, 4, 3, 164, 2, 1, 164, 5, 3, 170, 2, 1, 172, 1, 5, 177, 0, 0, 179, 2, 1, 180, 0, 0, 181, 1, 0, 188, 2, 2, 189, 3, 1, 192, 1, 1, 194, 1, 5, 196, 5, 0, 199, 0, 5, 200, 2, 4, 200, 3, 4, 202, 5, 4]);
