n_res = 4;
rc = [ 53, 64, 61, 55 ];
n_tasks = 92;
d = [0, 4, 8, 2, 1, 4, 7, 10, 8, 2, 8, 3, 7, 5, 10, 2, 2, 9, 9, 5, 5, 10, 6, 4, 2, 6, 10, 10, 8, 7, 1, 9, 10, 2, 10, 3, 6, 7, 10, 2, 6, 2, 6, 2, 5, 3, 7, 4, 7, 1, 3, 1, 7, 3, 8, 5, 10, 9, 6, 9, 10, 7, 4, 10, 3, 1, 8, 5, 9, 6, 10, 2, 5, 2, 9, 7, 4, 9, 9, 5, 6, 9, 3, 1, 5, 3, 9, 2, 1, 4, 3, 0];
rr = array2d(1..4, 1..92, [0, 2, 4, 7, 5, 6, 4, 2, 5, 10, 3, 5, 9, 2, 2, 8, 6, 1, 4, 3, 4, 1, 9, 1, 4, 5, 5, 1, 10, 1, 6, 4, 8, 2, 3, 8, 5, 10, 2, 7, 10, 2, 6, 10, 5, 9, 6, 3, 9, 3, 1, 7, 3, 8, 5, 5, 8, 7, 10, 7, 4, 10, 10, 5, 5, 9, 1, 6, 9, 3, 8, 4, 2, 6, 6, 6, 4, 4, 2, 2, 10, 1, 6, 6, 1, 2, 2, 2, 1, 10, 9, 0, 0, 5, 7, 5, 9, 1, 4, 7, 9, 9, 9, 7, 4, 2, 6, 1, 1, 10, 3, 3, 2, 9, 10, 6, 7, 6, 4, 10, 5, 10, 5, 9, 9, 1, 5, 9, 5, 9, 2, 7, 9, 9, 4, 2, 10, 3, 10, 5, 3, 3, 3, 5, 5, 3, 1, 3, 7, 6, 8, 10, 7, 6, 4, 4, 4, 6, 2, 5, 8, 8, 4, 2, 6, 1, 10, 2, 5, 8, 7, 6, 1, 1, 9, 1, 7, 2, 7, 3, 8, 8, 5, 0, 0, 2, 7, 10, 5, 2, 5, 9, 10, 2, 5, 9, 4, 9, 5, 5, 10, 4, 1, 7, 2, 6, 8, 4, 6, 8, 1, 6, 3, 6, 10, 10, 6, 1, 4, 9, 4, 4, 8, 2, 4, 10, 9, 5, 10, 10, 5, 10, 10, 7, 1, 4, 7, 4, 3, 6, 1, 5, 7, 7, 2, 6, 8, 1, 3, 10, 6, 7, 7, 8, 8, 9, 6, 9, 6, 6, 7, 1, 6, 4, 1, 4, 6, 10, 9, 9, 3, 1, 5, 1, 5, 0, 0, 1, 7, 10, 2, 5, 4, 2, 2, 3, 8, 1, 4, 5, 9, 2, 3, 7, 10, 3, 1, 7, 1, 3, 4, 9, 9, 1, 7, 6, 4, 7, 8, 6, 9, 7, 10, 3, 1, 4, 10, 5, 3, 2, 6, 7, 10, 10, 5, 5, 6, 7, 7, 6, 8, 7, 7, 8, 10, 1, 4, 6, 5, 10, 6, 3, 3, 7, 7, 10, 10, 7, 1, 9, 5, 5, 5, 3, 4, 8, 5, 7, 8, 1, 8, 5, 3, 6, 8, 7, 10, 0]);

suc = [
   {2, 3, 4},
   {49, 10, 13},
   {8, 9, 5},
   {38, 11, 6},
   {34, 37, 7},
   {26, 66, 54},
   {41, 50, 29},
   {19, 21},
   {72, 17, 14},
   {48, 25, 44},
   {12, 60, 15},
   {17},
   {16, 51, 30},
   {18, 20, 62},
   {24, 72, 23},
   {27, 68},
   {32, 31},
   {25, 53, 22},
   {48, 79},
   {58},
   {52, 61},
   {67, 47},
   {33, 47},
   {28},
   {35, 55, 31},
   {40, 39},
   {33, 59, 55},
   {32, 82, 53},
   {65, 85, 38},
   {82},
   {46},
   {58, 74},
   {80, 77},
   {56, 36},
   {78},
   {48},
   {77},
   {64, 42},
   {73},
   {43, 63},
   {75, 87},
   {45},
   {56},
   {64, 77, 62},
   {88, 81, 47},
   {56},
   {90},
   {81},
   {57, 54},
   {52, 71},
   {67, 54},
   {65},
   {71, 63},
   {73, 84, 63},
   {66, 67, 85},
   {74, 68},
   {68, 70},
   {86, 76, 70},
   {69},
   {91},
   {90},
   {75},
   {65, 69, 79},
   {80, 76},
   {83},
   {74},
   {76},
   {75, 71},
   {78, 70},
   {83, 85},
   {80, 84},
   {73},
   {89},
   {84},
   {79},
   {78},
   {82, 86},
   {91},
   {86},
   {81},
   {87},
   {83},
   {88},
   {88, 87},
   {89},
   {89},
   {91},
   {90},
   {92},
   {92},
   {92},
   {  } ];

deadline = array2d(1..92, 1..3, [1, 5, 1, 2, 5, 1, 2, 2, 0, 4, 5, 1, 4, 0, 2, 6, 3, 5, 10, 4, 3, 13, 0, 3, 14, 3, 3, 14, 2, 1, 15, 5, 1, 18, 5, 2, 19, 5, 1, 27, 1, 2, 29, 3, 0, 37, 0, 0, 37, 1, 0, 38, 4, 4, 42, 2, 3, 42, 4, 5, 43, 5, 4, 47, 2, 1, 48, 4, 3, 52, 0, 1, 53, 0, 4, 53, 0, 2, 54, 1, 1, 55, 5, 2, 56, 2, 1, 58, 2, 3, 69, 5, 2, 70, 1, 1, 72, 0, 4, 77, 2, 5, 79, 2, 2, 81, 4, 5, 85, 0, 4, 86, 0, 2, 87, 2, 0, 88, 1, 5, 90, 5, 4, 93, 4, 4, 93, 0, 2, 94, 2, 3, 97, 3, 1, 100, 2, 5, 106, 1, 1, 106, 4, 3, 107, 2, 5, 116, 2, 5, 117, 5, 3, 118, 4, 1, 118, 2, 3, 119, 2, 3, 122, 1, 2, 123, 3, 1, 127, 0, 5, 130, 1, 1, 134, 1, 5, 135, 3, 3, 138, 1, 1, 143, 0, 3, 144, 4, 2, 145, 1, 0, 146, 1, 3, 146, 3, 5, 146, 4, 0, 147, 1, 1, 147, 2, 4, 151, 3, 0, 154, 2, 0, 156, 0, 3, 156, 5, 3, 157, 2, 5, 157, 3, 2, 158, 1, 1, 160, 1, 0, 162, 2, 4, 167, 4, 3, 170, 2, 4, 170, 0, 5, 173, 4, 0, 173, 3, 3, 174, 2, 0, 177, 4, 1, 179, 3, 5, 179, 1, 5, 180, 4, 2, 182, 3, 3, 186, 4, 2, 194, 4, 1, 197, 1, 4]);
