n_res = 4;
rc = [ 80, 69, 78, 105 ];
n_tasks = 92;
d = [0, 5, 7, 6, 7, 9, 10, 3, 7, 2, 3, 3, 3, 10, 3, 8, 6, 7, 5, 6, 9, 2, 5, 8, 10, 10, 9, 2, 4, 9, 8, 2, 3, 10, 8, 6, 7, 4, 9, 8, 8, 6, 2, 5, 7, 2, 4, 3, 1, 3, 1, 7, 6, 1, 10, 1, 7, 4, 5, 9, 4, 8, 10, 9, 7, 6, 5, 7, 5, 3, 8, 3, 7, 8, 9, 4, 8, 8, 1, 4, 1, 4, 8, 4, 4, 7, 5, 9, 10, 8, 9, 0];
rr = array2d(1..4, 1..92, [0, 9, 4, 3, 6, 10, 6, 3, 8, 4, 5, 9, 9, 6, 8, 1, 5, 9, 1, 1, 2, 4, 4, 7, 5, 4, 3, 9, 4, 10, 9, 1, 2, 7, 7, 5, 7, 1, 5, 1, 10, 9, 5, 9, 9, 2, 3, 2, 1, 3, 4, 2, 7, 5, 3, 10, 6, 9, 3, 10, 6, 2, 3, 2, 8, 8, 1, 7, 5, 7, 7, 1, 2, 5, 5, 9, 2, 6, 8, 6, 9, 2, 1, 9, 1, 3, 1, 2, 4, 9, 6, 0, 0, 6, 3, 3, 9, 6, 1, 7, 6, 1, 1, 4, 6, 3, 9, 4, 9, 3, 1, 3, 9, 4, 5, 3, 6, 5, 8, 10, 3, 8, 5, 1, 4, 3, 9, 8, 10, 5, 8, 7, 6, 5, 9, 10, 5, 6, 1, 5, 8, 6, 3, 9, 2, 5, 3, 1, 3, 4, 4, 10, 5, 9, 7, 4, 1, 4, 8, 4, 8, 10, 4, 5, 7, 10, 8, 6, 3, 2, 2, 2, 8, 8, 2, 8, 4, 3, 1, 8, 1, 5, 5, 0, 0, 2, 5, 3, 2, 9, 2, 9, 6, 4, 2, 4, 9, 1, 6, 1, 10, 7, 1, 7, 1, 4, 8, 10, 5, 2, 3, 7, 9, 2, 9, 6, 7, 1, 5, 1, 8, 10, 2, 8, 5, 8, 6, 9, 1, 4, 10, 10, 8, 2, 4, 3, 9, 6, 7, 10, 10, 7, 2, 5, 4, 2, 7, 5, 8, 3, 10, 10, 10, 3, 1, 7, 1, 7, 5, 4, 8, 1, 10, 5, 7, 2, 4, 6, 3, 10, 5, 1, 3, 3, 7, 0, 0, 7, 1, 2, 10, 9, 6, 2, 8, 9, 4, 3, 3, 5, 8, 10, 4, 9, 8, 9, 10, 3, 3, 7, 10, 9, 5, 9, 10, 6, 4, 9, 3, 5, 9, 10, 7, 7, 7, 5, 2, 10, 10, 9, 4, 3, 1, 1, 9, 7, 2, 5, 5, 8, 3, 9, 4, 6, 5, 9, 5, 8, 10, 4, 2, 10, 8, 7, 9, 4, 5, 1, 10, 5, 7, 4, 1, 5, 10, 4, 7, 9, 5, 7, 7, 2, 1, 6, 9, 5, 9, 0]);

suc = [
   {2, 3, 4},
   {12, 6, 14},
   {8, 76, 7},
   {8, 9, 5},
   {25, 20, 28},
   {41, 44, 39},
   {16, 38, 31},
   {72, 10, 23},
   {19, 42, 11},
   {33, 22, 41},
   {35, 13, 23},
   {24, 17, 15},
   {56, 29, 38},
   {34, 60, 47},
   {18, 26, 21},
   {34, 36, 63},
   {67, 27, 62},
   {32, 48, 30},
   {69, 68, 37},
   {66},
   {50, 30},
   {25, 59, 29},
   {36, 55, 39},
   {40, 53, 86},
   {54, 77, 30},
   {59, 46, 79},
   {40, 48},
   {89, 36, 45},
   {48, 61},
   {52, 53, 70},
   {40, 59},
   {85, 37, 47},
   {58},
   {88},
   {43, 68, 63},
   {65, 44, 60},
   {41, 44, 45},
   {49, 67, 39},
   {52, 54},
   {51, 43, 54},
   {56, 61},
   {57, 43, 84},
   {64, 70, 47},
   {49, 74},
   {56, 77, 78},
   {49, 84},
   {72, 74},
   {73, 65, 80},
   {83},
   {89, 67, 53},
   {72, 68, 71},
   {64, 60, 71},
   {62},
   {73, 69},
   {57, 58},
   {80},
   {61, 62, 63},
   {64, 65},
   {86},
   {66, 90, 78},
   {70},
   {81},
   {85},
   {75, 69, 87},
   {66, 83},
   {74},
   {84},
   {80, 82},
   {82},
   {73, 71},
   {81},
   {81, 75},
   {75},
   {88},
   {89, 78},
   {77},
   {86, 79},
   {79},
   {82},
   {83},
   {87},
   {91},
   {90},
   {88, 85},
   {90},
   {87},
   {91},
   {91},
   {92},
   {92},
   {92},
   {  } ];

deadline = array2d(1..92, 1..3, [3, 0, 1, 5, 5, 5, 9, 4, 2, 10, 5, 2, 14, 5, 1, 15, 3, 5, 16, 5, 4, 18, 4, 5, 19, 4, 3, 21, 2, 1, 24, 1, 1, 30, 3, 3, 33, 3, 1, 34, 3, 1, 36, 2, 2, 36, 2, 2, 37, 1, 1, 39, 0, 2, 39, 3, 2, 40, 5, 3, 49, 3, 4, 51, 3, 4, 52, 3, 5, 53, 0, 1, 54, 0, 2, 55, 1, 1, 56, 1, 4, 57, 5, 3, 57, 0, 0, 57, 3, 3, 57, 0, 5, 59, 4, 2, 62, 1, 0, 63, 5, 1, 65, 3, 0, 67, 5, 4, 73, 4, 4, 75, 1, 3, 78, 1, 1, 81, 4, 1, 86, 0, 0, 89, 0, 4, 89, 0, 1, 98, 5, 5, 101, 2, 4, 101, 0, 4, 107, 4, 0, 110, 4, 2, 117, 3, 3, 117, 5, 4, 119, 4, 4, 122, 3, 0, 128, 3, 0, 130, 4, 4, 131, 1, 5, 133, 2, 1, 133, 5, 1, 134, 2, 4, 135, 3, 0, 135, 3, 0, 137, 0, 4, 138, 2, 3, 141, 3, 5, 143, 1, 1, 144, 4, 4, 146, 0, 0, 150, 0, 0, 154, 3, 2, 160, 0, 0, 161, 4, 0, 162, 5, 0, 163, 1, 5, 164, 5, 0, 171, 3, 3, 171, 1, 5, 171, 4, 1, 173, 2, 1, 180, 0, 3, 181, 5, 4, 182, 2, 5, 182, 5, 2, 185, 5, 5, 195, 1, 1, 196, 5, 1, 196, 2, 5, 201, 5, 4, 205, 1, 1, 205, 5, 3, 205, 0, 4, 205, 3, 4, 206, 5, 0, 207, 2, 5]);
