n_res = 4;
rc = [ 24, 26, 26, 25 ];
n_tasks = 92;
d = [0, 1, 5, 8, 4, 10, 4, 3, 1, 1, 10, 9, 4, 10, 1, 4, 9, 3, 8, 10, 7, 10, 3, 7, 1, 6, 7, 7, 9, 8, 3, 3, 9, 7, 10, 3, 4, 3, 8, 7, 8, 10, 5, 7, 10, 8, 4, 4, 10, 4, 2, 8, 9, 1, 3, 1, 3, 1, 7, 2, 10, 9, 8, 3, 8, 9, 5, 8, 8, 3, 5, 8, 7, 3, 8, 9, 8, 8, 3, 1, 4, 8, 9, 4, 9, 8, 4, 8, 6, 9, 2, 0];
rr = array2d(1..4, 1..92, [0, 4, 4, 0, 0, 0, 0, 3, 0, 7, 9, 6, 7, 0, 4, 0, 0, 1, 0, 8, 0, 0, 9, 0, 0, 0, 0, 0, 3, 0, 5, 4, 0, 1, 0, 0, 4, 7, 0, 0, 6, 0, 0, 1, 6, 8, 0, 0, 4, 0, 0, 4, 0, 10, 5, 0, 5, 4, 2, 0, 0, 4, 0, 5, 0, 0, 0, 0, 5, 5, 0, 10, 4, 0, 9, 3, 0, 6, 0, 0, 4, 0, 3, 0, 10, 3, 8, 3, 4, 0, 5, 0, 0, 0, 0, 7, 0, 9, 7, 0, 2, 0, 0, 0, 0, 1, 0, 0, 0, 0, 6, 5, 2, 0, 0, 6, 0, 4, 7, 0, 0, 0, 9, 0, 4, 0, 0, 0, 0, 0, 0, 0, 0, 5, 0, 7, 3, 2, 0, 0, 9, 4, 5, 0, 3, 8, 8, 7, 10, 2, 0, 5, 5, 0, 7, 0, 3, 10, 0, 0, 0, 0, 2, 0, 0, 2, 0, 0, 8, 0, 0, 0, 0, 3, 4, 1, 0, 5, 0, 0, 3, 0, 0, 0, 0, 10, 0, 0, 0, 8, 9, 10, 0, 9, 0, 0, 0, 0, 10, 9, 10, 0, 0, 4, 0, 8, 0, 3, 10, 0, 0, 0, 9, 0, 6, 0, 0, 8, 9, 4, 1, 0, 9, 0, 0, 0, 4, 8, 9, 0, 0, 10, 0, 3, 2, 0, 0, 1, 8, 0, 0, 8, 2, 0, 0, 4, 10, 3, 3, 6, 4, 0, 0, 0, 10, 0, 0, 0, 9, 0, 4, 8, 3, 6, 4, 0, 3, 3, 1, 9, 0, 1, 7, 2, 0, 0, 0, 6, 3, 9, 3, 0, 8, 0, 9, 0, 0, 0, 6, 0, 0, 1, 6, 9, 0, 0, 4, 9, 4, 0, 9, 0, 0, 10, 0, 9, 5, 0, 0, 0, 2, 10, 7, 7, 1, 1, 0, 2, 1, 0, 9, 8, 1, 0, 3, 3, 0, 0, 0, 0, 4, 8, 8, 0, 1, 1, 0, 0, 0, 0, 6, 3, 4, 1, 0, 10, 8, 4, 0, 0, 0, 5, 0, 5, 0, 9, 0, 0, 0, 0, 0, 6, 2, 0, 0, 3, 0, 0]);

suc = [
   {2, 3, 4},
   {27, 69, 5},
   {41, 75, 70},
   {8, 6, 7},
   {10, 19, 12},
   {45, 37, 15},
   {41, 26},
   {9, 22, 78},
   {16, 24, 81},
   {11, 13, 23},
   {72, 33, 14},
   {40, 83, 46},
   {20, 76, 39},
   {18, 68, 66},
   {17, 42, 19},
   {56, 38, 31},
   {40, 53, 71},
   {57, 21, 38},
   {34, 67, 30},
   {57, 28, 37},
   {64, 50, 36},
   {51, 35, 52},
   {25, 43, 31},
   {48, 57},
   {36, 52, 47},
   {85, 54},
   {59, 38, 39},
   {58, 44, 29},
   {32, 49, 61},
   {73, 46, 31},
   {85},
   {82, 43, 45},
   {51, 36, 55},
   {62},
   {73, 70, 47},
   {48, 44, 70},
   {72, 66, 53},
   {48, 44, 71},
   {58, 74, 54},
   {82, 51, 60},
   {86},
   {56, 49, 59},
   {88, 59, 46},
   {65},
   {63, 53, 47},
   {80, 89, 55},
   {72},
   {58, 75, 74},
   {66, 52, 68},
   {54, 87},
   {61, 79},
   {64, 60},
   {90},
   {55},
   {78},
   {65, 69, 62},
   {65, 61},
   {73},
   {64, 60, 63},
   {67},
   {62},
   {80},
   {68},
   {90, 67},
   {84},
   {81, 71},
   {80},
   {91, 83, 78},
   {75},
   {74, 76},
   {87},
   {81},
   {77},
   {77},
   {76, 77},
   {87, 79},
   {82, 83, 79},
   {86},
   {84},
   {91},
   {91},
   {88, 86},
   {84},
   {85},
   {89},
   {90},
   {88},
   {89},
   {92},
   {92},
   {92},
   {  } ];

deadline = array2d(1..92, 1..3, [1, 3, 3, 2, 5, 2, 4, 5, 2, 5, 3, 1, 5, 5, 0, 17, 5, 2, 17, 1, 5, 18, 2, 1, 23, 2, 5, 24, 3, 1, 25, 1, 5, 29, 1, 3, 30, 3, 4, 33, 0, 0, 39, 3, 4, 43, 2, 5, 46, 5, 0, 47, 0, 2, 47, 0, 0, 48, 1, 2, 54, 0, 4, 60, 0, 3, 61, 0, 1, 62, 4, 4, 69, 3, 5, 69, 5, 2, 72, 2, 2, 74, 0, 5, 80, 4, 4, 84, 3, 0, 86, 1, 1, 88, 3, 0, 91, 1, 3, 93, 0, 5, 95, 0, 5, 96, 1, 4, 97, 3, 2, 98, 0, 0, 112, 2, 5, 115, 1, 0, 115, 2, 1, 122, 1, 2, 128, 3, 2, 133, 4, 3, 137, 5, 2, 139, 4, 4, 143, 5, 3, 145, 4, 1, 148, 3, 3, 148, 3, 1, 149, 1, 1, 149, 4, 2, 159, 1, 2, 162, 3, 3, 168, 0, 3, 168, 5, 5, 170, 2, 5, 170, 3, 4, 171, 0, 1, 176, 5, 0, 177, 4, 5, 177, 5, 2, 178, 2, 2, 179, 3, 5, 181, 2, 1, 187, 0, 2, 188, 1, 3, 189, 4, 5, 193, 3, 5, 194, 4, 4, 200, 5, 4, 202, 2, 5, 203, 1, 4, 203, 0, 2, 203, 5, 1, 204, 5, 1, 205, 2, 0, 209, 0, 5, 210, 4, 3, 211, 0, 3, 213, 2, 2, 214, 0, 3, 215, 2, 3, 218, 0, 2, 218, 1, 3, 219, 2, 3, 222, 5, 4, 225, 3, 4, 225, 3, 1, 228, 2, 0, 229, 3, 2, 235, 0, 5]);
