n_res = 4;
rc = [ 28, 37, 28, 37 ];
n_tasks = 92;
d = [0, 7, 3, 2, 9, 8, 2, 10, 10, 6, 6, 4, 5, 8, 2, 4, 6, 7, 4, 1, 4, 2, 3, 10, 10, 3, 7, 5, 8, 3, 5, 8, 10, 5, 2, 2, 8, 8, 7, 3, 7, 2, 9, 9, 8, 2, 8, 8, 5, 7, 2, 3, 10, 1, 1, 8, 8, 3, 6, 10, 9, 4, 1, 1, 3, 7, 8, 5, 9, 2, 10, 10, 4, 8, 1, 1, 2, 4, 9, 10, 6, 1, 8, 6, 3, 9, 8, 6, 8, 10, 6, 0];
rr = array2d(1..4, 1..92, [0, 0, 4, 0, 3, 7, 0, 0, 6, 5, 0, 0, 0, 0, 0, 7, 0, 7, 0, 7, 0, 7, 0, 0, 0, 0, 10, 4, 1, 10, 0, 7, 0, 2, 6, 0, 0, 0, 4, 2, 0, 6, 2, 0, 0, 4, 6, 0, 10, 2, 0, 9, 9, 0, 3, 6, 4, 0, 7, 0, 0, 4, 0, 0, 0, 0, 6, 0, 5, 0, 0, 0, 0, 1, 7, 0, 0, 0, 3, 4, 0, 6, 0, 3, 9, 4, 10, 0, 0, 0, 9, 0, 0, 8, 0, 0, 0, 0, 4, 8, 5, 7, 9, 0, 3, 0, 0, 2, 3, 5, 0, 0, 6, 0, 0, 2, 9, 6, 0, 0, 0, 0, 1, 9, 6, 10, 0, 0, 0, 0, 4, 1, 2, 0, 0, 4, 3, 6, 0, 2, 0, 0, 5, 7, 0, 0, 3, 0, 0, 0, 4, 3, 1, 8, 8, 0, 0, 3, 5, 0, 0, 0, 9, 5, 2, 0, 0, 0, 0, 0, 0, 10, 8, 0, 0, 2, 0, 9, 2, 9, 8, 8, 0, 0, 0, 0, 5, 1, 0, 0, 10, 0, 0, 0, 1, 6, 0, 1, 7, 5, 3, 0, 0, 3, 0, 4, 9, 3, 0, 0, 0, 0, 0, 0, 10, 2, 0, 1, 0, 8, 0, 0, 0, 0, 0, 0, 0, 0, 9, 3, 0, 1, 9, 4, 0, 0, 0, 1, 0, 0, 6, 6, 4, 9, 0, 8, 7, 9, 0, 0, 0, 7, 0, 1, 0, 0, 0, 0, 6, 0, 4, 7, 0, 7, 3, 5, 9, 8, 6, 8, 3, 0, 0, 8, 9, 0, 0, 8, 4, 0, 0, 0, 0, 0, 0, 0, 0, 0, 0, 0, 3, 0, 1, 8, 8, 0, 0, 0, 0, 3, 0, 7, 10, 1, 8, 1, 1, 5, 0, 0, 9, 0, 8, 1, 0, 0, 0, 0, 7, 6, 7, 0, 5, 8, 10, 0, 0, 5, 3, 3, 3, 0, 0, 9, 0, 0, 0, 10, 6, 3, 5, 10, 0, 8, 1, 9, 10, 0, 7, 1, 0, 7, 3, 6, 9, 6, 0, 5, 0, 0, 0, 1, 0, 0, 0, 0, 2, 0]);

suc = [
   {2, 3, 4},
   {12, 5, 31},
   {9, 27, 6},
   {8, 43, 29},
   {10, 15, 7},
   {32, 67, 51},
   {8, 17, 59},
   {72, 37, 47},
   {16, 28, 38},
   {19, 11, 30},
   {38, 53, 22},
   {40, 13, 14},
   {25, 18, 21},
   {16, 64, 44},
   {24, 71, 55},
   {46, 63},
   {49, 79},
   {51, 36, 45},
   {26, 20, 22},
   {65, 33, 52},
   {77},
   {50, 60, 23},
   {40, 36, 79},
   {42, 28},
   {81, 58, 82},
   {66, 61, 70},
   {34},
   {80, 34, 88},
   {37, 79},
   {34, 37, 54},
   {85, 45, 39},
   {56, 68, 39},
   {40, 49, 43},
   {51, 35, 52},
   {64, 68},
   {41, 78, 55},
   {83, 63, 39},
   {60, 61},
   {58, 84},
   {57, 74, 75},
   {46},
   {56, 59, 45},
   {57, 90},
   {62, 76, 54},
   {67, 62},
   {91, 69, 54},
   {48, 49, 61},
   {50, 53, 63},
   {56, 60, 53},
   {65, 74, 69},
   {72, 65, 76},
   {66, 67},
   {58, 78, 55},
   {70, 71},
   {57},
   {73},
   {88},
   {90},
   {64, 83, 77},
   {80},
   {69, 62},
   {73, 83},
   {71},
   {66, 90},
   {75, 77},
   {91, 76},
   {68, 70, 87},
   {72},
   {73},
   {74},
   {82, 84},
   {91},
   {80, 75},
   {89},
   {81, 84},
   {78},
   {85},
   {85},
   {81},
   {82},
   {87},
   {86},
   {88},
   {86},
   {86},
   {87},
   {89},
   {89},
   {92},
   {92},
   {92},
   {  } ];

deadline = array2d(1..92, 1..3, [8, 5, 5, 12, 1, 5, 17, 5, 3, 20, 4, 1, 23, 2, 1, 24, 4, 1, 25, 4, 1, 25, 2, 2, 28, 2, 0, 32, 4, 3, 34, 4, 2, 37, 3, 1, 39, 0, 2, 39, 4, 5, 39, 5, 0, 40, 5, 4, 41, 5, 5, 42, 5, 0, 46, 3, 1, 47, 2, 5, 50, 3, 4, 53, 3, 2, 57, 2, 1, 61, 1, 4, 62, 0, 0, 64, 4, 4, 66, 2, 2, 67, 1, 3, 67, 4, 3, 70, 5, 2, 74, 5, 3, 76, 1, 2, 77, 1, 1, 92, 0, 2, 92, 4, 4, 98, 0, 2, 98, 0, 4, 98, 2, 1, 99, 5, 1, 101, 2, 4, 108, 4, 5, 111, 3, 1, 115, 5, 4, 119, 2, 0, 126, 3, 5, 131, 2, 5, 134, 5, 4, 134, 0, 4, 135, 1, 2, 140, 1, 3, 140, 4, 3, 145, 2, 4, 146, 4, 0, 147, 1, 5, 151, 1, 2, 155, 5, 4, 163, 2, 5, 168, 4, 2, 168, 3, 0, 170, 2, 4, 171, 0, 4, 175, 3, 4, 175, 1, 2, 178, 2, 5, 180, 4, 2, 181, 1, 5, 181, 4, 0, 189, 0, 2, 193, 4, 4, 196, 0, 3, 197, 2, 1, 198, 5, 3, 206, 0, 2, 208, 5, 5, 211, 5, 1, 212, 4, 0, 219, 3, 5, 223, 3, 5, 223, 2, 5, 226, 0, 4, 226, 2, 5, 229, 4, 5, 234, 0, 2, 234, 0, 4, 237, 3, 0, 241, 3, 3, 242, 1, 1, 244, 3, 4, 245, 3, 3, 245, 2, 2, 246, 3, 5, 248, 4, 4]);
