n_res = 4;
rc = [ 60, 56, 45, 45 ];
n_tasks = 92;
d = [0, 3, 6, 10, 4, 9, 1, 10, 9, 10, 4, 3, 1, 2, 9, 1, 2, 8, 5, 2, 1, 4, 7, 3, 10, 9, 2, 2, 2, 4, 3, 9, 8, 3, 4, 9, 3, 7, 1, 2, 3, 7, 2, 4, 1, 5, 6, 4, 5, 2, 5, 3, 9, 5, 9, 8, 3, 2, 8, 2, 9, 9, 7, 8, 3, 6, 3, 6, 4, 10, 5, 3, 4, 7, 9, 1, 1, 6, 10, 10, 9, 7, 5, 10, 10, 7, 3, 5, 10, 2, 4, 0];
rr = array2d(1..4, 1..92, [0, 10, 10, 2, 0, 9, 0, 10, 0, 1, 0, 9, 10, 4, 0, 0, 0, 0, 1, 7, 0, 6, 10, 8, 9, 0, 4, 0, 5, 0, 0, 0, 7, 0, 10, 9, 10, 3, 1, 0, 0, 3, 0, 8, 0, 0, 0, 1, 0, 0, 0, 0, 5, 4, 10, 0, 10, 9, 10, 0, 0, 0, 10, 8, 0, 9, 0, 0, 4, 6, 7, 6, 0, 0, 0, 0, 3, 0, 0, 2, 4, 0, 0, 2, 0, 0, 6, 0, 0, 3, 10, 0, 0, 9, 1, 0, 0, 0, 7, 0, 4, 0, 1, 2, 0, 8, 2, 4, 8, 0, 1, 0, 3, 0, 0, 5, 0, 4, 7, 4, 0, 9, 4, 3, 0, 0, 0, 0, 9, 4, 9, 4, 0, 10, 0, 3, 4, 10, 9, 2, 8, 0, 0, 4, 4, 0, 3, 10, 0, 7, 10, 0, 6, 2, 0, 0, 0, 0, 2, 1, 0, 0, 0, 0, 0, 7, 4, 5, 6, 0, 0, 3, 0, 9, 10, 0, 3, 0, 8, 7, 6, 0, 3, 0, 0, 0, 0, 0, 0, 1, 6, 0, 0, 0, 10, 2, 9, 0, 0, 10, 0, 0, 2, 0, 0, 0, 0, 0, 5, 0, 10, 0, 0, 0, 2, 2, 0, 7, 3, 0, 0, 0, 0, 0, 9, 0, 2, 0, 2, 2, 9, 1, 4, 7, 9, 6, 0, 9, 8, 0, 5, 9, 0, 10, 10, 9, 0, 0, 3, 0, 0, 5, 0, 4, 0, 0, 0, 0, 8, 0, 0, 0, 5, 8, 0, 10, 0, 8, 0, 0, 0, 2, 0, 1, 0, 0, 0, 0, 9, 0, 10, 0, 7, 8, 0, 0, 0, 1, 0, 5, 0, 0, 7, 2, 1, 9, 7, 0, 5, 0, 0, 0, 0, 0, 0, 9, 6, 0, 1, 5, 10, 0, 10, 7, 10, 0, 0, 0, 10, 0, 0, 3, 0, 7, 7, 3, 0, 0, 0, 7, 0, 0, 2, 0, 0, 0, 0, 8, 0, 0, 9, 0, 0, 0, 3, 0, 9, 5, 1, 0, 10, 0, 2, 1, 0, 5, 8, 0, 0, 4, 6, 3, 0, 0, 7, 0, 5, 0]);

suc = [
   {2, 3, 4},
   {31},
   {72, 5},
   {8, 15, 7},
   {16, 17, 6},
   {9, 13, 14},
   {49, 10, 22},
   {33, 11},
   {64},
   {35, 27, 12},
   {48, 21},
   {18},
   {40, 42, 28},
   {23},
   {36, 53, 30},
   {24, 58, 68},
   {20, 29, 47},
   {73, 90, 19},
   {25},
   {59, 46},
   {62},
   {50, 38, 71},
   {81, 26, 78},
   {37},
   {48},
   {54},
   {41, 82},
   {83, 34, 51},
   {68},
   {65},
   {32, 87},
   {57, 43, 61},
   {57},
   {58},
   {56, 52},
   {86},
   {57, 91},
   {39},
   {88},
   {46},
   {59},
   {44},
   {88},
   {75, 45},
   {85, 61},
   {63},
   {81},
   {68},
   {62},
   {62},
   {80, 55},
   {83},
   {58, 74, 69},
   {75},
   {61},
   {59},
   {60},
   {82},
   {81},
   {64, 70},
   {76},
   {88},
   {66},
   {67},
   {84},
   {89, 79},
   {76, 78},
   {71},
   {77},
   {76},
   {75},
   {85},
   {80, 77},
   {85},
   {79},
   {86},
   {83},
   {86},
   {87},
   {84},
   {84},
   {90},
   {87},
   {91},
   {90},
   {89},
   {91},
   {89},
   {92},
   {92},
   {92},
   {  } ];

deadline = array2d(1..92, 1..3, [1, 1, 5, 3, 2, 5, 5, 2, 2, 5, 4, 0, 8, 1, 3, 8, 4, 4, 10, 1, 0, 10, 5, 2, 12, 5, 2, 12, 5, 2, 17, 4, 4, 17, 3, 3, 18, 4, 0, 19, 1, 0, 19, 0, 5, 20, 2, 0, 21, 2, 2, 24, 1, 1, 25, 0, 1, 25, 3, 3, 26, 5, 0, 27, 2, 3, 30, 1, 2, 38, 1, 5, 40, 0, 1, 46, 0, 5, 48, 4, 5, 54, 3, 3, 57, 4, 4, 57, 2, 0, 60, 0, 5, 60, 3, 4, 64, 0, 1, 64, 3, 4, 68, 1, 3, 69, 4, 5, 70, 2, 2, 71, 5, 0, 75, 1, 2, 78, 3, 1, 78, 3, 1, 81, 0, 4, 84, 5, 3, 86, 5, 1, 94, 2, 5, 99, 4, 5, 99, 2, 5, 100, 0, 0, 101, 4, 3, 103, 4, 1, 104, 1, 3, 104, 2, 0, 112, 0, 4, 112, 4, 0, 118, 5, 2, 126, 1, 1, 127, 3, 3, 127, 4, 3, 128, 4, 4, 130, 2, 2, 134, 4, 0, 139, 2, 4, 144, 0, 4, 146, 4, 4, 147, 0, 0, 148, 2, 1, 150, 0, 1, 151, 4, 3, 151, 2, 0, 155, 5, 0, 161, 2, 1, 164, 5, 2, 173, 1, 4, 176, 3, 2, 177, 2, 3, 180, 4, 0, 182, 3, 1, 191, 2, 4, 192, 5, 1, 193, 1, 2, 195, 1, 0, 196, 5, 0, 200, 2, 4, 200, 3, 1, 203, 4, 2, 203, 2, 5, 211, 5, 0, 212, 0, 0, 216, 1, 1, 217, 1, 0, 217, 1, 1, 219, 3, 5]);
