n_res = 4;
rc = [ 13, 14, 14, 14 ];
n_tasks = 92;
d = [0, 2, 8, 7, 6, 10, 1, 6, 7, 10, 5, 10, 5, 5, 10, 10, 7, 3, 7, 6, 5, 7, 8, 2, 8, 4, 4, 3, 10, 5, 8, 9, 8, 4, 2, 4, 8, 3, 3, 5, 9, 4, 9, 9, 7, 9, 6, 6, 5, 2, 5, 7, 9, 8, 9, 8, 5, 6, 6, 10, 3, 5, 1, 5, 3, 6, 9, 6, 5, 2, 9, 4, 2, 2, 4, 2, 6, 9, 5, 8, 7, 6, 10, 8, 3, 6, 4, 8, 10, 2, 10, 0];
rr = array2d(1..4, 1..92, [0, 5, 3, 0, 1, 0, 0, 9, 7, 6, 0, 0, 0, 10, 0, 0, 0, 0, 0, 0, 0, 0, 0, 10, 0, 0, 0, 0, 0, 6, 0, 0, 6, 0, 7, 5, 0, 0, 0, 0, 0, 0, 0, 2, 0, 0, 0, 0, 2, 0, 0, 0, 0, 0, 0, 0, 0, 3, 0, 4, 0, 0, 0, 0, 0, 9, 0, 5, 2, 9, 1, 0, 0, 0, 2, 0, 0, 0, 0, 0, 0, 0, 9, 0, 8, 0, 10, 0, 0, 0, 0, 0, 0, 0, 0, 0, 0, 0, 7, 0, 0, 0, 0, 7, 7, 0, 0, 0, 0, 0, 0, 10, 0, 7, 0, 0, 4, 9, 0, 0, 5, 0, 8, 0, 0, 0, 0, 0, 0, 8, 0, 0, 0, 0, 0, 0, 0, 9, 6, 1, 0, 4, 4, 0, 0, 0, 0, 0, 0, 0, 0, 0, 4, 0, 0, 2, 0, 0, 0, 0, 0, 0, 0, 0, 1, 2, 0, 0, 0, 3, 8, 10, 10, 0, 0, 10, 0, 5, 0, 0, 4, 0, 0, 0, 0, 0, 0, 0, 0, 4, 0, 0, 0, 0, 1, 0, 0, 0, 0, 1, 0, 10, 0, 0, 2, 0, 0, 0, 0, 0, 0, 7, 0, 0, 0, 0, 0, 10, 0, 0, 4, 0, 0, 0, 5, 7, 0, 0, 0, 0, 0, 0, 0, 0, 0, 0, 10, 4, 3, 0, 3, 0, 0, 0, 0, 0, 0, 0, 0, 0, 3, 0, 0, 0, 0, 10, 0, 0, 0, 9, 0, 0, 0, 0, 0, 9, 0, 0, 0, 0, 0, 5, 0, 8, 7, 0, 0, 0, 0, 1, 0, 0, 0, 0, 0, 0, 0, 0, 0, 0, 7, 0, 5, 0, 8, 0, 0, 0, 7, 0, 0, 0, 5, 0, 0, 0, 0, 8, 0, 0, 0, 0, 0, 0, 1, 6, 0, 0, 6, 0, 9, 0, 0, 0, 0, 0, 0, 9, 0, 0, 0, 3, 0, 0, 9, 0, 0, 6, 3, 0, 8, 0, 0, 0, 0, 0, 0, 0, 0, 0, 0, 0, 8, 0, 0, 0, 0, 0, 0, 0, 0, 0, 0, 0, 0, 0, 0, 0]);

suc = [
   {2, 3, 4},
   {9, 34, 20},
   {8, 5, 6},
   {51},
   {50, 37, 7},
   {17, 10, 26},
   {27, 68, 21},
   {16, 11, 15},
   {90, 44, 46},
   {19, 12, 29},
   {20, 30, 47},
   {24, 13, 14},
   {18},
   {28, 37, 68},
   {40, 59, 69},
   {56, 34, 47},
   {32, 81, 78},
   {43, 47, 23},
   {42, 22, 31},
   {77, 53, 55},
   {25, 67, 43},
   {37, 54},
   {66},
   {34, 61, 54},
   {40, 74, 44},
   {88, 41, 74},
   {43, 28, 71},
   {35, 61, 54},
   {38},
   {33, 66, 53},
   {59, 36, 84},
   {65, 70, 39},
   {41, 68, 49},
   {57, 71, 63},
   {49},
   {66, 60, 38},
   {64, 44, 69},
   {65, 58, 77},
   {48, 46},
   {58, 53, 87},
   {56, 45, 46},
   {48, 50, 59},
   {57, 70, 55},
   {73},
   {64, 81, 79},
   {75, 60},
   {49},
   {61, 62},
   {65, 51, 70},
   {56, 51},
   {52, 55},
   {57, 60},
   {84},
   {58},
   {64, 80, 63},
   {86},
   {82, 77, 79},
   {80, 62},
   {76, 62, 71},
   {86},
   {67, 69},
   {72, 63},
   {86},
   {72, 84},
   {74, 67},
   {78},
   {75},
   {80, 73, 91},
   {73, 75, 76},
   {72, 83},
   {88},
   {82},
   {85},
   {82, 76},
   {85},
   {83, 79},
   {88, 78},
   {90, 83},
   {85},
   {81},
   {90},
   {91},
   {87},
   {91},
   {87},
   {89},
   {89},
   {89},
   {92},
   {92},
   {92},
   {  } ];

deadline = array2d(1..92, 1..3, [11, 2, 4, 14, 4, 5, 15, 0, 0, 17, 5, 4, 21, 5, 5, 23, 1, 2, 24, 0, 5, 24, 0, 2, 33, 5, 3, 33, 1, 4, 34, 1, 1, 36, 5, 1, 36, 0, 2, 37, 1, 1, 39, 0, 2, 40, 4, 5, 42, 1, 4, 47, 4, 5, 47, 5, 4, 58, 2, 2, 59, 4, 0, 62, 5, 5, 68, 4, 2, 69, 0, 1, 70, 2, 5, 75, 1, 3, 78, 2, 2, 82, 2, 5, 82, 3, 4, 90, 1, 1, 93, 4, 0, 96, 5, 5, 114, 1, 1, 114, 1, 5, 114, 1, 5, 115, 2, 3, 116, 5, 4, 118, 4, 5, 121, 2, 0, 124, 5, 2, 133, 0, 2, 135, 0, 1, 136, 2, 1, 142, 2, 3, 149, 1, 0, 151, 5, 3, 153, 0, 0, 154, 5, 5, 158, 0, 0, 160, 3, 2, 162, 5, 0, 165, 1, 5, 170, 2, 3, 170, 4, 1, 174, 0, 4, 176, 5, 0, 184, 0, 2, 185, 0, 2, 189, 1, 4, 190, 4, 2, 193, 0, 1, 196, 4, 1, 201, 0, 2, 203, 2, 0, 206, 2, 1, 207, 2, 2, 210, 2, 0, 211, 5, 0, 217, 2, 4, 217, 5, 2, 218, 0, 2, 224, 0, 5, 226, 2, 1, 226, 5, 4, 231, 0, 4, 232, 1, 0, 233, 1, 3, 234, 5, 0, 236, 4, 2, 238, 5, 3, 246, 4, 0, 247, 1, 5, 249, 4, 1, 250, 2, 2, 251, 0, 2, 262, 4, 5, 265, 2, 5, 266, 2, 0, 270, 0, 0, 277, 2, 5, 278, 1, 1, 280, 3, 4]);
