n_res = 4;
rc = [ 18, 17, 18, 18 ];
n_tasks = 92;
d = [0, 10, 7, 9, 6, 9, 7, 9, 7, 2, 10, 4, 2, 1, 9, 7, 3, 8, 1, 7, 9, 10, 9, 4, 2, 2, 10, 2, 4, 4, 6, 4, 5, 4, 5, 9, 1, 5, 5, 1, 10, 7, 5, 5, 6, 9, 5, 2, 6, 2, 6, 3, 5, 7, 6, 7, 7, 7, 7, 8, 5, 1, 10, 2, 1, 10, 2, 10, 6, 3, 9, 5, 4, 7, 9, 5, 9, 3, 9, 9, 10, 1, 7, 1, 7, 6, 2, 1, 9, 7, 10, 0];
rr = array2d(1..4, 1..92, [0, 4, 0, 0, 2, 2, 4, 8, 0, 0, 0, 4, 0, 5, 0, 0, 4, 0, 4, 0, 0, 0, 6, 6, 8, 9, 0, 7, 3, 0, 0, 6, 0, 5, 0, 8, 0, 6, 0, 3, 0, 6, 7, 0, 0, 0, 8, 10, 0, 0, 3, 6, 1, 3, 0, 0, 6, 0, 0, 2, 0, 7, 0, 5, 0, 0, 4, 0, 0, 0, 0, 0, 6, 0, 8, 5, 6, 6, 0, 0, 0, 6, 6, 0, 10, 3, 4, 9, 1, 0, 9, 0, 0, 2, 0, 2, 5, 0, 1, 1, 1, 0, 7, 0, 10, 6, 0, 0, 8, 4, 7, 9, 0, 10, 1, 0, 1, 0, 1, 0, 0, 0, 0, 0, 6, 0, 6, 0, 1, 0, 5, 0, 5, 0, 0, 0, 8, 1, 0, 8, 0, 0, 0, 9, 1, 0, 3, 6, 0, 0, 0, 0, 3, 0, 9, 0, 0, 0, 10, 4, 1, 0, 10, 3, 5, 1, 0, 6, 0, 4, 3, 1, 1, 0, 0, 3, 0, 0, 2, 1, 10, 0, 0, 0, 0, 10, 0, 8, 0, 0, 0, 0, 0, 3, 2, 1, 2, 0, 8, 7, 1, 9, 4, 0, 0, 6, 7, 5, 9, 9, 1, 0, 0, 8, 9, 0, 7, 10, 0, 4, 10, 0, 0, 0, 0, 0, 0, 0, 2, 0, 0, 0, 10, 0, 5, 0, 0, 0, 0, 3, 0, 0, 7, 7, 0, 0, 1, 3, 0, 3, 0, 0, 9, 1, 0, 6, 3, 4, 0, 0, 0, 0, 0, 7, 0, 0, 10, 0, 3, 9, 8, 5, 0, 0, 6, 0, 0, 3, 6, 0, 5, 3, 0, 0, 0, 4, 3, 0, 0, 9, 0, 0, 0, 0, 0, 9, 5, 4, 0, 0, 0, 0, 0, 0, 0, 0, 0, 1, 0, 0, 0, 0, 0, 0, 0, 8, 2, 0, 5, 8, 0, 6, 5, 3, 0, 2, 6, 6, 0, 0, 1, 7, 8, 2, 0, 2, 7, 0, 5, 1, 9, 2, 0, 0, 6, 0, 0, 0, 0, 0, 0, 0, 8, 4, 10, 9, 7, 5, 8, 1, 9, 7, 0, 0, 5, 4, 0, 0]);

suc = [
   {2, 3, 4},
   {27, 33, 11},
   {18, 6, 22},
   {8, 5},
   {19, 14},
   {16, 9, 7},
   {56},
   {24, 62, 31},
   {10, 21, 15},
   {63, 47},
   {43, 12, 60},
   {17, 13, 39},
   {25, 35},
   {16},
   {51},
   {26, 20, 61},
   {84},
   {40, 42},
   {41, 45},
   {29},
   {32, 71},
   {51, 23},
   {49},
   {30},
   {48},
   {59, 30},
   {89, 28, 37},
   {48},
   {34, 38},
   {49, 53},
   {61},
   {36, 86},
   {71},
   {89},
   {64, 69},
   {44},
   {52},
   {85},
   {50, 58},
   {51},
   {83},
   {88},
   {73, 57},
   {78, 46},
   {80, 83},
   {74},
   {67, 79},
   {57},
   {67},
   {84},
   {76},
   {54},
   {66, 68, 79},
   {66, 55},
   {72, 57},
   {63},
   {74, 85},
   {79},
   {71},
   {81},
   {65, 70},
   {73, 76},
   {76},
   {68},
   {78},
   {82},
   {80, 74},
   {77},
   {70},
   {82},
   {77},
   {73},
   {75},
   {90},
   {77},
   {83},
   {82},
   {85},
   {86},
   {87},
   {91, 84},
   {87},
   {87},
   {86},
   {88},
   {89},
   {88},
   {90},
   {92},
   {92},
   {92},
   {  } ];

deadline = array2d(1..92, 1..3, [7, 1, 2, 8, 1, 2, 14, 3, 2, 16, 2, 1, 17, 4, 3, 20, 3, 0, 21, 2, 1, 24, 3, 4, 25, 0, 4, 26, 0, 3, 27, 1, 4, 27, 2, 3, 28, 0, 3, 28, 1, 1, 34, 3, 4, 35, 5, 3, 37, 1, 5, 38, 5, 5, 39, 5, 5, 39, 5, 4, 40, 5, 3, 40, 0, 0, 40, 4, 3, 41, 2, 0, 43, 1, 1, 45, 0, 5, 45, 0, 2, 46, 5, 2, 46, 2, 4, 48, 5, 5, 49, 1, 4, 51, 4, 2, 52, 4, 3, 52, 0, 2, 55, 0, 5, 61, 1, 1, 62, 1, 5, 66, 5, 3, 67, 3, 4, 69, 3, 3, 70, 4, 1, 73, 5, 0, 74, 5, 4, 74, 3, 1, 74, 0, 5, 78, 0, 3, 79, 4, 0, 80, 5, 4, 80, 3, 1, 83, 2, 1, 85, 2, 4, 87, 4, 0, 96, 1, 5, 96, 0, 3, 97, 1, 1, 98, 1, 5, 99, 1, 3, 100, 2, 5, 105, 1, 3, 106, 2, 5, 108, 2, 4, 108, 1, 5, 110, 5, 3, 112, 2, 5, 118, 0, 2, 118, 4, 5, 122, 2, 3, 122, 3, 0, 122, 4, 3, 124, 3, 4, 124, 0, 4, 125, 1, 3, 135, 4, 1, 135, 4, 4, 136, 1, 2, 137, 4, 5, 138, 5, 5, 142, 1, 3, 145, 0, 0, 146, 2, 2, 147, 5, 0, 160, 5, 0, 164, 5, 4, 167, 2, 2, 168, 2, 1, 168, 5, 1, 170, 5, 3, 173, 5, 4, 173, 1, 0, 179, 4, 1, 184, 4, 3, 187, 3, 0]);
