n_res = 4;
rc = [ 37, 18, 28, 24 ];
n_tasks = 92;
d = [0, 7, 5, 9, 4, 5, 4, 5, 5, 5, 7, 10, 8, 4, 5, 2, 3, 7, 4, 3, 1, 4, 8, 7, 6, 8, 4, 4, 1, 1, 9, 7, 8, 2, 10, 6, 1, 10, 5, 10, 7, 6, 6, 8, 5, 9, 9, 7, 9, 9, 3, 10, 3, 8, 10, 9, 4, 5, 4, 5, 2, 5, 2, 2, 7, 3, 7, 8, 6, 7, 4, 2, 7, 4, 5, 6, 2, 10, 5, 6, 2, 2, 1, 1, 4, 3, 7, 2, 10, 8, 9, 0];
rr = array2d(1..4, 1..92, [0, 0, 0, 0, 0, 0, 0, 0, 0, 5, 0, 0, 0, 10, 7, 0, 4, 3, 0, 0, 0, 0, 6, 0, 6, 2, 10, 0, 2, 0, 8, 0, 0, 7, 3, 7, 0, 0, 0, 0, 0, 7, 5, 0, 0, 0, 2, 0, 0, 0, 0, 1, 0, 8, 0, 0, 0, 0, 5, 0, 2, 0, 8, 0, 9, 0, 0, 4, 1, 0, 0, 10, 8, 0, 0, 0, 2, 0, 2, 0, 0, 0, 0, 0, 0, 0, 0, 10, 0, 3, 8, 0, 0, 0, 9, 0, 0, 0, 0, 0, 2, 0, 0, 0, 0, 0, 0, 8, 0, 0, 0, 0, 1, 5, 0, 0, 0, 0, 0, 0, 0, 5, 0, 2, 0, 0, 0, 0, 0, 0, 0, 0, 9, 0, 0, 4, 0, 0, 0, 0, 0, 0, 0, 0, 0, 0, 7, 9, 0, 0, 0, 8, 0, 9, 0, 1, 0, 0, 0, 0, 0, 0, 5, 0, 0, 0, 0, 6, 0, 4, 0, 0, 0, 1, 8, 0, 0, 0, 0, 0, 1, 0, 0, 0, 0, 0, 0, 7, 7, 3, 2, 4, 0, 0, 0, 6, 0, 0, 0, 0, 0, 0, 6, 6, 0, 0, 0, 0, 0, 0, 0, 0, 0, 0, 0, 0, 9, 0, 0, 0, 0, 7, 0, 5, 0, 0, 0, 0, 8, 6, 0, 5, 0, 0, 0, 0, 7, 0, 0, 0, 7, 8, 0, 0, 0, 0, 0, 0, 0, 0, 0, 0, 0, 10, 0, 0, 0, 3, 0, 0, 0, 0, 0, 7, 0, 0, 0, 10, 6, 0, 0, 0, 0, 0, 0, 0, 0, 7, 0, 0, 0, 0, 0, 0, 0, 0, 10, 0, 4, 0, 0, 0, 0, 0, 0, 0, 0, 0, 0, 10, 0, 0, 0, 6, 0, 0, 0, 0, 0, 0, 0, 0, 8, 0, 10, 0, 0, 0, 0, 0, 0, 0, 0, 0, 6, 1, 10, 0, 0, 0, 0, 0, 0, 0, 0, 0, 0, 0, 0, 0, 0, 4, 6, 0, 0, 0, 0, 0, 0, 0, 1, 0, 0, 0, 0, 0, 8, 0, 0, 0, 0, 1, 4, 0, 0, 0, 0, 0]);

suc = [
   {2, 3, 4},
   {16, 5, 6},
   {55},
   {8, 63, 7},
   {33, 42},
   {27, 11, 39},
   {10, 15},
   {9, 13},
   {12, 45, 44},
   {34, 22},
   {18, 36, 23},
   {35, 28},
   {54, 17, 14},
   {40, 61, 21},
   {77, 38},
   {19, 20, 31},
   {75},
   {56, 26},
   {69, 30},
   {74, 37, 62},
   {24, 25, 84},
   {32, 80, 29},
   {65, 41, 38},
   {72},
   {48, 49, 28},
   {41, 79, 63},
   {52, 61, 76},
   {33},
   {81, 46},
   {33, 67, 38},
   {91},
   {83},
   {52, 79},
   {50},
   {58, 85},
   {37, 46},
   {48, 88, 78},
   {60, 53},
   {43, 85, 78},
   {56, 74, 70},
   {59, 53},
   {56},
   {64, 47},
   {57},
   {51},
   {65, 54},
   {70},
   {76},
   {73, 51, 52},
   {72},
   {81, 58},
   {57, 86},
   {80, 62},
   {67},
   {65, 68},
   {68},
   {80, 58},
   {62},
   {60, 78},
   {68},
   {67},
   {91, 87},
   {82, 69},
   {70, 71},
   {66},
   {69},
   {75},
   {72},
   {74, 84},
   {73, 84},
   {73},
   {91, 83, 87},
   {75},
   {76},
   {79},
   {83, 77},
   {85, 86},
   {86},
   {82},
   {81, 82},
   {90},
   {88, 89},
   {90},
   {87},
   {89},
   {89},
   {88},
   {90},
   {92},
   {92},
   {92},
   {  } ];

deadline = array2d(1..92, 1..3, [5, 5, 2, 6, 4, 0, 9, 1, 5, 9, 3, 4, 11, 5, 2, 12, 4, 2, 13, 4, 3, 17, 0, 2, 18, 3, 5, 20, 0, 0, 24, 2, 1, 33, 4, 4, 34, 5, 3, 36, 0, 3, 37, 2, 1, 37, 1, 3, 39, 4, 5, 39, 5, 4, 40, 3, 1, 43, 1, 3, 49, 2, 0, 51, 4, 3, 55, 1, 3, 59, 4, 3, 59, 1, 2, 61, 2, 2, 63, 3, 2, 65, 5, 0, 66, 2, 2, 69, 5, 1, 70, 4, 3, 70, 4, 4, 75, 2, 0, 76, 5, 3, 81, 3, 1, 82, 3, 2, 82, 1, 2, 85, 5, 5, 85, 5, 5, 86, 2, 5, 88, 1, 2, 89, 0, 4, 90, 0, 5, 92, 5, 4, 92, 5, 0, 93, 3, 1, 94, 5, 5, 97, 0, 2, 97, 5, 1, 101, 1, 0, 102, 3, 5, 102, 3, 0, 105, 4, 2, 106, 1, 4, 107, 3, 2, 108, 4, 2, 115, 2, 1, 123, 4, 2, 124, 0, 2, 124, 4, 4, 128, 4, 3, 129, 2, 1, 141, 0, 2, 143, 4, 5, 145, 2, 2, 145, 2, 5, 148, 5, 1, 151, 3, 0, 155, 3, 5, 156, 0, 5, 159, 0, 1, 165, 5, 1, 170, 5, 3, 171, 2, 1, 173, 4, 4, 178, 2, 0, 186, 1, 2, 187, 3, 0, 189, 0, 3, 189, 3, 2, 194, 4, 4, 200, 0, 1, 200, 1, 3, 203, 4, 3, 205, 3, 2, 207, 0, 4, 208, 4, 1, 210, 3, 4, 213, 5, 5, 214, 2, 3, 215, 3, 3, 215, 3, 5]);
