n_res = 4;
rc = [ 24, 23, 23, 25 ];
n_tasks = 92;
d = [0, 9, 4, 2, 7, 5, 8, 4, 6, 2, 2, 8, 6, 4, 2, 6, 6, 8, 3, 6, 7, 7, 8, 2, 4, 10, 9, 4, 9, 7, 1, 9, 7, 7, 9, 5, 7, 9, 6, 2, 8, 9, 7, 7, 5, 3, 5, 8, 4, 1, 1, 3, 3, 1, 1, 10, 3, 1, 8, 9, 8, 9, 7, 8, 4, 1, 3, 6, 9, 5, 9, 6, 5, 6, 10, 5, 7, 1, 2, 10, 5, 10, 3, 4, 3, 8, 3, 8, 1, 4, 1, 0];
rr = array2d(1..4, 1..92, [0, 0, 0, 0, 8, 0, 0, 0, 8, 1, 0, 0, 0, 0, 6, 3, 8, 0, 2, 0, 0, 1, 0, 1, 8, 5, 0, 0, 0, 0, 5, 0, 0, 0, 0, 0, 4, 0, 0, 4, 0, 0, 9, 0, 0, 0, 0, 0, 8, 3, 0, 0, 4, 0, 1, 0, 0, 0, 0, 8, 1, 0, 0, 0, 0, 0, 0, 0, 0, 0, 0, 0, 0, 6, 0, 0, 0, 0, 0, 0, 4, 0, 0, 0, 0, 0, 0, 0, 0, 2, 0, 0, 0, 0, 0, 2, 0, 0, 0, 0, 0, 0, 0, 4, 0, 0, 0, 0, 0, 0, 0, 0, 0, 0, 2, 0, 0, 0, 0, 0, 9, 0, 0, 2, 0, 8, 2, 5, 0, 1, 0, 0, 0, 8, 0, 0, 0, 0, 0, 6, 0, 0, 0, 7, 0, 0, 0, 10, 0, 0, 0, 0, 0, 6, 5, 0, 7, 0, 0, 8, 0, 5, 0, 0, 0, 0, 0, 0, 0, 5, 0, 3, 0, 7, 0, 0, 4, 0, 3, 8, 6, 0, 10, 0, 0, 7, 0, 0, 0, 0, 7, 0, 0, 0, 0, 0, 0, 5, 0, 0, 0, 0, 0, 0, 0, 0, 0, 0, 0, 0, 0, 6, 0, 0, 0, 0, 0, 0, 0, 0, 0, 0, 4, 0, 0, 0, 0, 6, 8, 7, 6, 0, 0, 0, 8, 0, 0, 0, 0, 0, 1, 5, 0, 0, 0, 0, 0, 0, 0, 9, 10, 0, 2, 0, 6, 0, 7, 0, 1, 0, 0, 0, 4, 0, 0, 0, 3, 0, 0, 0, 0, 0, 0, 0, 0, 0, 0, 0, 8, 0, 0, 5, 0, 10, 0, 0, 6, 0, 1, 0, 0, 0, 0, 10, 0, 1, 7, 0, 0, 0, 0, 0, 10, 0, 0, 10, 0, 0, 8, 0, 0, 0, 0, 0, 0, 0, 2, 0, 0, 0, 0, 0, 0, 0, 0, 0, 0, 0, 0, 5, 0, 0, 0, 0, 9, 0, 0, 0, 0, 3, 0, 0, 0, 0, 0, 0, 0, 10, 0, 0, 0, 5, 3, 0, 0, 0, 0, 0, 0, 1, 0, 8, 0, 0, 0, 0, 0, 0]);

suc = [
   {2, 3, 4},
   {27, 61, 30},
   {29, 21, 6},
   {60, 5, 31},
   {8, 12, 53},
   {9, 10, 7},
   {59, 11, 20},
   {17, 22, 15},
   {68, 69, 14},
   {16, 26, 13},
   {27, 52, 31},
   {35, 77, 29},
   {24, 50},
   {32, 35, 31},
   {50, 58, 82},
   {25, 34, 45},
   {18, 45, 23},
   {19},
   {28, 38},
   {24, 36},
   {25, 77, 33},
   {67, 30, 79},
   {28, 37, 47},
   {41, 43, 55},
   {64, 37, 71},
   {40, 48, 44},
   {38},
   {72, 67},
   {49, 50, 30},
   {66, 78, 47},
   {56, 51, 44},
   {48, 56, 64},
   {35, 55},
   {66, 90, 78},
   {59, 51, 39},
   {89, 74, 60},
   {62, 42, 38},
   {56, 51, 85},
   {44, 54, 47},
   {65, 41},
   {86, 60, 70},
   {59, 79},
   {49, 46},
   {57, 61, 71},
   {81, 57, 52},
   {68, 54, 63},
   {58, 75},
   {76, 53, 70},
   {74, 54},
   {52, 62},
   {73, 66},
   {68, 63, 55},
   {57, 82},
   {61, 79},
   {88},
   {58, 75},
   {84},
   {80, 73},
   {83, 84},
   {62},
   {64, 75, 70},
   {76},
   {65},
   {80, 81},
   {73, 69},
   {72},
   {77, 87, 71},
   {74},
   {72, 90},
   {82},
   {81},
   {88, 83},
   {90},
   {76, 85},
   {80, 87},
   {78},
   {84},
   {83},
   {87},
   {86},
   {86},
   {88},
   {91},
   {85},
   {91},
   {91},
   {89},
   {89},
   {92},
   {92},
   {92},
   {  } ];

deadline = array2d(1..92, 1..3, [1, 1, 4, 2, 1, 5, 2, 5, 2, 6, 0, 3, 7, 1, 3, 14, 0, 5, 16, 5, 2, 16, 5, 0, 18, 1, 1, 20, 5, 3, 27, 3, 4, 27, 1, 4, 30, 0, 2, 30, 2, 5, 30, 0, 4, 31, 5, 1, 31, 5, 2, 31, 4, 4, 32, 2, 2, 37, 1, 4, 39, 5, 1, 42, 2, 0, 44, 0, 1, 45, 3, 1, 54, 5, 4, 54, 3, 0, 56, 2, 1, 57, 0, 3, 59, 3, 5, 59, 3, 0, 62, 2, 2, 64, 1, 0, 66, 1, 1, 70, 2, 4, 81, 1, 3, 81, 5, 5, 83, 2, 3, 85, 1, 1, 86, 5, 2, 88, 5, 3, 88, 4, 0, 89, 4, 4, 90, 2, 3, 96, 4, 5, 100, 0, 3, 102, 5, 5, 103, 1, 1, 104, 3, 2, 107, 2, 0, 110, 3, 4, 111, 5, 2, 111, 2, 3, 112, 4, 4, 116, 1, 5, 116, 1, 2, 121, 1, 0, 121, 0, 2, 123, 4, 5, 126, 3, 0, 126, 3, 2, 127, 1, 3, 128, 2, 3, 129, 5, 5, 130, 0, 2, 138, 4, 5, 138, 0, 0, 139, 5, 5, 144, 4, 4, 146, 4, 5, 149, 3, 0, 150, 0, 3, 156, 5, 3, 157, 1, 2, 163, 5, 0, 164, 2, 5, 164, 3, 3, 166, 2, 3, 167, 0, 1, 171, 5, 5, 174, 4, 3, 178, 0, 0, 182, 0, 2, 184, 0, 4, 185, 4, 0, 187, 4, 1, 187, 3, 3, 190, 5, 2, 191, 4, 2, 193, 0, 0, 200, 5, 1, 201, 3, 3, 205, 4, 1]);
