n_res = 4;
rc = [ 17, 18, 19, 19 ];
n_tasks = 92;
d = [0, 7, 10, 6, 8, 10, 10, 5, 8, 5, 10, 5, 9, 4, 4, 4, 5, 3, 2, 3, 7, 8, 2, 2, 2, 6, 2, 1, 9, 9, 7, 5, 10, 7, 10, 2, 8, 6, 10, 9, 2, 4, 1, 9, 8, 7, 1, 6, 1, 5, 2, 9, 2, 4, 8, 2, 4, 9, 5, 6, 2, 8, 7, 10, 4, 4, 9, 4, 9, 4, 4, 2, 1, 4, 2, 10, 4, 9, 2, 1, 7, 4, 6, 6, 6, 6, 9, 2, 5, 6, 3, 0];
rr = array2d(1..4, 1..92, [0, 7, 0, 0, 0, 0, 2, 6, 7, 2, 0, 10, 1, 7, 2, 10, 2, 3, 8, 3, 0, 1, 0, 1, 0, 0, 0, 0, 5, 7, 0, 7, 3, 9, 5, 1, 3, 5, 0, 0, 8, 0, 7, 2, 0, 7, 9, 10, 0, 5, 10, 0, 10, 3, 0, 8, 3, 10, 2, 4, 0, 0, 7, 0, 3, 0, 7, 4, 6, 10, 6, 0, 3, 1, 0, 3, 10, 0, 5, 2, 0, 6, 4, 0, 7, 10, 0, 8, 8, 9, 5, 0, 0, 2, 0, 3, 0, 5, 5, 4, 2, 5, 8, 8, 0, 4, 0, 1, 9, 9, 0, 0, 0, 3, 7, 7, 1, 2, 8, 0, 0, 4, 1, 5, 0, 4, 7, 8, 8, 0, 3, 3, 0, 0, 3, 7, 2, 8, 1, 7, 10, 0, 1, 10, 9, 1, 6, 2, 8, 5, 0, 0, 5, 4, 2, 0, 7, 0, 4, 1, 5, 0, 0, 8, 5, 0, 4, 6, 7, 7, 3, 8, 4, 0, 2, 0, 5, 3, 0, 6, 3, 1, 0, 0, 0, 0, 1, 0, 8, 2, 10, 1, 7, 9, 1, 5, 7, 5, 0, 9, 10, 4, 4, 3, 8, 3, 0, 5, 7, 6, 3, 7, 0, 8, 3, 2, 0, 0, 7, 7, 6, 3, 3, 2, 0, 4, 1, 4, 0, 8, 7, 0, 2, 0, 0, 1, 8, 10, 10, 0, 2, 5, 4, 2, 3, 7, 0, 7, 8, 0, 4, 0, 10, 2, 0, 2, 0, 4, 9, 10, 2, 0, 1, 10, 3, 3, 6, 5, 3, 7, 4, 6, 6, 4, 3, 0, 0, 3, 8, 2, 6, 7, 10, 0, 2, 7, 0, 5, 9, 5, 10, 1, 0, 5, 10, 10, 10, 0, 9, 6, 6, 5, 0, 4, 7, 7, 7, 9, 3, 6, 9, 8, 5, 5, 0, 0, 6, 4, 4, 3, 4, 9, 9, 5, 7, 7, 0, 3, 3, 8, 4, 0, 0, 4, 2, 4, 5, 0, 7, 4, 3, 1, 0, 7, 8, 3, 8, 3, 3, 8, 2, 1, 1, 4, 0, 1, 2, 9, 0, 9, 4, 10, 10, 10, 0, 0, 6, 0]);

suc = [
   {2, 3, 4},
   {8, 5, 15},
   {11, 13, 23},
   {73, 12, 38},
   {12, 6, 22},
   {17, 18, 7},
   {16, 10, 37},
   {16, 9, 24},
   {41, 43, 14},
   {69, 79, 31},
   {17, 52},
   {31},
   {32, 40, 42},
   {64, 37, 29},
   {59, 19, 30},
   {25, 83, 51},
   {66, 69, 21},
   {34, 20, 50},
   {72, 57, 28},
   {64, 33, 26},
   {31},
   {36},
   {45},
   {49, 27, 46},
   {86, 55},
   {65, 53, 71},
   {50},
   {78},
   {60, 63, 39},
   {78},
   {54},
   {65},
   {48, 35, 53},
   {56},
   {82, 61},
   {63},
   {56, 71},
   {82},
   {44, 62},
   {48},
   {80, 74},
   {55, 47},
   {65, 75, 62},
   {87, 46, 47},
   {72, 52, 55},
   {57, 77},
   {77},
   {81},
   {71},
   {56},
   {85},
   {63},
   {58, 67},
   {88, 59, 61},
   {77},
   {84},
   {74, 70},
   {81},
   {80, 62},
   {82},
   {68},
   {67, 86},
   {86},
   {75, 70},
   {67, 70},
   {75},
   {90, 68},
   {83, 76},
   {73, 74},
   {76, 79},
   {84},
   {73, 78},
   {80, 76},
   {89},
   {87},
   {89},
   {90, 79},
   {84},
   {88},
   {81},
   {83},
   {90, 85},
   {87},
   {85},
   {88},
   {89, 91},
   {91},
   {91},
   {92},
   {92},
   {92},
   {  } ];

deadline = array2d(1..92, 1..3, [4, 4, 0, 4, 1, 3, 10, 0, 2, 15, 3, 5, 21, 0, 1, 22, 2, 0, 23, 4, 1, 25, 3, 2, 30, 4, 0, 39, 0, 4, 42, 1, 4, 46, 3, 0, 48, 0, 3, 49, 3, 0, 49, 1, 3, 49, 5, 2, 51, 1, 4, 54, 4, 4, 54, 3, 3, 54, 1, 4, 56, 3, 3, 56, 5, 4, 59, 5, 1, 63, 3, 0, 66, 1, 4, 68, 4, 4, 68, 3, 1, 68, 0, 4, 74, 4, 5, 75, 2, 5, 79, 2, 5, 81, 0, 2, 83, 5, 0, 83, 2, 4, 84, 0, 0, 95, 0, 1, 97, 3, 3, 99, 4, 5, 104, 5, 5, 106, 1, 2, 106, 2, 3, 108, 5, 4, 110, 3, 1, 113, 2, 2, 114, 0, 0, 119, 5, 4, 119, 0, 1, 124, 0, 2, 125, 2, 1, 125, 0, 2, 128, 4, 1, 134, 3, 3, 141, 2, 4, 150, 2, 1, 151, 1, 1, 151, 4, 5, 158, 5, 1, 160, 4, 5, 162, 2, 3, 169, 2, 1, 171, 0, 0, 177, 3, 4, 181, 3, 0, 186, 2, 5, 186, 0, 3, 186, 4, 3, 187, 3, 4, 195, 4, 1, 195, 5, 3, 195, 5, 3, 197, 1, 0, 198, 5, 4, 199, 2, 0, 200, 4, 0, 202, 3, 3, 203, 5, 4, 210, 1, 2, 211, 0, 1, 211, 2, 3, 213, 1, 5, 213, 1, 3, 216, 4, 3, 216, 4, 3, 216, 0, 5, 219, 2, 2, 221, 1, 2, 223, 3, 3, 227, 1, 0, 229, 0, 2, 231, 0, 0, 233, 0, 3, 237, 5, 2]);
