n_res = 4;
rc = [ 86, 72, 92, 80 ];
n_tasks = 92;
d = [0, 5, 6, 8, 2, 3, 7, 9, 7, 6, 3, 10, 6, 2, 8, 4, 3, 5, 3, 8, 7, 1, 9, 4, 1, 5, 7, 6, 10, 9, 6, 3, 1, 4, 1, 1, 1, 8, 7, 8, 5, 10, 8, 8, 2, 1, 3, 10, 3, 3, 9, 3, 5, 1, 3, 9, 8, 1, 4, 6, 4, 1, 5, 3, 9, 7, 8, 1, 3, 3, 4, 6, 10, 7, 4, 1, 7, 8, 3, 3, 3, 1, 1, 5, 1, 4, 9, 4, 3, 9, 2, 0];
rr = array2d(1..4, 1..92, [0, 4, 4, 4, 4, 4, 9, 9, 4, 9, 3, 10, 4, 4, 4, 1, 8, 4, 3, 1, 9, 6, 4, 7, 6, 5, 2, 1, 7, 6, 1, 6, 7, 8, 8, 2, 5, 5, 9, 10, 4, 10, 9, 9, 1, 9, 5, 9, 2, 3, 5, 10, 9, 9, 2, 1, 8, 5, 3, 6, 5, 6, 9, 7, 8, 4, 3, 3, 10, 2, 10, 8, 8, 5, 3, 6, 9, 10, 3, 5, 4, 9, 8, 2, 8, 8, 8, 6, 7, 6, 7, 0, 0, 10, 5, 9, 3, 9, 5, 1, 5, 9, 8, 6, 6, 9, 4, 10, 10, 1, 6, 6, 4, 2, 4, 2, 6, 9, 3, 9, 3, 9, 7, 10, 5, 9, 1, 10, 7, 4, 2, 9, 3, 2, 2, 8, 7, 9, 7, 2, 1, 10, 5, 6, 7, 3, 2, 1, 7, 1, 5, 9, 6, 6, 10, 1, 5, 9, 6, 9, 4, 4, 6, 9, 6, 5, 3, 1, 5, 10, 7, 5, 1, 3, 6, 10, 4, 2, 3, 6, 7, 3, 4, 0, 0, 7, 5, 8, 1, 9, 2, 5, 6, 3, 9, 10, 7, 1, 3, 2, 10, 2, 3, 3, 8, 1, 3, 6, 3, 4, 8, 7, 2, 5, 1, 5, 3, 5, 6, 8, 10, 7, 8, 9, 10, 7, 9, 5, 1, 8, 10, 2, 10, 10, 10, 10, 7, 2, 10, 6, 10, 3, 1, 4, 6, 3, 8, 10, 3, 4, 4, 9, 6, 6, 8, 2, 2, 3, 5, 7, 10, 9, 6, 2, 7, 3, 5, 4, 8, 1, 4, 6, 1, 2, 9, 0, 0, 10, 7, 3, 1, 3, 5, 9, 2, 8, 5, 6, 9, 2, 2, 9, 5, 7, 2, 5, 8, 1, 1, 4, 5, 10, 3, 1, 8, 1, 7, 8, 4, 9, 5, 10, 5, 9, 2, 10, 4, 2, 2, 2, 1, 6, 3, 1, 3, 5, 8, 6, 2, 6, 1, 9, 8, 3, 5, 1, 3, 1, 10, 3, 7, 7, 2, 3, 8, 4, 3, 6, 1, 8, 3, 7, 4, 9, 7, 3, 3, 2, 9, 10, 4, 4, 4, 1, 6, 1, 8, 0]);

suc = [
   {2, 3, 4},
   {10, 37, 14},
   {9, 5, 7},
   {6},
   {35, 22, 79},
   {8, 25, 7},
   {11, 12, 29},
   {59, 13, 47},
   {33, 27, 30},
   {17, 39, 15},
   {40, 19, 38},
   {16, 36, 52},
   {26, 58, 21},
   {49},
   {24, 50, 23},
   {33, 60},
   {48, 18},
   {51, 54},
   {56, 73, 20},
   {28, 53, 76},
   {56, 85, 46},
   {61, 70, 55},
   {48},
   {86, 78},
   {83},
   {75, 36},
   {65, 82},
   {34, 31},
   {42, 43, 44},
   {32, 41, 65},
   {33, 61, 71},
   {91},
   {45},
   {61, 45, 46},
   {88},
   {88, 82, 68},
   {57, 47},
   {59, 60},
   {83, 71},
   {79},
   {73},
   {75, 54},
   {65, 77, 46},
   {67, 54},
   {64},
   {74},
   {53, 62},
   {72},
   {52, 63},
   {57},
   {59},
   {80},
   {81},
   {69},
   {81, 57, 67},
   {67, 60, 77},
   {63},
   {72},
   {75},
   {80, 74},
   {68},
   {64},
   {66},
   {77},
   {72, 70},
   {71},
   {68, 76},
   {90},
   {74, 85, 70},
   {73},
   {84},
   {76, 78},
   {86},
   {87},
   {78},
   {80, 90, 87},
   {89},
   {79},
   {84},
   {89},
   {82, 83},
   {86},
   {84},
   {85, 87},
   {88},
   {90, 91},
   {89},
   {91},
   {92},
   {92},
   {92},
   {  } ];

deadline = array2d(1..92, 1..3, [1, 4, 4, 3, 3, 3, 4, 1, 3, 11, 0, 1, 15, 5, 3, 15, 1, 3, 16, 2, 1, 17, 0, 3, 22, 4, 5, 24, 1, 5, 24, 2, 2, 30, 2, 1, 44, 1, 5, 46, 3, 4, 46, 0, 1, 47, 5, 5, 49, 4, 3, 50, 3, 1, 52, 5, 1, 53, 3, 4, 54, 5, 1, 57, 2, 1, 60, 5, 4, 62, 2, 4, 64, 1, 2, 65, 4, 2, 67, 3, 0, 67, 5, 1, 68, 2, 0, 69, 4, 4, 70, 3, 1, 77, 2, 4, 78, 0, 0, 80, 2, 4, 81, 2, 0, 85, 0, 2, 94, 1, 4, 97, 4, 0, 97, 3, 4, 97, 3, 3, 101, 4, 2, 102, 4, 1, 104, 0, 3, 105, 3, 0, 106, 5, 5, 109, 3, 5, 115, 1, 5, 116, 4, 5, 116, 0, 3, 116, 0, 3, 117, 1, 1, 118, 5, 3, 118, 2, 4, 119, 1, 5, 119, 1, 0, 125, 5, 5, 128, 5, 0, 135, 5, 3, 136, 5, 4, 140, 5, 0, 142, 3, 5, 144, 0, 2, 147, 2, 3, 148, 4, 0, 148, 4, 1, 151, 4, 2, 152, 1, 0, 152, 5, 4, 152, 0, 2, 153, 3, 2, 154, 1, 3, 154, 4, 5, 156, 4, 5, 156, 1, 1, 158, 2, 5, 160, 0, 4, 169, 1, 5, 171, 3, 3, 171, 1, 1, 172, 0, 0, 174, 5, 5, 175, 2, 1, 177, 2, 0, 186, 2, 3, 186, 2, 5, 187, 3, 5, 188, 2, 2, 189, 2, 2, 191, 3, 1, 191, 3, 1, 192, 0, 2, 196, 3, 3]);
