n_res = 4;
rc = [ 61, 88, 75, 93 ];
n_tasks = 92;
d = [0, 7, 7, 5, 5, 8, 6, 8, 2, 2, 5, 8, 9, 3, 9, 8, 1, 7, 3, 5, 5, 1, 9, 4, 3, 9, 5, 6, 9, 5, 6, 8, 9, 7, 9, 3, 6, 2, 2, 2, 2, 8, 4, 2, 5, 9, 8, 7, 7, 7, 7, 9, 10, 6, 9, 1, 2, 8, 8, 1, 2, 5, 5, 9, 10, 4, 3, 2, 8, 4, 7, 5, 5, 9, 4, 7, 10, 2, 8, 2, 7, 9, 9, 8, 9, 8, 9, 2, 6, 2, 6, 0];
rr = array2d(1..4, 1..92, [0, 10, 4, 3, 7, 10, 3, 9, 3, 10, 8, 9, 0, 1, 9, 0, 7, 0, 2, 8, 8, 7, 9, 1, 0, 6, 3, 1, 6, 0, 2, 1, 1, 0, 1, 0, 5, 9, 9, 7, 5, 4, 4, 1, 3, 0, 5, 8, 0, 1, 0, 8, 0, 5, 6, 0, 7, 5, 3, 0, 4, 1, 0, 8, 9, 1, 0, 0, 6, 0, 8, 4, 8, 4, 9, 10, 7, 0, 10, 7, 0, 10, 1, 3, 9, 10, 0, 0, 8, 9, 6, 0, 0, 0, 2, 2, 9, 9, 2, 1, 0, 5, 0, 0, 8, 3, 2, 0, 10, 9, 1, 10, 2, 0, 1, 3, 10, 5, 0, 10, 2, 10, 0, 8, 4, 2, 9, 3, 8, 9, 0, 6, 4, 8, 5, 5, 0, 0, 2, 0, 1, 4, 4, 6, 4, 0, 0, 0, 0, 1, 3, 5, 0, 5, 4, 7, 9, 10, 10, 5, 4, 0, 0, 1, 9, 10, 3, 10, 9, 7, 4, 0, 10, 6, 0, 7, 4, 0, 4, 8, 0, 7, 5, 0, 0, 0, 2, 9, 1, 0, 1, 3, 0, 1, 9, 0, 10, 5, 7, 10, 2, 0, 8, 0, 7, 7, 5, 1, 8, 1, 0, 4, 5, 10, 0, 1, 3, 8, 9, 6, 0, 0, 6, 8, 4, 6, 2, 0, 1, 3, 0, 1, 4, 6, 7, 3, 7, 9, 9, 5, 0, 8, 4, 2, 10, 5, 2, 0, 10, 1, 1, 2, 9, 6, 0, 0, 10, 7, 1, 8, 3, 9, 4, 0, 0, 0, 10, 0, 9, 0, 6, 0, 2, 10, 0, 0, 0, 10, 0, 0, 3, 10, 0, 3, 2, 0, 0, 7, 6, 7, 4, 6, 0, 7, 0, 10, 2, 0, 5, 7, 9, 0, 0, 7, 9, 7, 7, 9, 3, 7, 0, 8, 0, 3, 3, 0, 2, 2, 2, 4, 1, 5, 3, 0, 7, 7, 5, 3, 5, 10, 8, 3, 10, 7, 8, 4, 0, 3, 10, 7, 7, 0, 9, 5, 0, 6, 2, 5, 6, 7, 6, 0, 0, 0, 7, 0, 2, 5, 5, 4, 4, 6, 9, 6, 0, 3, 4, 0]);

suc = [
   {2, 3, 4},
   {36, 14, 30},
   {74, 21},
   {5, 6, 7},
   {33, 10, 12},
   {8, 11, 45},
   {35, 37},
   {9, 34, 23},
   {24},
   {67, 15},
   {13, 39},
   {40, 17, 20},
   {16, 28, 22},
   {26, 19, 44},
   {18, 27, 58},
   {49, 55},
   {69, 29, 38},
   {24, 30},
   {59},
   {25, 71},
   {63},
   {32, 44},
   {80},
   {48, 42, 78},
   {65, 43, 76},
   {50, 53, 38},
   {59},
   {41, 31},
   {39},
   {73},
   {47},
   {69},
   {89},
   {86},
   {72},
   {60},
   {42},
   {64},
   {67, 86},
   {54, 70, 46},
   {71},
   {63},
   {56},
   {51},
   {64, 52},
   {47},
   {75},
   {81},
   {61},
   {52, 85},
   {57},
   {75},
   {63},
   {84},
   {68},
   {80},
   {73},
   {81, 66},
   {91, 62},
   {66},
   {82},
   {71},
   {84},
   {65, 74},
   {66},
   {90, 77},
   {72},
   {87},
   {78},
   {88},
   {79},
   {90},
   {88},
   {85},
   {80},
   {83},
   {84},
   {82},
   {86},
   {83},
   {82, 87},
   {88},
   {90},
   {85},
   {91},
   {89},
   {89},
   {91},
   {92},
   {92},
   {92},
   {  } ];

deadline = array2d(1..92, 1..3, [3, 0, 0, 11, 3, 0, 14, 5, 1, 18, 1, 0, 19, 0, 1, 20, 4, 4, 20, 2, 4, 21, 0, 5, 22, 0, 5, 25, 5, 4, 26, 5, 3, 40, 5, 1, 40, 5, 5, 41, 0, 3, 41, 1, 0, 44, 1, 5, 48, 5, 4, 49, 5, 1, 49, 3, 5, 51, 1, 4, 51, 5, 1, 51, 3, 3, 52, 0, 5, 55, 2, 5, 55, 1, 5, 62, 4, 1, 66, 0, 1, 69, 3, 3, 69, 3, 4, 70, 2, 2, 71, 3, 3, 72, 1, 3, 75, 1, 3, 77, 3, 3, 78, 0, 1, 83, 5, 4, 87, 1, 3, 88, 4, 1, 89, 5, 0, 90, 5, 4, 92, 2, 5, 92, 3, 3, 92, 5, 5, 93, 2, 0, 100, 5, 3, 101, 2, 1, 102, 2, 2, 103, 0, 4, 107, 4, 2, 107, 4, 2, 107, 1, 3, 108, 0, 5, 111, 0, 0, 111, 1, 4, 111, 0, 2, 114, 2, 2, 114, 3, 4, 115, 4, 2, 116, 3, 5, 119, 5, 4, 119, 0, 3, 121, 3, 2, 133, 0, 3, 137, 1, 0, 139, 1, 0, 140, 2, 2, 141, 1, 2, 144, 4, 2, 146, 4, 2, 150, 4, 5, 150, 2, 2, 151, 1, 0, 154, 0, 1, 156, 5, 5, 157, 1, 4, 161, 0, 4, 165, 1, 5, 166, 4, 1, 166, 1, 2, 167, 4, 5, 168, 5, 2, 171, 0, 4, 173, 1, 4, 175, 4, 1, 177, 5, 3, 179, 2, 0, 179, 2, 3, 182, 2, 4, 184, 4, 0, 187, 5, 3, 190, 2, 1, 191, 2, 2]);
