n_res = 4;
rc = [ 15, 16, 20, 20 ];
n_tasks = 92;
d = [0, 1, 7, 5, 6, 3, 6, 7, 5, 7, 8, 7, 9, 6, 10, 5, 1, 6, 1, 6, 9, 8, 9, 10, 6, 3, 1, 10, 2, 9, 3, 1, 5, 6, 1, 4, 2, 5, 5, 10, 6, 3, 4, 9, 3, 4, 2, 10, 4, 6, 9, 4, 3, 10, 2, 7, 6, 4, 7, 2, 4, 5, 6, 7, 9, 7, 2, 4, 9, 1, 6, 7, 3, 9, 3, 5, 5, 4, 7, 9, 4, 5, 9, 7, 6, 5, 2, 1, 6, 8, 3, 0];
rr = array2d(1..4, 1..92, [0, 10, 4, 0, 7, 8, 0, 0, 3, 0, 0, 2, 7, 5, 3, 1, 0, 0, 3, 1, 0, 2, 1, 0, 0, 9, 0, 8, 0, 6, 0, 9, 5, 0, 8, 0, 2, 6, 4, 0, 3, 8, 0, 3, 0, 0, 5, 1, 0, 9, 2, 0, 0, 0, 0, 0, 2, 0, 0, 2, 5, 1, 3, 0, 0, 0, 8, 0, 0, 3, 0, 9, 0, 4, 5, 0, 7, 10, 0, 0, 2, 5, 0, 0, 5, 0, 0, 0, 0, 0, 0, 0, 0, 2, 1, 0, 0, 8, 0, 2, 0, 7, 0, 0, 0, 0, 1, 2, 6, 0, 0, 0, 4, 5, 3, 0, 0, 3, 3, 2, 0, 0, 5, 9, 0, 5, 6, 4, 0, 7, 0, 4, 0, 0, 4, 5, 7, 7, 0, 0, 4, 0, 9, 0, 0, 0, 0, 10, 6, 0, 0, 6, 0, 0, 0, 4, 4, 3, 0, 0, 0, 0, 0, 6, 0, 9, 0, 8, 0, 0, 0, 0, 6, 5, 0, 0, 0, 3, 0, 3, 8, 9, 0, 0, 0, 3, 0, 0, 1, 0, 4, 10, 2, 0, 4, 0, 1, 2, 8, 2, 4, 0, 0, 5, 6, 6, 9, 3, 10, 0, 7, 9, 8, 2, 0, 0, 5, 0, 0, 2, 7, 0, 0, 3, 6, 8, 0, 10, 0, 0, 0, 2, 9, 3, 8, 7, 9, 3, 4, 0, 0, 8, 3, 0, 9, 0, 0, 5, 9, 6, 0, 0, 10, 4, 10, 0, 3, 0, 0, 0, 4, 0, 8, 9, 3, 10, 0, 4, 9, 7, 0, 3, 0, 0, 7, 0, 0, 0, 0, 5, 0, 0, 5, 0, 0, 0, 1, 0, 0, 8, 5, 10, 8, 10, 0, 0, 0, 10, 0, 0, 10, 0, 3, 0, 0, 8, 0, 0, 7, 4, 6, 0, 0, 0, 3, 3, 4, 3, 0, 0, 7, 0, 10, 3, 0, 0, 0, 7, 8, 2, 0, 0, 0, 0, 8, 0, 5, 0, 0, 0, 0, 0, 0, 9, 1, 1, 5, 2, 8, 0, 0, 0, 0, 0, 0, 7, 0, 0, 1, 0, 0, 0, 2, 0, 9, 3, 0, 0]);

suc = [
   {2, 3, 4},
   {8, 12, 5},
   {27, 30, 31},
   {9},
   {6, 7},
   {72, 85},
   {25, 13, 15},
   {48, 43, 20},
   {10, 42, 22},
   {17, 11, 14},
   {15},
   {19},
   {18, 26, 84},
   {36, 21, 23},
   {16, 50},
   {58, 28, 38},
   {73, 59, 47},
   {41},
   {64},
   {33, 63},
   {39},
   {48, 37, 55},
   {24, 56, 29},
   {40},
   {77},
   {32},
   {61, 29, 54},
   {44},
   {49, 57},
   {34},
   {66},
   {78},
   {35},
   {35},
   {62},
   {81, 46},
   {84, 70, 71},
   {88},
   {52},
   {45},
   {75},
   {51},
   {82},
   {67},
   {89, 91, 62},
   {66},
   {60},
   {58},
   {82},
   {72, 68},
   {76, 53},
   {56, 80},
   {55},
   {67},
   {86},
   {70},
   {65, 67, 77},
   {80},
   {81, 66},
   {74, 69},
   {90},
   {79},
   {80},
   {65},
   {78},
   {88},
   {75},
   {88},
   {91},
   {75},
   {72, 74},
   {76},
   {79},
   {77},
   {83, 87},
   {91},
   {79},
   {86},
   {90},
   {85},
   {82},
   {85},
   {89},
   {86},
   {87},
   {87},
   {90},
   {89},
   {92},
   {92},
   {92},
   {  } ];

deadline = array2d(1..92, 1..3, [2, 0, 5, 2, 2, 4, 2, 2, 2, 9, 3, 2, 11, 2, 2, 13, 5, 4, 15, 1, 1, 15, 4, 4, 22, 0, 5, 24, 1, 2, 26, 5, 1, 29, 5, 4, 29, 0, 3, 30, 0, 0, 33, 3, 4, 35, 5, 4, 35, 0, 5, 36, 2, 0, 38, 2, 1, 39, 4, 4, 39, 1, 5, 49, 2, 0, 50, 5, 2, 54, 3, 4, 56, 5, 0, 57, 2, 2, 61, 0, 3, 62, 3, 2, 66, 4, 2, 72, 5, 1, 74, 2, 1, 80, 2, 3, 82, 4, 2, 83, 5, 2, 83, 3, 1, 83, 1, 1, 85, 2, 1, 87, 5, 3, 89, 3, 2, 90, 5, 4, 94, 4, 5, 96, 2, 3, 96, 3, 2, 96, 4, 3, 97, 5, 4, 98, 2, 3, 106, 0, 3, 110, 4, 0, 110, 2, 0, 110, 4, 1, 111, 3, 1, 115, 0, 2, 116, 2, 1, 116, 4, 0, 116, 2, 0, 118, 4, 4, 118, 2, 2, 120, 3, 0, 120, 1, 2, 123, 2, 2, 123, 0, 2, 126, 2, 5, 131, 1, 2, 133, 5, 5, 133, 4, 0, 135, 5, 3, 136, 3, 2, 143, 2, 2, 144, 4, 1, 147, 5, 2, 148, 2, 0, 151, 0, 1, 153, 3, 0, 155, 5, 4, 155, 2, 4, 158, 4, 2, 159, 2, 5, 163, 1, 2, 167, 2, 2, 168, 5, 1, 173, 1, 1, 175, 4, 3, 184, 1, 0, 185, 2, 1, 188, 1, 0, 190, 4, 0, 191, 2, 4, 193, 0, 2, 193, 4, 5, 193, 5, 1, 194, 4, 1, 195, 0, 3]);
