n_res = 4;
rc = [ 31, 30, 27, 31 ];
n_tasks = 92;
d = [0, 5, 1, 10, 6, 4, 9, 5, 9, 8, 10, 6, 7, 1, 2, 5, 5, 9, 6, 2, 8, 4, 8, 1, 4, 2, 8, 4, 2, 3, 6, 10, 3, 10, 6, 1, 8, 6, 5, 10, 7, 7, 3, 4, 2, 8, 8, 8, 6, 10, 8, 7, 6, 4, 6, 5, 9, 1, 4, 1, 9, 6, 2, 9, 8, 1, 7, 10, 5, 2, 8, 6, 3, 9, 10, 1, 5, 4, 1, 2, 5, 8, 6, 1, 3, 9, 8, 8, 10, 9, 6, 0];
rr = array2d(1..4, 1..92, [0, 8, 5, 3, 8, 0, 1, 9, 3, 1, 8, 8, 4, 0, 8, 2, 10, 2, 2, 10, 4, 4, 6, 10, 0, 1, 4, 1, 7, 1, 9, 10, 6, 0, 0, 4, 1, 5, 6, 1, 1, 0, 9, 4, 0, 7, 9, 4, 10, 0, 4, 7, 6, 0, 6, 7, 10, 5, 0, 4, 0, 0, 2, 7, 2, 6, 0, 6, 10, 8, 10, 0, 6, 0, 8, 9, 4, 5, 10, 1, 9, 7, 4, 3, 0, 0, 3, 1, 0, 3, 7, 0, 0, 0, 0, 6, 1, 6, 0, 2, 8, 8, 1, 3, 9, 0, 2, 8, 1, 3, 1, 9, 1, 0, 5, 2, 4, 0, 0, 1, 4, 0, 8, 5, 0, 9, 9, 10, 5, 3, 2, 5, 8, 10, 2, 2, 3, 6, 0, 0, 0, 1, 9, 8, 10, 2, 7, 6, 1, 4, 0, 1, 7, 4, 0, 6, 1, 9, 10, 4, 9, 5, 6, 0, 9, 4, 5, 7, 0, 2, 6, 10, 3, 3, 4, 10, 3, 4, 9, 2, 8, 8, 9, 0, 0, 1, 1, 4, 1, 9, 9, 2, 8, 1, 9, 0, 7, 4, 4, 0, 9, 1, 2, 4, 0, 10, 5, 7, 4, 4, 1, 0, 5, 6, 0, 0, 4, 3, 4, 7, 9, 6, 4, 9, 8, 6, 10, 0, 5, 0, 5, 6, 0, 3, 8, 2, 0, 5, 0, 0, 4, 0, 1, 0, 4, 0, 0, 0, 0, 2, 3, 3, 0, 6, 0, 0, 4, 0, 10, 10, 1, 0, 6, 4, 5, 3, 2, 0, 0, 10, 9, 0, 0, 0, 4, 0, 0, 7, 0, 1, 10, 6, 8, 5, 3, 2, 9, 0, 4, 2, 0, 10, 10, 6, 0, 0, 0, 8, 6, 5, 2, 0, 6, 0, 0, 2, 0, 4, 0, 3, 1, 7, 9, 3, 0, 6, 2, 0, 9, 0, 0, 8, 0, 2, 6, 0, 4, 0, 9, 0, 5, 6, 5, 0, 5, 7, 0, 9, 5, 9, 3, 8, 3, 6, 3, 5, 1, 8, 2, 10, 1, 4, 0, 0, 1, 8, 0, 3, 0, 0, 6, 9, 0, 4, 5, 6, 4, 0]);

suc = [
   {2, 3, 4},
   {8, 72, 7},
   {9, 51, 5},
   {50, 11, 31},
   {24, 10, 6},
   {17, 34, 42},
   {12, 22, 23},
   {29, 38},
   {16, 24, 14},
   {43, 67, 27},
   {56, 35, 85},
   {25, 21, 13},
   {49, 18, 15},
   {32, 17, 67},
   {48, 19, 20},
   {49, 50, 28},
   {41, 77, 57},
   {41, 60, 30},
   {65, 57, 45},
   {44, 54, 47},
   {36, 45, 60},
   {29, 54},
   {26},
   {32, 77, 30},
   {68, 37},
   {28, 30},
   {60, 31},
   {40, 33, 68},
   {78, 70},
   {50, 37, 55},
   {36, 63, 39},
   {52, 38, 39},
   {53, 45, 46},
   {56, 43, 35},
   {89, 46, 63},
   {41},
   {87, 70, 71},
   {80, 73},
   {64, 58, 59},
   {65, 61, 53},
   {44, 46, 52},
   {57, 67, 87},
   {73},
   {84, 53},
   {75, 54, 55},
   {62, 47},
   {61},
   {56, 74, 83},
   {83, 79},
   {64, 82},
   {58, 66},
   {59, 69, 71},
   {74, 91, 70},
   {76},
   {81, 74, 62},
   {59, 61, 63},
   {84, 62},
   {69},
   {66},
   {66, 85},
   {79, 71},
   {64},
   {65, 76},
   {69},
   {80, 75},
   {68, 78, 76},
   {72, 73, 78},
   {81},
   {80},
   {85},
   {81},
   {75, 79},
   {90, 83},
   {86},
   {77},
   {87},
   {86},
   {82},
   {88, 91},
   {86},
   {82, 84},
   {88},
   {89},
   {88},
   {89},
   {90},
   {91},
   {90},
   {92},
   {92},
   {92},
   {  } ];

deadline = array2d(1..92, 1..3, [1, 3, 5, 2, 4, 4, 2, 0, 4, 2, 3, 1, 3, 5, 4, 7, 3, 4, 8, 1, 4, 9, 5, 0, 9, 3, 2, 12, 5, 3, 14, 2, 4, 16, 0, 5, 18, 0, 4, 21, 4, 1, 22, 2, 4, 25, 1, 3, 26, 1, 5, 32, 3, 4, 32, 3, 1, 33, 3, 0, 35, 5, 3, 36, 5, 5, 39, 5, 2, 39, 5, 2, 40, 5, 1, 44, 0, 5, 45, 2, 4, 59, 1, 3, 59, 2, 0, 63, 3, 0, 70, 0, 0, 71, 3, 3, 72, 3, 2, 74, 4, 2, 82, 3, 3, 84, 5, 0, 86, 5, 2, 87, 1, 4, 97, 0, 0, 98, 0, 5, 98, 5, 0, 101, 5, 2, 106, 5, 4, 108, 2, 4, 109, 5, 3, 110, 1, 5, 111, 4, 5, 112, 5, 2, 118, 1, 2, 122, 3, 0, 123, 2, 5, 127, 4, 0, 130, 2, 4, 132, 0, 0, 132, 4, 3, 133, 5, 2, 138, 2, 3, 138, 4, 4, 139, 5, 4, 140, 0, 3, 144, 5, 4, 159, 5, 0, 164, 2, 0, 167, 5, 1, 171, 3, 5, 178, 5, 1, 179, 4, 1, 192, 3, 1, 204, 2, 0, 205, 1, 4, 211, 0, 1, 212, 0, 0, 216, 5, 5, 229, 2, 0, 231, 1, 2, 232, 1, 4, 232, 0, 0, 232, 3, 1, 233, 2, 0, 235, 2, 0, 235, 5, 3, 235, 0, 3, 236, 0, 0, 242, 4, 5, 242, 3, 2, 243, 1, 5, 251, 0, 1, 255, 3, 3, 255, 1, 4, 256, 0, 4, 261, 5, 1, 262, 0, 1]);
