n_res = 4;
rc = [ 43, 40, 48, 45 ];
n_tasks = 92;
d = [0, 4, 4, 9, 9, 6, 2, 7, 9, 7, 10, 8, 9, 2, 1, 5, 1, 1, 5, 7, 10, 9, 8, 1, 6, 3, 9, 7, 3, 3, 2, 5, 9, 9, 9, 4, 10, 9, 6, 6, 10, 5, 7, 3, 3, 6, 3, 6, 10, 7, 6, 7, 3, 9, 2, 3, 10, 9, 8, 8, 5, 5, 4, 6, 8, 5, 2, 9, 9, 3, 2, 4, 9, 8, 1, 7, 4, 6, 10, 4, 10, 5, 3, 7, 7, 2, 1, 8, 4, 7, 8, 0];
rr = array2d(1..4, 1..92, [0, 5, 9, 4, 2, 6, 8, 7, 8, 6, 7, 8, 2, 8, 1, 2, 1, 5, 3, 3, 8, 6, 6, 9, 9, 7, 10, 7, 4, 3, 1, 4, 3, 3, 6, 9, 4, 7, 10, 2, 5, 7, 9, 8, 2, 3, 3, 7, 4, 5, 3, 7, 3, 5, 2, 10, 8, 10, 3, 5, 9, 6, 7, 6, 4, 7, 8, 1, 9, 8, 8, 2, 5, 1, 4, 10, 9, 6, 4, 9, 10, 1, 6, 2, 2, 6, 8, 9, 6, 1, 8, 0, 0, 8, 4, 1, 1, 6, 5, 4, 2, 5, 3, 6, 2, 4, 1, 9, 9, 4, 3, 7, 9, 5, 8, 6, 5, 4, 10, 7, 1, 9, 7, 1, 9, 10, 5, 6, 10, 6, 1, 4, 1, 1, 6, 5, 8, 5, 3, 3, 7, 10, 4, 5, 9, 5, 2, 7, 6, 6, 6, 6, 10, 3, 6, 10, 10, 8, 8, 9, 4, 4, 3, 9, 8, 8, 9, 4, 4, 6, 8, 7, 10, 10, 9, 9, 1, 8, 1, 4, 5, 1, 10, 0, 0, 2, 2, 4, 8, 2, 7, 6, 3, 4, 10, 3, 3, 7, 9, 10, 1, 9, 6, 8, 2, 5, 3, 9, 5, 4, 10, 4, 9, 4, 8, 10, 4, 5, 6, 10, 1, 5, 9, 9, 5, 9, 9, 6, 1, 10, 6, 2, 2, 6, 6, 2, 3, 8, 5, 6, 3, 8, 2, 9, 9, 10, 4, 10, 9, 8, 5, 7, 10, 4, 2, 4, 1, 9, 2, 5, 3, 3, 2, 9, 1, 10, 8, 9, 10, 5, 3, 9, 9, 7, 10, 0, 0, 3, 1, 10, 8, 1, 4, 2, 2, 2, 6, 10, 3, 1, 4, 3, 8, 10, 1, 9, 6, 7, 4, 10, 4, 3, 9, 8, 5, 1, 5, 1, 9, 8, 4, 3, 10, 10, 7, 1, 3, 5, 10, 6, 8, 3, 7, 5, 8, 4, 1, 2, 1, 1, 1, 8, 10, 6, 4, 9, 2, 7, 4, 9, 7, 9, 10, 2, 10, 9, 7, 9, 8, 2, 7, 7, 2, 3, 8, 4, 5, 7, 4, 8, 3, 9, 4, 9, 1, 10, 2, 0]);

suc = [
   {2, 3, 4},
   {58, 5, 62},
   {38, 51, 14},
   {9, 66, 7},
   {48, 10, 6},
   {19, 12, 21},
   {8, 18, 35},
   {69, 13},
   {11, 29, 30},
   {60},
   {74},
   {20, 79},
   {16, 41, 15},
   {28, 22, 47},
   {17, 68, 87},
   {34, 27, 31},
   {57},
   {26, 84},
   {24, 43, 54},
   {44},
   {35, 78, 23},
   {26},
   {25, 42},
   {82},
   {37, 39},
   {88},
   {32},
   {33},
   {40, 72, 61},
   {55},
   {50},
   {73, 33, 63},
   {57, 59, 46},
   {58},
   {36},
   {83, 52, 53},
   {81},
   {56},
   {45, 46, 71},
   {76},
   {85},
   {49},
   {70},
   {90},
   {90},
   {87},
   {65},
   {85},
   {89, 81},
   {77},
   {83},
   {67},
   {88},
   {70},
   {69},
   {59},
   {64},
   {75},
   {76},
   {78},
   {73},
   {83},
   {86},
   {86},
   {88},
   {76},
   {68, 87},
   {70},
   {84},
   {81},
   {74},
   {77},
   {74, 75},
   {77},
   {80},
   {78, 79},
   {80},
   {91},
   {80},
   {82},
   {91},
   {84},
   {91},
   {85},
   {86},
   {90},
   {89},
   {89},
   {92},
   {92},
   {92},
   {  } ];

deadline = array2d(1..92, 1..3, [1, 5, 0, 2, 4, 5, 4, 0, 3, 5, 1, 1, 5, 4, 5, 8, 3, 3, 14, 5, 0, 19, 2, 3, 22, 2, 5, 27, 0, 0, 30, 1, 0, 31, 2, 3, 32, 1, 3, 35, 1, 4, 41, 1, 3, 42, 0, 1, 58, 2, 0, 61, 3, 5, 63, 3, 4, 64, 4, 4, 66, 3, 3, 69, 5, 3, 71, 1, 3, 72, 2, 1, 72, 5, 5, 75, 5, 2, 75, 5, 1, 84, 5, 3, 89, 3, 2, 91, 3, 4, 92, 4, 4, 95, 5, 5, 99, 1, 5, 102, 3, 1, 103, 0, 3, 105, 2, 2, 107, 3, 2, 108, 2, 5, 110, 3, 1, 116, 3, 3, 118, 4, 2, 118, 5, 5, 123, 1, 0, 124, 2, 1, 125, 1, 4, 134, 4, 4, 134, 1, 4, 134, 2, 4, 138, 3, 5, 161, 2, 1, 162, 0, 4, 162, 2, 0, 164, 2, 5, 166, 3, 4, 172, 4, 1, 175, 3, 1, 187, 0, 2, 190, 2, 4, 206, 1, 3, 210, 2, 5, 214, 0, 2, 216, 1, 3, 220, 2, 0, 225, 5, 4, 230, 0, 2, 232, 2, 1, 232, 4, 3, 236, 2, 1, 239, 1, 1, 240, 5, 4, 243, 2, 1, 246, 1, 5, 248, 3, 4, 250, 2, 3, 251, 3, 3, 256, 4, 3, 256, 0, 3, 257, 1, 0, 259, 3, 3, 262, 0, 2, 263, 5, 4, 264, 2, 4, 265, 3, 2, 268, 3, 0, 268, 2, 4, 270, 5, 3, 272, 3, 1, 276, 2, 1, 276, 4, 1, 278, 1, 2, 279, 0, 4, 279, 1, 1]);
