n_res = 4;
rc = [ 90, 92, 75, 101 ];
n_tasks = 92;
d = [0, 10, 4, 4, 1, 1, 3, 1, 2, 8, 7, 4, 9, 8, 4, 4, 8, 7, 7, 10, 3, 8, 2, 9, 7, 8, 4, 8, 4, 9, 4, 6, 5, 6, 5, 7, 1, 4, 9, 4, 6, 10, 5, 5, 7, 7, 1, 7, 5, 9, 9, 8, 2, 5, 10, 6, 3, 4, 1, 3, 6, 5, 7, 4, 10, 9, 1, 7, 5, 1, 6, 2, 10, 10, 5, 3, 6, 3, 6, 4, 8, 4, 1, 4, 10, 7, 10, 6, 10, 8, 3, 0];
rr = array2d(1..4, 1..92, [0, 1, 3, 5, 8, 9, 10, 10, 6, 6, 10, 4, 9, 2, 2, 9, 2, 5, 9, 5, 1, 6, 10, 2, 5, 2, 7, 2, 10, 3, 5, 10, 6, 2, 3, 4, 8, 3, 5, 7, 5, 5, 5, 8, 2, 1, 2, 8, 2, 6, 6, 5, 8, 3, 3, 8, 6, 5, 9, 1, 5, 7, 1, 8, 8, 5, 9, 2, 7, 2, 6, 3, 2, 3, 6, 4, 10, 10, 7, 9, 5, 5, 10, 5, 4, 6, 4, 9, 2, 10, 9, 0, 0, 7, 4, 7, 9, 2, 7, 4, 6, 6, 10, 9, 2, 8, 10, 8, 2, 10, 1, 8, 4, 7, 5, 5, 2, 1, 4, 7, 1, 5, 3, 5, 8, 6, 2, 8, 3, 10, 3, 5, 7, 7, 10, 8, 4, 10, 9, 9, 8, 3, 6, 5, 7, 7, 5, 7, 1, 7, 10, 1, 8, 3, 6, 7, 9, 5, 4, 3, 10, 1, 5, 6, 1, 7, 3, 4, 10, 8, 9, 6, 7, 6, 6, 4, 3, 1, 10, 8, 9, 3, 10, 0, 0, 8, 7, 3, 7, 9, 1, 3, 6, 6, 4, 6, 5, 5, 2, 2, 8, 5, 6, 4, 7, 3, 9, 2, 10, 10, 4, 10, 8, 6, 9, 1, 1, 2, 9, 10, 10, 6, 8, 6, 2, 4, 3, 10, 5, 5, 5, 6, 2, 6, 5, 5, 7, 2, 6, 2, 6, 2, 4, 6, 2, 10, 7, 2, 6, 1, 10, 5, 3, 4, 6, 4, 1, 9, 1, 4, 5, 6, 10, 7, 10, 7, 4, 6, 9, 7, 5, 8, 2, 3, 1, 0, 0, 1, 3, 5, 4, 6, 7, 10, 2, 10, 1, 2, 5, 3, 5, 9, 3, 2, 7, 9, 2, 4, 2, 5, 8, 8, 8, 10, 10, 9, 3, 1, 9, 6, 6, 6, 10, 7, 5, 3, 2, 7, 1, 6, 10, 7, 7, 2, 8, 2, 3, 1, 7, 6, 3, 9, 1, 6, 5, 6, 9, 2, 5, 8, 1, 10, 5, 10, 2, 6, 1, 9, 7, 9, 2, 7, 8, 10, 10, 8, 7, 4, 3, 10, 3, 7, 2, 3, 1, 4, 7, 0]);

suc = [
   {2, 3, 4},
   {8, 10, 36},
   {20, 5, 14},
   {18},
   {6, 7},
   {26, 11, 77},
   {12, 13, 31},
   {16, 9},
   {21},
   {56},
   {76, 69},
   {32},
   {44, 71},
   {42, 15},
   {24, 73},
   {17, 19, 33},
   {68, 22},
   {83, 23},
   {51, 60},
   {27, 85},
   {56, 34},
   {55},
   {25, 58, 29},
   {82},
   {90},
   {82, 38},
   {28, 55, 39},
   {43, 30, 47},
   {36},
   {36},
   {59},
   {39},
   {48, 57, 37},
   {50, 35, 45},
   {65, 41, 61},
   {54, 81, 46},
   {62},
   {40},
   {65, 70},
   {65},
   {70},
   {54},
   {91},
   {52},
   {86},
   {64, 49},
   {76},
   {53, 63},
   {88, 74},
   {57, 62},
   {89},
   {78},
   {86},
   {79},
   {67, 71},
   {66},
   {67},
   {85},
   {62},
   {79},
   {72},
   {75},
   {82},
   {68},
   {83},
   {75},
   {88, 81},
   {76},
   {70},
   {89},
   {75},
   {74, 78},
   {77, 87},
   {86},
   {83},
   {84},
   {80},
   {85},
   {84},
   {81},
   {89},
   {90},
   {84},
   {87},
   {87},
   {91},
   {90},
   {91},
   {92},
   {92},
   {92},
   {  } ];

deadline = array2d(1..92, 1..3, [1, 2, 3, 2, 2, 3, 3, 0, 4, 4, 2, 3, 13, 4, 3, 15, 5, 1, 19, 3, 3, 21, 3, 4, 21, 0, 0, 27, 5, 0, 27, 5, 2, 29, 1, 0, 30, 3, 2, 30, 3, 1, 31, 3, 2, 32, 0, 1, 34, 0, 0, 34, 5, 0, 35, 3, 3, 36, 3, 5, 39, 0, 0, 40, 4, 1, 48, 3, 4, 49, 4, 1, 51, 1, 2, 51, 0, 2, 55, 1, 0, 57, 3, 5, 60, 1, 4, 61, 2, 3, 62, 5, 4, 62, 5, 3, 70, 5, 2, 71, 5, 3, 76, 5, 0, 77, 3, 0, 78, 2, 5, 79, 1, 5, 80, 5, 3, 81, 5, 4, 84, 0, 0, 85, 0, 4, 85, 5, 4, 89, 2, 4, 91, 0, 3, 92, 1, 4, 93, 1, 0, 97, 3, 0, 98, 2, 2, 100, 1, 5, 109, 4, 5, 111, 1, 0, 112, 0, 5, 115, 5, 2, 116, 4, 0, 119, 1, 3, 122, 1, 4, 124, 1, 0, 128, 3, 5, 129, 0, 0, 129, 1, 4, 133, 4, 1, 135, 1, 0, 139, 0, 0, 141, 0, 1, 142, 0, 0, 142, 0, 0, 143, 1, 5, 146, 3, 0, 150, 1, 0, 154, 2, 4, 154, 5, 4, 156, 2, 3, 158, 3, 1, 158, 1, 0, 164, 1, 2, 164, 0, 3, 166, 5, 3, 174, 5, 0, 176, 4, 2, 180, 4, 4, 180, 5, 3, 181, 0, 5, 191, 2, 0, 192, 2, 3, 196, 3, 2, 197, 1, 5, 199, 2, 1, 200, 0, 5, 204, 2, 3, 206, 3, 4, 208, 0, 0]);
