n_res = 4;
rc = [ 86, 80, 65, 84 ];
n_tasks = 92;
d = [0, 8, 10, 4, 3, 9, 6, 1, 6, 5, 8, 4, 8, 6, 1, 1, 7, 7, 6, 9, 9, 7, 1, 5, 10, 10, 7, 7, 4, 3, 4, 5, 3, 2, 9, 9, 6, 10, 9, 9, 8, 6, 2, 4, 10, 10, 5, 2, 7, 9, 8, 9, 8, 8, 4, 7, 2, 4, 1, 7, 8, 7, 3, 7, 6, 10, 2, 9, 6, 10, 7, 8, 10, 7, 7, 2, 6, 1, 5, 6, 8, 1, 5, 1, 1, 1, 3, 10, 4, 4, 3, 0];
rr = array2d(1..4, 1..92, [0, 2, 7, 2, 0, 9, 7, 9, 5, 5, 3, 9, 6, 0, 3, 0, 3, 1, 7, 2, 0, 10, 0, 0, 10, 0, 5, 6, 0, 7, 10, 9, 8, 9, 6, 0, 1, 4, 0, 1, 8, 7, 0, 4, 10, 7, 4, 8, 10, 5, 4, 3, 3, 4, 5, 4, 7, 9, 0, 9, 8, 4, 6, 4, 2, 5, 1, 6, 3, 5, 1, 10, 0, 7, 0, 7, 2, 0, 3, 8, 4, 0, 0, 3, 9, 0, 8, 6, 1, 10, 0, 0, 0, 3, 6, 0, 6, 2, 6, 4, 1, 0, 6, 9, 7, 1, 0, 0, 4, 2, 5, 10, 8, 0, 7, 0, 2, 1, 8, 10, 10, 6, 6, 7, 9, 9, 3, 0, 5, 0, 0, 0, 7, 6, 0, 7, 7, 9, 0, 7, 5, 0, 4, 0, 6, 3, 10, 4, 5, 10, 4, 4, 9, 4, 0, 6, 7, 3, 9, 9, 0, 2, 6, 9, 5, 3, 10, 5, 0, 3, 6, 10, 2, 5, 5, 1, 6, 6, 0, 6, 2, 7, 5, 0, 0, 0, 5, 2, 4, 10, 0, 4, 9, 5, 0, 0, 4, 6, 8, 0, 1, 6, 4, 0, 2, 0, 6, 1, 7, 8, 0, 10, 0, 2, 7, 3, 5, 8, 7, 10, 3, 1, 5, 2, 9, 8, 0, 5, 7, 0, 2, 9, 0, 4, 3, 9, 2, 2, 0, 0, 1, 10, 3, 10, 0, 0, 1, 0, 4, 0, 0, 0, 6, 1, 0, 0, 5, 1, 0, 0, 9, 7, 0, 7, 6, 9, 6, 2, 0, 4, 0, 3, 2, 2, 0, 0, 0, 4, 6, 0, 0, 9, 0, 4, 0, 0, 0, 6, 2, 3, 4, 9, 7, 0, 0, 7, 7, 6, 6, 8, 0, 9, 5, 6, 2, 7, 0, 5, 0, 3, 6, 2, 3, 7, 2, 2, 10, 6, 7, 0, 9, 4, 0, 3, 10, 10, 1, 1, 0, 7, 8, 2, 3, 6, 5, 0, 7, 4, 2, 0, 0, 2, 1, 5, 3, 0, 1, 2, 0, 0, 1, 2, 4, 8, 0, 5, 3, 0, 0, 8, 7, 6, 3, 10, 4, 8, 0, 0]);

suc = [
   {2, 3, 4},
   {9, 11, 17},
   {12, 5, 14},
   {8, 31},
   {10, 6, 7},
   {67},
   {16, 21, 13},
   {65},
   {40, 53},
   {30},
   {64, 25},
   {51},
   {58, 46},
   {19, 20, 15},
   {18, 68, 22},
   {33, 47, 23},
   {48, 47},
   {32, 56, 29},
   {59, 39},
   {24, 43, 44},
   {85},
   {45},
   {26},
   {83, 58, 27},
   {90},
   {81},
   {28, 38},
   {60, 45},
   {31},
   {49, 34, 37},
   {69},
   {35, 70},
   {73},
   {41, 36},
   {66},
   {91},
   {64},
   {62, 54},
   {40, 44},
   {73, 75, 52},
   {89, 81, 42},
   {61, 71, 63},
   {51},
   {65},
   {72},
   {48},
   {73, 50},
   {57},
   {74, 55},
   {71, 55},
   {63},
   {71},
   {63},
   {87},
   {67},
   {57},
   {76},
   {60},
   {86},
   {72},
   {64},
   {79},
   {77, 69},
   {76},
   {80},
   {79},
   {84},
   {88},
   {83},
   {81},
   {86},
   {82},
   {82},
   {91},
   {79},
   {78},
   {80},
   {80, 83},
   {88},
   {84},
   {91},
   {90},
   {84},
   {86},
   {89},
   {87},
   {90},
   {89},
   {92},
   {92},
   {92},
   {  } ];

deadline = array2d(1..92, 1..3, [2, 4, 1, 4, 3, 3, 11, 4, 1, 12, 0, 2, 16, 3, 0, 18, 5, 4, 20, 4, 1, 22, 1, 2, 23, 0, 1, 25, 4, 4, 26, 5, 5, 28, 1, 4, 37, 0, 0, 38, 1, 1, 49, 1, 1, 50, 4, 1, 50, 0, 1, 54, 2, 3, 57, 4, 0, 60, 4, 5, 61, 0, 0, 62, 4, 1, 63, 5, 4, 64, 0, 5, 65, 0, 1, 70, 0, 1, 71, 0, 3, 72, 5, 1, 72, 4, 1, 72, 3, 0, 74, 4, 1, 74, 4, 5, 74, 2, 5, 75, 0, 4, 79, 4, 3, 81, 1, 0, 81, 3, 2, 81, 5, 4, 82, 2, 4, 82, 5, 0, 84, 4, 3, 86, 0, 2, 86, 3, 2, 89, 2, 5, 91, 3, 3, 93, 0, 3, 95, 0, 4, 96, 2, 3, 96, 3, 5, 97, 3, 1, 102, 1, 5, 102, 2, 2, 102, 3, 4, 106, 5, 5, 107, 2, 3, 112, 0, 0, 112, 4, 0, 115, 2, 1, 117, 0, 2, 117, 0, 1, 117, 2, 5, 117, 0, 3, 118, 1, 1, 119, 3, 3, 119, 2, 3, 121, 1, 0, 123, 3, 3, 128, 4, 3, 137, 4, 0, 140, 2, 1, 141, 3, 0, 143, 2, 5, 144, 0, 3, 145, 5, 3, 150, 5, 2, 150, 4, 3, 154, 0, 3, 155, 3, 4, 159, 0, 1, 163, 5, 4, 164, 4, 4, 164, 5, 5, 165, 3, 5, 165, 3, 3, 169, 3, 4, 171, 5, 4, 171, 5, 1, 175, 0, 0, 176, 4, 4, 176, 3, 2, 179, 4, 2, 182, 3, 3]);
