n_res = 4;
rc = [ 20, 23, 21, 23 ];
n_tasks = 92;
d = [0, 9, 7, 8, 5, 2, 7, 9, 1, 4, 4, 9, 3, 10, 10, 10, 3, 6, 2, 4, 7, 9, 10, 8, 1, 6, 4, 1, 4, 8, 8, 1, 8, 1, 9, 9, 9, 3, 3, 9, 9, 7, 6, 10, 3, 8, 7, 5, 7, 9, 9, 2, 8, 3, 5, 7, 6, 4, 3, 5, 3, 4, 9, 10, 2, 9, 1, 6, 5, 2, 2, 5, 7, 5, 4, 6, 5, 10, 7, 9, 8, 6, 6, 3, 4, 5, 7, 3, 4, 7, 8, 0];
rr = array2d(1..4, 1..92, [0, 0, 3, 10, 3, 3, 2, 3, 5, 9, 4, 2, 1, 3, 6, 4, 1, 0, 5, 0, 4, 0, 0, 5, 6, 7, 7, 5, 6, 0, 1, 6, 0, 0, 0, 0, 9, 9, 3, 9, 0, 8, 0, 5, 10, 4, 5, 1, 3, 3, 2, 8, 8, 0, 5, 0, 9, 3, 3, 7, 10, 0, 8, 7, 9, 6, 4, 0, 10, 3, 0, 0, 2, 3, 3, 8, 0, 9, 2, 5, 0, 0, 5, 4, 8, 7, 8, 0, 8, 0, 3, 0, 0, 3, 0, 0, 7, 9, 4, 4, 0, 0, 0, 0, 9, 6, 0, 9, 4, 0, 0, 9, 4, 0, 1, 3, 6, 0, 3, 2, 4, 7, 8, 1, 1, 9, 10, 0, 4, 6, 2, 9, 0, 2, 10, 2, 5, 1, 2, 9, 0, 0, 1, 3, 9, 1, 2, 8, 2, 2, 0, 8, 3, 8, 10, 0, 4, 5, 9, 2, 0, 0, 1, 10, 6, 8, 7, 4, 9, 0, 0, 1, 5, 9, 6, 0, 2, 10, 1, 7, 0, 8, 6, 0, 0, 1, 2, 6, 6, 3, 3, 0, 0, 10, 7, 0, 7, 0, 1, 3, 1, 0, 9, 9, 10, 9, 0, 4, 3, 4, 6, 4, 5, 1, 9, 8, 6, 10, 0, 10, 4, 2, 1, 2, 10, 3, 9, 0, 0, 3, 8, 7, 0, 5, 1, 7, 10, 0, 4, 6, 3, 0, 0, 4, 0, 10, 10, 5, 4, 6, 2, 0, 8, 0, 4, 2, 6, 0, 2, 7, 0, 0, 2, 8, 3, 7, 10, 1, 0, 1, 7, 2, 8, 10, 6, 0, 0, 9, 6, 0, 7, 1, 3, 0, 6, 6, 2, 8, 0, 10, 3, 0, 7, 5, 0, 2, 4, 7, 0, 6, 0, 5, 10, 3, 0, 10, 6, 10, 0, 1, 4, 3, 0, 0, 7, 9, 4, 0, 0, 7, 3, 8, 7, 7, 9, 3, 10, 0, 0, 1, 5, 0, 10, 4, 1, 5, 3, 8, 1, 6, 6, 1, 0, 0, 4, 6, 3, 0, 2, 3, 2, 5, 0, 5, 7, 0, 7, 0, 5, 2, 9, 10, 2, 3, 8, 0, 5, 0]);

suc = [
   {2, 3, 4},
   {8, 12, 22},
   {9, 50, 52},
   {11, 36, 5},
   {28, 6, 7},
   {24, 10, 46},
   {42, 69, 63},
   {25},
   {17, 21, 13},
   {18, 26, 53},
   {14},
   {19, 20, 15},
   {16, 41, 64},
   {35},
   {84},
   {51, 35, 30},
   {90, 51},
   {74, 27, 23},
   {33, 36, 61},
   {66, 43},
   {31},
   {60, 79, 39},
   {58, 38, 71},
   {68, 54},
   {36, 29, 46},
   {32, 72},
   {48, 44, 37},
   {81, 37, 62},
   {48, 39},
   {32, 47},
   {34, 44, 45},
   {73, 43},
   {72, 63},
   {40},
   {57, 59},
   {64, 72},
   {84},
   {73, 49},
   {56, 42, 43},
   {68, 53},
   {88},
   {65},
   {58, 75, 44},
   {49},
   {75},
   {89},
   {78},
   {81},
   {57},
   {78, 71},
   {91},
   {58, 71},
   {69, 70},
   {55},
   {85, 62},
   {67, 68},
   {83},
   {91},
   {79},
   {80, 61},
   {78},
   {65},
   {64, 77},
   {66},
   {86, 66, 70},
   {83, 76},
   {74, 76, 82},
   {73, 74, 70},
   {81, 85},
   {76},
   {79},
   {82},
   {89, 77},
   {75},
   {80},
   {91},
   {80, 85},
   {89, 87},
   {82},
   {86},
   {88, 83},
   {84},
   {87},
   {88},
   {86},
   {87},
   {90},
   {90},
   {92},
   {92},
   {92},
   {  } ];

deadline = array2d(1..92, 1..3, [3, 1, 2, 4, 1, 2, 8, 5, 2, 8, 2, 4, 8, 3, 0, 9, 2, 0, 13, 2, 3, 19, 0, 1, 22, 2, 3, 22, 3, 5, 25, 0, 3, 25, 3, 4, 25, 2, 5, 26, 5, 1, 27, 0, 4, 31, 5, 3, 38, 2, 4, 40, 4, 5, 40, 4, 4, 41, 4, 0, 42, 1, 4, 46, 3, 4, 48, 3, 1, 53, 0, 4, 55, 2, 1, 59, 5, 3, 59, 0, 5, 64, 5, 0, 65, 3, 0, 65, 2, 4, 66, 2, 0, 67, 4, 4, 74, 5, 4, 76, 1, 5, 76, 3, 3, 77, 0, 0, 79, 2, 2, 81, 1, 1, 81, 5, 2, 83, 0, 0, 83, 2, 2, 84, 3, 3, 95, 1, 5, 95, 5, 4, 95, 3, 1, 96, 5, 5, 99, 0, 3, 100, 1, 1, 104, 3, 4, 106, 4, 0, 107, 5, 2, 107, 3, 2, 108, 5, 3, 112, 4, 0, 113, 2, 4, 118, 3, 0, 118, 5, 5, 119, 0, 4, 119, 4, 5, 120, 4, 5, 124, 0, 4, 126, 2, 0, 134, 1, 3, 135, 0, 1, 135, 5, 5, 136, 2, 5, 141, 3, 2, 142, 4, 4, 143, 3, 2, 143, 2, 2, 143, 2, 2, 143, 3, 5, 149, 2, 0, 150, 1, 0, 156, 2, 1, 160, 0, 0, 161, 5, 5, 161, 0, 4, 163, 5, 2, 163, 5, 0, 164, 1, 3, 167, 4, 2, 168, 1, 0, 170, 5, 4, 175, 1, 1, 175, 0, 5, 177, 0, 4, 180, 0, 5, 183, 0, 3, 184, 3, 4, 188, 3, 1, 188, 0, 3]);
