n_res = 4;
rc = [ 20, 21, 17, 14 ];
n_tasks = 92;
d = [0, 6, 7, 1, 10, 6, 5, 5, 3, 5, 6, 9, 8, 8, 3, 8, 3, 2, 7, 9, 10, 3, 8, 6, 3, 2, 10, 2, 3, 2, 5, 6, 6, 7, 7, 10, 9, 7, 3, 5, 3, 4, 6, 5, 4, 3, 6, 9, 8, 2, 7, 3, 5, 10, 6, 9, 10, 5, 7, 9, 4, 10, 7, 4, 1, 5, 3, 3, 2, 8, 9, 7, 5, 7, 5, 8, 3, 10, 6, 1, 8, 1, 1, 8, 8, 8, 1, 8, 2, 2, 5, 0];
rr = array2d(1..4, 1..92, [0, 6, 0, 0, 0, 4, 10, 8, 0, 0, 0, 1, 0, 0, 7, 1, 0, 0, 1, 0, 0, 0, 0, 4, 5, 8, 10, 0, 2, 0, 0, 0, 0, 0, 0, 5, 0, 0, 0, 0, 9, 1, 4, 8, 0, 0, 6, 0, 0, 0, 0, 1, 3, 8, 6, 0, 7, 6, 0, 0, 0, 1, 0, 5, 2, 0, 0, 0, 10, 0, 0, 5, 0, 0, 6, 0, 0, 0, 0, 0, 0, 0, 0, 6, 8, 0, 0, 0, 0, 0, 0, 0, 0, 0, 1, 0, 0, 0, 0, 0, 0, 0, 0, 0, 0, 0, 0, 0, 0, 0, 0, 0, 8, 0, 0, 0, 0, 0, 0, 0, 0, 0, 0, 5, 4, 7, 0, 0, 0, 5, 9, 0, 0, 0, 0, 0, 0, 0, 0, 0, 3, 2, 2, 0, 0, 0, 0, 10, 0, 0, 0, 5, 0, 0, 8, 0, 0, 8, 0, 6, 0, 0, 5, 0, 0, 1, 0, 0, 1, 7, 5, 0, 0, 0, 2, 0, 0, 0, 0, 7, 0, 2, 4, 0, 0, 0, 0, 0, 4, 0, 0, 0, 0, 0, 9, 0, 2, 0, 0, 0, 0, 9, 0, 3, 0, 0, 0, 0, 0, 0, 0, 7, 0, 2, 7, 0, 0, 0, 7, 0, 1, 0, 0, 8, 0, 0, 0, 0, 0, 0, 0, 6, 0, 0, 0, 0, 0, 0, 0, 0, 0, 0, 4, 0, 6, 0, 0, 0, 0, 0, 0, 0, 0, 2, 0, 0, 3, 0, 0, 1, 0, 0, 0, 0, 0, 4, 0, 0, 0, 0, 0, 0, 0, 0, 0, 0, 0, 0, 0, 10, 0, 0, 0, 0, 3, 9, 0, 0, 0, 1, 0, 0, 2, 0, 0, 0, 0, 5, 2, 0, 0, 0, 0, 0, 0, 0, 0, 0, 0, 0, 0, 0, 0, 0, 0, 0, 0, 0, 0, 0, 7, 3, 0, 0, 0, 0, 0, 0, 0, 0, 0, 0, 0, 0, 0, 0, 0, 0, 0, 0, 0, 0, 1, 0, 0, 0, 0, 0, 0, 0, 0, 0, 0, 0, 0, 10, 9, 0, 0, 0, 0, 2, 10, 0, 2, 0, 0, 0]);

suc = [
   {2, 3, 4},
   {9, 11, 6},
   {26, 36},
   {33, 5, 7},
   {47},
   {8, 45, 29},
   {41, 26, 49},
   {25, 18, 20},
   {40, 10, 21},
   {32, 17, 13},
   {54, 12, 14},
   {16},
   {23, 30, 15},
   {62, 22, 31},
   {42},
   {35},
   {19, 28, 39},
   {24, 56},
   {38},
   {57, 61},
   {72},
   {28},
   {73},
   {27},
   {56},
   {74},
   {55},
   {80, 42, 35},
   {69, 46},
   {45},
   {34, 91, 84},
   {73, 68, 76},
   {70},
   {67, 37},
   {48, 44},
   {59},
   {60, 69},
   {51, 45},
   {58},
   {77},
   {65, 77},
   {43},
   {55},
   {66},
   {52},
   {51, 53},
   {88, 50},
   {76, 85},
   {60},
   {64},
   {60},
   {82, 86, 63},
   {70},
   {85},
   {66, 83},
   {64},
   {74},
   {81},
   {81},
   {78},
   {71},
   {79},
   {87},
   {89},
   {74},
   {75},
   {90},
   {82},
   {79},
   {80},
   {72, 88},
   {76},
   {86},
   {85, 87},
   {89},
   {78},
   {87},
   {79},
   {81},
   {88},
   {89},
   {83},
   {84},
   {90},
   {86},
   {90},
   {91},
   {91},
   {92},
   {92},
   {92},
   {  } ];

deadline = array2d(1..92, 1..3, [1, 5, 5, 3, 4, 1, 6, 0, 3, 6, 4, 0, 10, 0, 4, 11, 3, 3, 12, 1, 4, 12, 1, 2, 15, 1, 2, 17, 3, 2, 18, 5, 4, 21, 1, 3, 21, 5, 4, 27, 4, 4, 27, 5, 5, 28, 5, 1, 28, 5, 0, 30, 0, 0, 31, 0, 0, 32, 0, 5, 36, 3, 1, 36, 5, 1, 40, 4, 1, 41, 3, 0, 46, 5, 4, 48, 0, 0, 50, 5, 5, 54, 3, 0, 55, 2, 3, 56, 0, 3, 61, 4, 5, 63, 2, 0, 64, 0, 4, 64, 1, 3, 73, 1, 0, 76, 5, 1, 76, 3, 4, 79, 1, 0, 83, 0, 1, 83, 1, 5, 84, 1, 4, 86, 1, 4, 88, 0, 3, 99, 2, 3, 99, 2, 5, 101, 2, 4, 104, 5, 2, 106, 0, 1, 112, 0, 1, 113, 5, 5, 115, 5, 2, 117, 0, 3, 119, 1, 0, 124, 5, 0, 127, 3, 5, 131, 3, 0, 132, 4, 4, 135, 1, 4, 136, 2, 5, 138, 0, 3, 138, 1, 2, 147, 2, 4, 150, 1, 2, 152, 2, 4, 160, 3, 2, 160, 4, 1, 162, 5, 1, 163, 5, 4, 163, 4, 5, 165, 5, 1, 169, 5, 2, 173, 0, 3, 173, 3, 2, 174, 4, 5, 174, 3, 0, 176, 1, 1, 177, 4, 5, 178, 1, 2, 178, 0, 3, 180, 2, 0, 183, 3, 0, 190, 0, 1, 190, 0, 0, 191, 4, 0, 191, 3, 1, 192, 5, 5, 194, 5, 1, 194, 1, 4, 196, 1, 5, 196, 5, 4, 198, 5, 1, 200, 2, 0]);
