n_res = 4;
rc = [ 37, 35, 37, 34 ];
n_tasks = 92;
d = [0, 8, 10, 1, 6, 8, 6, 6, 3, 9, 5, 4, 6, 9, 3, 4, 10, 9, 7, 7, 2, 7, 7, 5, 6, 2, 5, 6, 4, 9, 3, 5, 3, 8, 9, 4, 4, 3, 3, 1, 3, 9, 2, 6, 3, 4, 4, 9, 4, 1, 9, 4, 7, 3, 8, 6, 10, 5, 10, 10, 8, 4, 2, 2, 4, 6, 6, 1, 9, 7, 8, 2, 2, 8, 8, 3, 9, 10, 6, 5, 4, 1, 1, 8, 6, 1, 9, 8, 7, 9, 10, 0];
rr = array2d(1..4, 1..92, [0, 0, 5, 0, 0, 4, 0, 0, 8, 2, 5, 0, 1, 0, 4, 0, 8, 1, 0, 0, 0, 3, 0, 0, 7, 4, 0, 0, 0, 10, 0, 0, 6, 0, 0, 4, 5, 0, 6, 10, 5, 10, 3, 0, 6, 0, 0, 4, 0, 0, 2, 0, 5, 0, 2, 8, 0, 0, 9, 7, 8, 0, 10, 10, 10, 0, 0, 10, 0, 0, 0, 9, 0, 0, 0, 0, 4, 6, 10, 0, 0, 2, 0, 9, 0, 8, 0, 2, 0, 0, 0, 0, 0, 2, 0, 0, 10, 3, 0, 0, 0, 10, 3, 0, 6, 0, 0, 10, 3, 0, 4, 0, 8, 8, 0, 0, 0, 6, 2, 0, 1, 2, 9, 8, 6, 7, 8, 6, 0, 0, 0, 0, 0, 0, 10, 8, 9, 4, 9, 7, 8, 0, 1, 8, 7, 0, 3, 0, 3, 2, 0, 0, 0, 10, 1, 0, 8, 1, 0, 0, 10, 0, 0, 3, 3, 0, 0, 2, 9, 2, 3, 0, 0, 7, 0, 0, 3, 6, 3, 0, 1, 5, 0, 0, 0, 7, 0, 1, 0, 0, 6, 0, 0, 0, 9, 0, 7, 8, 0, 2, 0, 10, 3, 9, 10, 0, 2, 7, 0, 7, 0, 6, 0, 0, 4, 0, 6, 1, 8, 9, 6, 0, 0, 0, 0, 0, 1, 0, 0, 0, 2, 0, 0, 0, 6, 0, 4, 0, 0, 8, 2, 3, 5, 3, 0, 0, 0, 1, 3, 0, 2, 8, 0, 0, 0, 0, 0, 9, 0, 10, 0, 0, 5, 0, 0, 6, 6, 0, 5, 7, 0, 0, 0, 0, 1, 0, 0, 5, 5, 0, 4, 0, 9, 2, 0, 0, 4, 10, 0, 0, 1, 6, 3, 0, 0, 3, 6, 0, 6, 7, 0, 0, 6, 1, 0, 0, 0, 0, 0, 5, 0, 0, 0, 7, 6, 0, 1, 10, 5, 2, 0, 0, 9, 0, 9, 8, 7, 0, 7, 6, 3, 2, 0, 0, 0, 0, 0, 2, 6, 7, 8, 0, 3, 0, 3, 3, 5, 0, 0, 10, 10, 0, 0, 10, 0, 7, 9, 0, 2, 0, 0, 0, 1, 0, 0, 0, 0, 0]);

suc = [
   {2, 3, 4},
   {9, 5, 15},
   {18, 44, 13},
   {16, 17, 33},
   {10, 12, 6},
   {11, 46, 7},
   {8, 42, 22},
   {32},
   {82, 36},
   {20},
   {68, 69},
   {36},
   {43, 29, 14},
   {37, 79},
   {24, 39, 31},
   {49, 61, 45},
   {19, 21, 23},
   {64, 25, 20},
   {65, 26, 28},
   {87},
   {27, 53},
   {48},
   {58, 83},
   {40, 61},
   {48, 53},
   {30},
   {51, 35, 62},
   {73, 47},
   {34, 37},
   {55},
   {88, 41},
   {43, 69},
   {44, 76},
   {83},
   {37, 63},
   {38},
   {42},
   {80, 51, 70},
   {57, 46},
   {72, 41},
   {66, 85, 71},
   {75},
   {54},
   {86},
   {65, 60},
   {60, 47},
   {50, 63},
   {55},
   {56, 67, 63},
   {56, 58},
   {59, 52, 78},
   {73, 91},
   {73, 65},
   {57, 79},
   {66, 69},
   {88, 75},
   {61},
   {84},
   {72, 74},
   {76},
   {66},
   {64, 68, 85},
   {90},
   {89, 81},
   {72, 77, 71},
   {67, 68, 70},
   {77},
   {82},
   {71},
   {78},
   {81, 79},
   {86},
   {74, 90},
   {88},
   {76},
   {81, 85, 77},
   {80, 86, 78},
   {87},
   {80, 89},
   {83},
   {82},
   {84},
   {84},
   {87},
   {90},
   {91},
   {91},
   {89},
   {92},
   {92},
   {92},
   {  } ];

deadline = array2d(1..92, 1..3, [1, 5, 4, 1, 1, 5, 3, 0, 0, 7, 1, 4, 7, 3, 2, 12, 4, 4, 12, 3, 3, 15, 3, 3, 17, 4, 0, 18, 2, 5, 18, 2, 0, 19, 0, 1, 22, 1, 2, 27, 2, 0, 28, 2, 1, 30, 2, 1, 39, 2, 1, 39, 3, 2, 43, 3, 2, 45, 1, 2, 46, 0, 1, 48, 1, 4, 50, 2, 2, 61, 4, 0, 66, 2, 4, 67, 4, 4, 69, 4, 5, 71, 3, 0, 71, 2, 4, 85, 5, 2, 85, 2, 1, 86, 0, 4, 87, 3, 3, 92, 3, 4, 92, 3, 5, 96, 5, 2, 110, 2, 1, 111, 4, 3, 113, 5, 4, 114, 4, 5, 116, 4, 5, 121, 4, 3, 124, 1, 1, 128, 5, 1, 133, 4, 3, 137, 4, 5, 137, 2, 0, 143, 1, 3, 154, 2, 0, 155, 5, 5, 157, 5, 0, 158, 0, 1, 158, 0, 4, 160, 1, 3, 161, 1, 1, 163, 2, 2, 168, 3, 4, 169, 1, 5, 171, 1, 4, 176, 4, 1, 181, 3, 3, 182, 2, 3, 183, 2, 2, 185, 4, 0, 190, 2, 5, 202, 1, 2, 210, 2, 4, 210, 2, 0, 216, 4, 0, 220, 2, 5, 220, 2, 2, 222, 4, 4, 222, 3, 2, 229, 5, 5, 230, 4, 4, 236, 5, 0, 240, 2, 3, 241, 3, 2, 243, 2, 2, 252, 5, 0, 252, 0, 1, 254, 5, 4, 261, 4, 1, 266, 5, 3, 272, 5, 5, 276, 1, 0, 278, 0, 3, 278, 5, 2, 279, 5, 3, 282, 3, 4, 287, 5, 2, 289, 4, 5]);
