n_res = 4;
rc = [ 44, 36, 34, 40 ];
n_tasks = 92;
d = [0, 7, 2, 4, 10, 10, 4, 2, 5, 10, 2, 6, 6, 5, 8, 6, 7, 4, 9, 3, 10, 9, 6, 10, 7, 1, 10, 1, 8, 9, 2, 6, 5, 2, 10, 10, 3, 7, 6, 4, 9, 1, 6, 10, 1, 3, 9, 5, 9, 4, 4, 2, 2, 6, 4, 3, 1, 5, 7, 3, 5, 8, 6, 2, 9, 9, 7, 7, 8, 8, 1, 5, 4, 3, 6, 1, 8, 8, 7, 6, 6, 2, 5, 10, 9, 8, 4, 10, 3, 9, 1, 0];
rr = array2d(1..4, 1..92, [0, 10, 10, 4, 3, 9, 3, 1, 5, 7, 4, 2, 10, 1, 4, 5, 3, 10, 9, 3, 2, 7, 9, 5, 10, 7, 4, 10, 2, 2, 6, 9, 3, 6, 3, 8, 2, 2, 6, 2, 6, 10, 4, 9, 1, 8, 4, 2, 8, 10, 10, 10, 4, 8, 8, 10, 1, 3, 3, 4, 9, 4, 2, 8, 3, 3, 10, 10, 3, 10, 9, 5, 2, 5, 6, 9, 2, 5, 4, 6, 10, 9, 4, 8, 6, 9, 6, 2, 10, 10, 4, 0, 0, 1, 10, 3, 4, 5, 2, 3, 10, 1, 10, 1, 9, 4, 4, 4, 6, 3, 10, 8, 6, 10, 8, 5, 5, 4, 10, 7, 7, 2, 2, 10, 5, 3, 4, 4, 10, 5, 4, 7, 10, 7, 7, 1, 7, 8, 8, 2, 6, 4, 5, 10, 5, 8, 7, 10, 5, 3, 6, 7, 8, 8, 2, 5, 2, 8, 2, 4, 4, 6, 5, 8, 9, 10, 3, 1, 5, 8, 4, 2, 6, 5, 4, 9, 1, 1, 10, 8, 9, 2, 3, 0, 0, 3, 2, 8, 2, 4, 10, 6, 2, 7, 6, 4, 4, 2, 8, 4, 1, 8, 4, 7, 8, 10, 2, 7, 4, 1, 1, 10, 5, 7, 8, 8, 9, 8, 10, 8, 6, 3, 4, 10, 4, 3, 9, 5, 2, 7, 7, 9, 2, 4, 3, 2, 6, 2, 9, 5, 3, 4, 9, 4, 1, 3, 4, 10, 6, 4, 9, 1, 7, 9, 8, 1, 6, 10, 6, 6, 5, 10, 8, 3, 1, 4, 4, 2, 5, 5, 5, 7, 8, 4, 5, 0, 0, 5, 7, 5, 1, 4, 3, 2, 4, 4, 3, 7, 8, 6, 7, 3, 10, 4, 9, 10, 5, 5, 1, 10, 3, 5, 3, 2, 2, 4, 10, 8, 9, 7, 6, 5, 8, 7, 2, 4, 9, 5, 10, 10, 6, 6, 8, 10, 6, 8, 8, 8, 2, 6, 10, 1, 5, 4, 10, 1, 10, 10, 6, 8, 6, 2, 8, 4, 1, 5, 1, 7, 7, 8, 1, 6, 3, 3, 8, 4, 1, 9, 3, 7, 7, 2, 2, 9, 10, 2, 6, 0]);

suc = [
   {2, 3, 4},
   {28, 13, 6},
   {17, 5, 14},
   {20, 14, 15},
   {85, 53, 78},
   {8, 9, 7},
   {18, 34, 37},
   {81, 62},
   {10, 12, 23},
   {16, 11, 60},
   {41, 36, 29},
   {43, 45, 54},
   {32, 49, 21},
   {80, 35, 46},
   {48, 66, 47},
   {25, 19, 33},
   {21, 22, 71},
   {83, 85, 31},
   {26, 45, 79},
   {57, 60, 47},
   {38, 46, 30},
   {27, 53, 31},
   {24, 73, 62},
   {25, 42, 39},
   {41, 35},
   {40, 42, 77},
   {73},
   {40, 36},
   {47},
   {83, 45},
   {32, 91, 87},
   {43, 76},
   {65, 51, 36},
   {41, 55, 39},
   {48, 43, 44},
   {71},
   {40, 64, 63},
   {56, 58, 59},
   {56, 57, 72},
   {44, 70},
   {48, 50},
   {67, 44, 61},
   {58, 90},
   {68},
   {84, 70},
   {64, 75, 72},
   {52, 55},
   {56, 67, 68},
   {65, 59, 54},
   {58, 51},
   {53, 78},
   {65, 59, 62},
   {57},
   {64, 72, 55},
   {61, 63},
   {75},
   {68, 69},
   {89},
   {81, 67, 61},
   {80, 83, 63},
   {89, 69},
   {71},
   {74, 75},
   {66},
   {73, 69},
   {74},
   {82},
   {88},
   {84, 70},
   {80},
   {76, 78},
   {81, 74},
   {77},
   {77},
   {76, 79},
   {89},
   {84, 85},
   {91, 79},
   {82, 86},
   {82},
   {86},
   {87},
   {86},
   {91, 87},
   {88},
   {90},
   {88},
   {90},
   {92},
   {92},
   {92},
   {  } ];

deadline = array2d(1..92, 1..3, [3, 0, 2, 6, 3, 4, 7, 2, 3, 7, 4, 0, 17, 3, 4, 18, 1, 3, 20, 5, 1, 31, 1, 5, 32, 4, 0, 32, 0, 3, 40, 2, 1, 43, 5, 1, 47, 2, 1, 47, 5, 3, 48, 1, 0, 49, 5, 4, 51, 3, 3, 52, 5, 3, 52, 1, 4, 54, 5, 5, 57, 5, 1, 60, 3, 4, 62, 1, 3, 64, 0, 0, 65, 1, 2, 68, 1, 4, 70, 4, 2, 71, 1, 0, 74, 4, 0, 74, 2, 4, 75, 5, 3, 77, 2, 0, 83, 3, 1, 85, 4, 1, 93, 4, 3, 93, 3, 3, 97, 2, 0, 105, 5, 4, 107, 1, 2, 107, 0, 0, 110, 0, 2, 126, 0, 1, 134, 3, 5, 134, 5, 3, 140, 3, 3, 153, 2, 3, 153, 4, 3, 160, 1, 2, 162, 5, 0, 163, 5, 0, 171, 1, 2, 171, 4, 2, 179, 4, 4, 180, 4, 4, 182, 2, 1, 183, 5, 5, 184, 3, 4, 185, 0, 3, 186, 5, 5, 188, 0, 4, 190, 1, 2, 190, 4, 1, 191, 5, 3, 193, 1, 3, 195, 3, 5, 196, 5, 0, 196, 0, 4, 198, 0, 1, 203, 1, 4, 208, 1, 0, 209, 1, 2, 215, 4, 5, 221, 2, 1, 224, 2, 0, 231, 1, 1, 236, 5, 0, 238, 0, 1, 240, 1, 2, 240, 5, 0, 241, 2, 2, 247, 4, 5, 252, 1, 4, 253, 5, 5, 257, 5, 0, 257, 2, 5, 261, 1, 3, 267, 3, 4, 268, 0, 5, 268, 4, 3, 270, 4, 2, 271, 0, 2, 278, 2, 5]);
