n_res = 4;
rc = [ 85, 66, 44, 70 ];
n_tasks = 92;
d = [0, 2, 3, 4, 8, 1, 2, 5, 8, 3, 1, 3, 5, 8, 2, 10, 5, 10, 10, 4, 10, 4, 3, 7, 5, 4, 9, 5, 7, 10, 10, 5, 2, 5, 9, 5, 6, 9, 1, 6, 9, 5, 10, 4, 6, 6, 2, 7, 1, 1, 3, 5, 6, 8, 10, 10, 8, 10, 6, 2, 1, 1, 6, 9, 2, 2, 1, 3, 8, 6, 1, 5, 1, 7, 6, 7, 9, 4, 3, 10, 10, 6, 7, 6, 10, 7, 5, 7, 7, 8, 4, 0];
rr = array2d(1..4, 1..92, [0, 10, 0, 7, 0, 6, 6, 7, 0, 1, 3, 4, 5, 6, 0, 0, 6, 0, 10, 0, 0, 2, 1, 0, 7, 0, 0, 0, 0, 6, 1, 9, 8, 8, 0, 0, 8, 7, 0, 0, 10, 0, 0, 2, 1, 0, 9, 3, 9, 0, 1, 0, 3, 5, 3, 3, 0, 8, 0, 0, 5, 8, 9, 0, 0, 0, 8, 0, 9, 8, 0, 0, 0, 7, 0, 6, 0, 0, 0, 0, 0, 0, 0, 0, 0, 0, 4, 0, 0, 0, 0, 0, 0, 8, 8, 8, 9, 3, 3, 0, 0, 0, 0, 8, 7, 0, 8, 8, 9, 8, 0, 10, 0, 0, 0, 5, 6, 4, 2, 0, 2, 0, 7, 0, 0, 0, 10, 2, 8, 0, 7, 0, 0, 0, 0, 0, 7, 0, 2, 5, 0, 0, 0, 1, 6, 4, 8, 0, 0, 8, 0, 10, 0, 5, 1, 6, 0, 1, 0, 0, 10, 0, 0, 0, 0, 0, 0, 0, 8, 0, 10, 0, 0, 7, 5, 0, 0, 0, 5, 0, 7, 2, 2, 0, 0, 0, 0, 8, 8, 2, 0, 0, 7, 0, 0, 0, 0, 2, 2, 4, 0, 0, 0, 0, 8, 8, 0, 0, 7, 0, 6, 1, 0, 2, 6, 0, 0, 0, 1, 4, 0, 0, 0, 3, 0, 4, 1, 7, 0, 9, 8, 7, 1, 0, 9, 0, 0, 0, 7, 2, 0, 0, 3, 0, 0, 0, 0, 1, 5, 9, 6, 0, 9, 10, 2, 0, 8, 5, 4, 0, 0, 6, 0, 6, 7, 8, 0, 0, 4, 6, 9, 0, 4, 0, 3, 0, 0, 5, 2, 0, 0, 10, 9, 0, 8, 6, 0, 0, 0, 8, 5, 8, 1, 0, 10, 7, 0, 0, 8, 7, 0, 10, 10, 5, 0, 10, 0, 0, 0, 0, 0, 0, 10, 0, 6, 0, 2, 4, 0, 8, 0, 0, 3, 0, 0, 9, 0, 0, 7, 0, 0, 0, 7, 9, 3, 0, 6, 1, 1, 0, 0, 2, 0, 3, 0, 0, 1, 7, 5, 0, 0, 0, 0, 2, 5, 7, 3, 7, 0, 1, 0, 0, 4, 5, 0, 0, 9, 0]);

suc = [
   {2, 3, 4},
   {47, 31},
   {8, 9, 77},
   {8, 5, 7},
   {16, 26, 6},
   {43},
   {19, 11, 21},
   {10, 12, 14},
   {24},
   {40, 80, 27},
   {50, 20, 15},
   {13},
   {70, 23},
   {17, 53, 54},
   {64, 18, 42},
   {37},
   {32, 41},
   {34, 35, 60},
   {65},
   {59, 22, 39},
   {28, 29},
   {25, 33},
   {52, 38},
   {84},
   {37},
   {79},
   {51, 30},
   {47},
   {61},
   {73},
   {48},
   {62},
   {57},
   {48, 49, 69},
   {36, 44},
   {89},
   {75},
   {81, 82},
   {77},
   {61, 63},
   {55},
   {73, 46},
   {58, 68, 45},
   {83},
   {76},
   {75},
   {50},
   {71},
   {76},
   {57},
   {66},
   {56, 55},
   {67},
   {64},
   {87},
   {75},
   {74},
   {78},
   {87},
   {88},
   {90},
   {82},
   {72, 89, 74},
   {72},
   {89},
   {78},
   {81},
   {70},
   {70},
   {76, 79},
   {84},
   {86},
   {88, 82},
   {81, 79},
   {80},
   {78},
   {80, 86},
   {87},
   {88},
   {90},
   {84, 85},
   {85},
   {85},
   {86},
   {91},
   {90},
   {91},
   {91},
   {92},
   {92},
   {92},
   {  } ];

deadline = array2d(1..92, 1..3, [2, 3, 4, 5, 2, 0, 6, 3, 4, 6, 2, 0, 7, 4, 3, 8, 0, 0, 9, 2, 3, 11, 4, 0, 11, 1, 1, 12, 2, 4, 12, 1, 1, 14, 4, 0, 15, 1, 2, 19, 3, 1, 21, 4, 3, 22, 0, 2, 23, 3, 2, 23, 4, 3, 26, 5, 5, 26, 4, 2, 26, 1, 3, 27, 0, 3, 37, 1, 1, 37, 3, 1, 39, 1, 2, 43, 1, 2, 44, 0, 3, 44, 0, 0, 44, 5, 1, 45, 3, 3, 45, 2, 2, 46, 0, 3, 46, 4, 4, 50, 3, 1, 52, 2, 0, 52, 3, 4, 54, 0, 1, 56, 3, 2, 57, 0, 2, 57, 2, 3, 63, 5, 3, 68, 5, 0, 68, 1, 0, 68, 2, 4, 69, 5, 4, 71, 2, 4, 72, 2, 5, 73, 1, 2, 74, 3, 1, 74, 4, 2, 86, 4, 5, 90, 0, 5, 91, 5, 2, 92, 4, 5, 103, 0, 4, 104, 2, 2, 104, 3, 0, 106, 0, 2, 107, 3, 4, 113, 4, 5, 115, 0, 5, 115, 2, 4, 117, 0, 0, 117, 1, 1, 120, 1, 5, 121, 0, 1, 122, 0, 5, 123, 4, 4, 125, 3, 2, 127, 5, 5, 130, 2, 1, 131, 3, 3, 132, 2, 2, 135, 5, 2, 136, 3, 1, 138, 3, 0, 140, 4, 4, 141, 2, 1, 144, 5, 4, 147, 5, 3, 148, 5, 1, 152, 1, 4, 153, 1, 3, 159, 3, 1, 159, 5, 0, 160, 0, 4, 164, 4, 1, 169, 5, 2, 171, 4, 1, 171, 5, 4, 174, 5, 4, 175, 0, 5]);
