n_res = 4;
rc = [ 36, 32, 32, 49 ];
n_tasks = 92;
d = [0, 2, 7, 8, 5, 9, 9, 1, 1, 9, 2, 6, 5, 8, 5, 4, 5, 6, 5, 7, 10, 9, 6, 4, 4, 7, 5, 5, 6, 8, 9, 9, 10, 4, 5, 10, 7, 7, 2, 1, 7, 9, 3, 1, 1, 6, 5, 4, 10, 5, 1, 4, 8, 4, 3, 9, 7, 4, 2, 4, 4, 6, 4, 5, 3, 7, 9, 8, 2, 9, 6, 6, 10, 5, 8, 7, 1, 6, 6, 4, 3, 6, 6, 2, 4, 6, 6, 2, 7, 9, 3, 0];
rr = array2d(1..4, 1..92, [0, 7, 1, 0, 6, 5, 5, 0, 1, 0, 7, 7, 1, 10, 0, 7, 10, 2, 2, 0, 1, 7, 0, 0, 5, 4, 10, 9, 0, 0, 0, 6, 1, 0, 0, 0, 7, 7, 8, 0, 3, 6, 10, 8, 0, 3, 9, 0, 10, 0, 6, 10, 6, 0, 0, 0, 1, 0, 0, 1, 6, 5, 9, 1, 10, 2, 0, 0, 2, 9, 3, 6, 0, 0, 8, 5, 9, 3, 2, 1, 3, 0, 10, 4, 0, 8, 7, 0, 0, 10, 2, 0, 0, 5, 0, 4, 10, 8, 3, 0, 3, 0, 7, 2, 2, 0, 0, 8, 5, 0, 0, 4, 4, 2, 3, 5, 6, 4, 0, 3, 7, 10, 10, 6, 4, 3, 8, 1, 7, 7, 5, 1, 6, 5, 0, 8, 1, 3, 0, 7, 5, 1, 9, 8, 0, 3, 2, 9, 0, 0, 0, 8, 4, 2, 9, 10, 0, 0, 9, 5, 8, 6, 10, 5, 9, 0, 2, 0, 2, 10, 4, 2, 2, 0, 2, 0, 10, 1, 0, 10, 3, 5, 8, 0, 0, 1, 3, 3, 9, 4, 10, 3, 3, 3, 7, 0, 9, 4, 2, 7, 1, 0, 6, 8, 7, 0, 2, 4, 3, 1, 9, 4, 1, 4, 2, 10, 4, 10, 7, 1, 0, 4, 7, 7, 10, 6, 0, 1, 5, 7, 0, 4, 9, 4, 0, 8, 9, 0, 4, 8, 0, 4, 4, 0, 0, 0, 0, 6, 10, 3, 3, 0, 8, 2, 1, 9, 10, 0, 0, 1, 3, 3, 0, 10, 7, 10, 4, 0, 5, 0, 0, 0, 3, 3, 0, 0, 0, 6, 8, 7, 1, 1, 7, 1, 10, 2, 4, 0, 6, 0, 8, 3, 4, 9, 1, 1, 8, 3, 5, 2, 10, 2, 0, 4, 8, 0, 10, 6, 4, 2, 3, 0, 7, 1, 7, 1, 1, 0, 5, 8, 0, 3, 9, 4, 9, 0, 8, 0, 7, 7, 0, 5, 8, 10, 6, 10, 2, 6, 0, 4, 9, 0, 8, 7, 0, 0, 10, 8, 6, 4, 4, 9, 0, 8, 9, 7, 10, 8, 0, 9, 6, 4, 9, 3, 4, 1, 10, 0]);

suc = [
   {2, 3, 4},
   {11, 5, 14},
   {37, 21, 6},
   {18, 55},
   {21, 12, 13},
   {34, 43, 7},
   {8, 9, 10},
   {61, 20, 13},
   {41, 29, 22},
   {67, 14},
   {36, 21, 38},
   {16, 24, 27},
   {17, 28, 15},
   {40, 65, 19},
   {36, 29, 62},
   {25, 26, 30},
   {66, 23},
   {37},
   {44, 22, 47},
   {53, 23},
   {32, 22, 31},
   {57, 68, 76},
   {82, 35, 47},
   {50, 46},
   {57, 90, 35},
   {51, 76, 39},
   {33, 59},
   {40, 60},
   {45},
   {47, 31},
   {72, 51, 39},
   {54, 79},
   {48, 34, 53},
   {56, 65},
   {49, 52},
   {66, 51, 70},
   {74, 59, 44},
   {74, 75, 61},
   {41, 45, 55},
   {42, 50, 46},
   {58, 77, 66},
   {48, 56, 45},
   {64, 58, 63},
   {87},
   {75, 59, 68},
   {81, 52, 55},
   {73, 57, 52},
   {85, 62},
   {58, 54},
   {69},
   {88, 54},
   {91, 78},
   {80, 84, 71},
   {67, 68},
   {69},
   {64, 72},
   {84, 70, 63},
   {67, 84},
   {64, 91},
   {73, 62},
   {65, 76, 78},
   {72, 74, 63},
   {79},
   {83, 85, 70},
   {91, 83, 71},
   {69},
   {73, 78},
   {85},
   {82, 79, 71},
   {81},
   {90},
   {75},
   {81},
   {80},
   {82, 77},
   {77, 86},
   {83},
   {80},
   {86},
   {86},
   {89},
   {88},
   {90},
   {88},
   {87},
   {87},
   {89},
   {89},
   {92},
   {92},
   {92},
   {  } ];

deadline = array2d(1..92, 1..3, [2, 4, 1, 2, 4, 2, 2, 4, 5, 2, 3, 5, 2, 0, 4, 8, 0, 1, 12, 0, 1, 12, 3, 0, 16, 2, 2, 17, 0, 5, 30, 4, 1, 31, 5, 1, 44, 2, 0, 44, 1, 3, 50, 1, 3, 58, 1, 1, 59, 5, 5, 60, 4, 2, 60, 5, 3, 62, 1, 4, 62, 4, 5, 66, 3, 5, 66, 5, 1, 67, 3, 5, 72, 1, 2, 75, 0, 3, 78, 2, 0, 81, 1, 1, 82, 1, 4, 84, 1, 0, 84, 1, 4, 86, 0, 0, 90, 0, 0, 95, 3, 2, 97, 1, 5, 102, 0, 4, 103, 1, 2, 110, 5, 3, 115, 1, 2, 116, 2, 3, 120, 2, 5, 123, 1, 2, 124, 0, 2, 125, 0, 3, 125, 3, 5, 127, 3, 4, 129, 0, 4, 135, 2, 3, 137, 0, 0, 139, 3, 2, 146, 2, 3, 146, 3, 4, 150, 0, 2, 151, 0, 1, 151, 0, 4, 151, 1, 3, 157, 1, 4, 160, 1, 2, 164, 5, 3, 166, 2, 0, 168, 1, 3, 171, 3, 3, 173, 3, 0, 180, 3, 3, 188, 1, 3, 190, 3, 3, 192, 1, 4, 194, 5, 4, 194, 5, 5, 197, 2, 4, 198, 5, 5, 200, 3, 1, 203, 4, 1, 206, 5, 5, 206, 3, 0, 209, 1, 3, 213, 1, 5, 215, 5, 2, 220, 3, 5, 221, 5, 3, 221, 4, 0, 222, 3, 4, 223, 2, 5, 226, 2, 1, 230, 4, 1, 233, 4, 3, 241, 5, 3, 242, 0, 4, 245, 0, 5, 245, 2, 5, 245, 5, 3, 246, 0, 1]);
