n_res = 4;
rc = [ 35, 33, 33, 40 ];
n_tasks = 92;
d = [0, 4, 2, 8, 5, 3, 2, 9, 4, 2, 4, 4, 6, 6, 9, 9, 5, 1, 3, 3, 10, 10, 8, 6, 7, 8, 6, 1, 7, 4, 5, 8, 5, 9, 8, 8, 10, 8, 2, 7, 6, 5, 3, 1, 7, 7, 1, 6, 7, 1, 8, 9, 5, 5, 5, 4, 3, 10, 9, 3, 3, 10, 7, 9, 2, 8, 10, 8, 8, 1, 2, 8, 5, 6, 7, 7, 2, 3, 3, 6, 1, 6, 7, 10, 1, 9, 2, 10, 6, 3, 1, 0];
rr = array2d(1..4, 1..92, [0, 9, 9, 0, 0, 0, 0, 0, 3, 7, 0, 0, 8, 3, 0, 8, 0, 0, 0, 0, 7, 9, 0, 1, 1, 7, 0, 10, 1, 1, 3, 6, 10, 0, 1, 7, 7, 4, 0, 2, 0, 0, 0, 4, 8, 0, 0, 0, 0, 8, 0, 0, 7, 0, 6, 0, 0, 8, 0, 0, 0, 0, 0, 0, 0, 7, 2, 0, 9, 0, 8, 0, 0, 0, 9, 0, 0, 0, 1, 0, 0, 0, 0, 8, 8, 0, 0, 0, 5, 7, 0, 0, 0, 8, 0, 7, 7, 0, 0, 6, 9, 7, 0, 1, 5, 0, 0, 0, 0, 7, 4, 10, 5, 7, 1, 2, 2, 10, 0, 2, 0, 0, 10, 7, 0, 6, 0, 0, 7, 0, 2, 9, 8, 0, 3, 0, 0, 4, 0, 9, 5, 3, 2, 9, 0, 0, 5, 6, 0, 0, 7, 0, 0, 1, 8, 0, 6, 10, 7, 5, 0, 0, 9, 0, 0, 4, 0, 7, 0, 0, 4, 0, 0, 4, 3, 0, 4, 0, 8, 5, 0, 0, 0, 0, 0, 9, 1, 10, 0, 0, 6, 0, 0, 2, 4, 9, 0, 4, 6, 5, 1, 1, 0, 0, 2, 0, 0, 0, 0, 10, 9, 0, 3, 7, 0, 8, 5, 0, 5, 1, 0, 5, 5, 2, 0, 0, 0, 0, 0, 0, 0, 6, 4, 0, 3, 0, 0, 7, 5, 8, 8, 7, 0, 6, 0, 0, 0, 6, 0, 0, 0, 0, 0, 3, 1, 2, 7, 0, 0, 0, 8, 5, 8, 0, 6, 0, 5, 0, 0, 5, 7, 1, 8, 0, 2, 0, 0, 2, 0, 0, 2, 9, 5, 0, 0, 0, 0, 6, 0, 0, 0, 3, 0, 0, 0, 1, 2, 7, 6, 1, 0, 1, 2, 0, 0, 4, 0, 0, 0, 9, 9, 0, 1, 0, 4, 0, 0, 8, 0, 2, 7, 0, 1, 6, 0, 8, 9, 7, 0, 1, 10, 3, 4, 8, 0, 0, 4, 0, 2, 4, 0, 0, 0, 0, 10, 9, 0, 0, 0, 3, 0, 0, 0, 0, 3, 3, 2, 9, 10, 0, 0, 0, 9, 0, 0, 2, 0, 0]);

suc = [
   {2, 3, 4},
   {67, 13, 54},
   {37, 5, 6},
   {38, 14, 15},
   {8, 30, 7},
   {9, 10, 12},
   {75},
   {32, 36, 23},
   {57, 18, 11},
   {59, 51},
   {26, 22, 39},
   {16, 17, 21},
   {49, 20, 28},
   {52, 31},
   {43, 68},
   {46, 30, 31},
   {40, 41, 44},
   {24, 33, 19},
   {48, 45},
   {27, 29, 70},
   {25, 58, 27},
   {44, 46, 52},
   {66, 45, 55},
   {25, 46, 31},
   {42, 44},
   {48, 89, 71},
   {51, 50, 43},
   {80, 43},
   {56, 35, 53},
   {41, 59},
   {34},
   {35, 38, 55},
   {42},
   {80},
   {41, 50, 47},
   {67, 76, 38},
   {57, 42},
   {40, 66, 60},
   {65, 67, 60},
   {88},
   {65, 52},
   {70, 63},
   {82},
   {77, 45, 86},
   {61},
   {64, 58, 74},
   {59, 69, 62},
   {49, 51, 55},
   {72, 53},
   {57, 61},
   {64, 65, 53},
   {82, 76, 85},
   {69, 78},
   {61, 70},
   {58, 78},
   {78, 62, 63},
   {68, 62},
   {87},
   {64, 71, 63},
   {71},
   {68},
   {81, 73, 79},
   {73, 66, 85},
   {72},
   {72, 90, 75},
   {74, 77},
   {89, 75, 69},
   {74},
   {90},
   {73, 76, 86},
   {82},
   {84},
   {87},
   {81, 79},
   {86},
   {80, 77},
   {81, 91, 79},
   {85, 87},
   {83},
   {83, 84},
   {83},
   {84},
   {89},
   {88},
   {90},
   {88},
   {91},
   {91},
   {92},
   {92},
   {92},
   {  } ];

deadline = array2d(1..92, 1..3, [8, 2, 0, 10, 5, 0, 14, 5, 4, 19, 4, 5, 20, 3, 0, 22, 2, 5, 24, 1, 1, 25, 0, 4, 26, 0, 2, 30, 4, 4, 30, 4, 3, 31, 2, 4, 31, 4, 5, 35, 2, 2, 36, 0, 4, 37, 1, 1, 38, 3, 1, 38, 1, 0, 39, 1, 0, 41, 4, 1, 42, 5, 0, 43, 5, 2, 44, 1, 3, 45, 4, 1, 46, 4, 2, 52, 4, 3, 54, 0, 2, 59, 5, 5, 59, 0, 3, 61, 5, 1, 66, 5, 3, 67, 3, 4, 67, 0, 2, 73, 4, 1, 73, 3, 2, 74, 1, 2, 75, 1, 4, 77, 4, 5, 81, 2, 5, 82, 0, 4, 84, 1, 4, 84, 1, 0, 85, 0, 4, 85, 3, 4, 87, 2, 3, 98, 0, 4, 101, 1, 4, 102, 2, 4, 104, 0, 0, 107, 5, 3, 108, 2, 2, 111, 4, 4, 112, 2, 2, 113, 1, 3, 113, 0, 2, 116, 0, 1, 116, 0, 0, 117, 5, 4, 118, 0, 5, 118, 3, 3, 120, 4, 1, 126, 5, 2, 126, 5, 1, 131, 3, 3, 134, 3, 2, 135, 5, 1, 150, 3, 0, 152, 3, 1, 157, 3, 1, 158, 5, 3, 161, 4, 0, 166, 2, 4, 166, 2, 1, 166, 5, 4, 169, 1, 2, 169, 3, 0, 177, 2, 3, 178, 4, 2, 181, 0, 4, 181, 1, 1, 182, 2, 0, 185, 5, 1, 187, 2, 2, 187, 1, 0, 191, 3, 5, 194, 1, 5, 198, 1, 2, 199, 5, 0, 200, 5, 1, 201, 0, 0, 202, 5, 1, 202, 4, 1]);
