n_res = 4;
rc = [ 18, 18, 32, 19 ];
n_tasks = 92;
d = [0, 2, 3, 2, 7, 7, 3, 7, 6, 9, 6, 4, 6, 10, 2, 4, 7, 7, 10, 1, 3, 7, 6, 2, 9, 8, 3, 2, 1, 8, 7, 7, 3, 2, 4, 5, 5, 3, 5, 1, 9, 1, 5, 10, 5, 6, 5, 8, 5, 5, 7, 8, 5, 5, 2, 1, 5, 8, 10, 10, 7, 1, 6, 8, 6, 1, 3, 7, 5, 6, 10, 5, 1, 7, 6, 7, 6, 10, 1, 7, 6, 10, 3, 6, 5, 1, 6, 10, 1, 4, 10, 0];
rr = array2d(1..4, 1..92, [0, 7, 2, 0, 0, 0, 0, 9, 8, 7, 0, 5, 0, 0, 0, 0, 0, 0, 0, 0, 0, 0, 0, 0, 0, 8, 0, 5, 10, 0, 0, 0, 0, 3, 0, 0, 1, 0, 0, 0, 0, 8, 0, 0, 0, 0, 7, 3, 0, 0, 0, 0, 0, 3, 5, 0, 0, 0, 0, 0, 10, 0, 0, 0, 0, 0, 0, 0, 0, 5, 0, 0, 0, 0, 1, 3, 0, 0, 3, 0, 0, 0, 0, 0, 0, 6, 0, 0, 10, 0, 0, 0, 0, 0, 0, 0, 0, 0, 5, 0, 0, 0, 6, 0, 0, 1, 6, 0, 0, 0, 0, 0, 0, 0, 5, 0, 0, 0, 0, 0, 0, 0, 0, 6, 8, 0, 0, 0, 0, 0, 0, 0, 3, 0, 6, 0, 0, 0, 0, 0, 4, 10, 0, 0, 9, 0, 0, 0, 7, 0, 0, 0, 0, 4, 8, 0, 3, 6, 0, 0, 0, 0, 0, 0, 2, 0, 0, 0, 0, 0, 0, 6, 10, 0, 0, 0, 0, 0, 5, 0, 0, 0, 2, 0, 0, 0, 0, 0, 6, 8, 0, 0, 0, 0, 0, 0, 3, 0, 0, 0, 7, 1, 2, 0, 0, 8, 0, 0, 10, 0, 0, 0, 0, 0, 0, 0, 0, 0, 6, 10, 0, 6, 0, 1, 0, 0, 0, 2, 1, 1, 0, 0, 0, 0, 0, 5, 0, 0, 0, 0, 0, 6, 9, 8, 0, 0, 0, 0, 0, 0, 0, 0, 0, 0, 0, 6, 0, 6, 0, 0, 8, 0, 0, 0, 0, 0, 0, 0, 0, 0, 0, 0, 0, 0, 0, 0, 0, 0, 0, 5, 0, 0, 0, 0, 0, 0, 0, 0, 0, 0, 0, 5, 0, 0, 0, 10, 5, 0, 0, 6, 0, 0, 3, 0, 0, 4, 1, 0, 0, 0, 0, 0, 0, 0, 5, 0, 0, 0, 0, 0, 0, 0, 0, 0, 0, 0, 9, 0, 0, 0, 0, 6, 0, 0, 0, 0, 0, 0, 0, 1, 0, 0, 1, 3, 8, 0, 9, 0, 0, 0, 0, 0, 0, 8, 0, 0, 0, 6, 8, 8, 6, 0, 0, 5, 0, 9, 0, 0]);

suc = [
   {2, 3, 4},
   {8, 64, 60},
   {20, 5, 23},
   {39, 13, 15},
   {26, 6, 7},
   {10, 11, 34},
   {12},
   {9, 19, 29},
   {16, 53, 78},
   {17, 36, 25},
   {24, 18, 21},
   {49, 14, 70},
   {30},
   {89},
   {40},
   {37},
   {32},
   {58, 22, 63},
   {27, 45, 47},
   {33, 34, 76},
   {52, 47},
   {66, 55},
   {85},
   {61, 31},
   {51},
   {32, 28},
   {59, 43},
   {50, 35},
   {74, 75},
   {41},
   {37},
   {48},
   {72},
   {74},
   {43},
   {54, 42, 38},
   {63},
   {73},
   {44, 46, 68},
   {58},
   {47},
   {67},
   {70},
   {73},
   {72, 62},
   {64, 54},
   {56},
   {56},
   {59},
   {65, 86},
   {57},
   {80, 57, 59},
   {73},
   {69},
   {89},
   {76},
   {91},
   {88},
   {84},
   {82},
   {64},
   {65, 77},
   {71},
   {84},
   {87},
   {81},
   {81},
   {79},
   {85},
   {85},
   {90},
   {78},
   {74},
   {87},
   {77, 79},
   {81, 79},
   {90},
   {88},
   {83},
   {91},
   {83},
   {86},
   {91},
   {86},
   {88},
   {87},
   {90},
   {89},
   {92},
   {92},
   {92},
   {  } ];

deadline = array2d(1..92, 1..3, [8, 3, 0, 9, 0, 0, 10, 2, 2, 10, 4, 4, 11, 4, 3, 13, 2, 5, 13, 3, 3, 13, 0, 0, 14, 1, 4, 20, 1, 3, 22, 1, 0, 27, 0, 4, 30, 4, 1, 30, 5, 2, 31, 4, 5, 33, 5, 1, 33, 4, 3, 35, 5, 3, 36, 2, 2, 38, 2, 2, 39, 4, 4, 43, 3, 0, 44, 3, 2, 46, 0, 3, 50, 5, 4, 53, 4, 1, 56, 2, 0, 56, 5, 4, 58, 5, 1, 61, 1, 2, 61, 3, 5, 61, 3, 5, 62, 3, 1, 64, 5, 1, 66, 4, 5, 66, 4, 4, 67, 4, 3, 69, 2, 4, 69, 0, 0, 69, 3, 3, 72, 1, 5, 74, 2, 4, 82, 4, 3, 82, 0, 0, 87, 4, 4, 88, 5, 4, 89, 2, 0, 91, 5, 1, 92, 3, 3, 96, 3, 4, 97, 3, 0, 98, 3, 4, 101, 4, 3, 103, 0, 1, 105, 0, 2, 110, 5, 1, 111, 5, 2, 111, 3, 3, 116, 1, 0, 117, 5, 3, 118, 4, 3, 120, 1, 3, 125, 0, 1, 126, 3, 5, 126, 5, 4, 127, 5, 5, 128, 0, 4, 130, 3, 2, 132, 3, 3, 136, 2, 0, 136, 3, 1, 147, 4, 4, 147, 2, 4, 149, 4, 0, 154, 5, 4, 157, 4, 1, 158, 1, 5, 161, 1, 3, 163, 2, 1, 164, 2, 2, 167, 1, 3, 167, 3, 0, 168, 2, 4, 170, 1, 1, 170, 5, 3, 172, 3, 3, 172, 3, 1, 179, 4, 0, 182, 3, 4, 183, 1, 0, 184, 4, 1, 186, 5, 4]);
