n_res = 4;
rc = [ 33, 32, 29, 35 ];
n_tasks = 92;
d = [0, 6, 4, 5, 3, 6, 5, 2, 5, 4, 10, 9, 9, 4, 2, 1, 8, 5, 3, 6, 1, 10, 6, 8, 4, 1, 8, 5, 2, 6, 10, 9, 9, 5, 9, 7, 6, 1, 8, 4, 10, 5, 2, 1, 5, 4, 2, 6, 9, 2, 1, 10, 4, 7, 2, 5, 1, 6, 2, 4, 2, 10, 1, 4, 8, 10, 7, 9, 3, 1, 6, 3, 6, 7, 4, 3, 10, 2, 6, 9, 8, 10, 9, 8, 1, 6, 7, 7, 10, 9, 8, 0];
rr = array2d(1..4, 1..92, [0, 3, 6, 0, 0, 6, 0, 7, 4, 8, 0, 0, 0, 1, 1, 0, 0, 0, 0, 0, 3, 0, 0, 0, 9, 6, 0, 0, 2, 4, 3, 8, 0, 1, 0, 0, 0, 1, 4, 10, 0, 9, 9, 5, 0, 0, 0, 8, 9, 10, 4, 0, 0, 0, 0, 10, 10, 9, 5, 0, 0, 1, 0, 0, 0, 1, 0, 0, 6, 9, 0, 0, 0, 0, 2, 0, 8, 0, 0, 10, 0, 7, 0, 0, 0, 9, 0, 10, 10, 7, 0, 0, 0, 0, 0, 0, 3, 0, 4, 7, 4, 0, 0, 2, 0, 7, 8, 0, 3, 0, 4, 5, 10, 0, 0, 8, 6, 4, 8, 0, 3, 0, 3, 3, 0, 9, 1, 0, 3, 0, 0, 4, 0, 0, 10, 8, 4, 9, 6, 0, 0, 8, 0, 9, 2, 8, 6, 1, 4, 6, 0, 0, 8, 1, 0, 0, 3, 0, 0, 0, 7, 0, 0, 10, 2, 6, 3, 6, 0, 7, 0, 1, 4, 0, 1, 0, 0, 0, 7, 8, 2, 0, 0, 0, 0, 5, 10, 0, 6, 5, 0, 0, 4, 0, 1, 0, 0, 4, 0, 4, 0, 0, 0, 0, 3, 0, 10, 0, 0, 3, 0, 0, 8, 1, 2, 0, 3, 0, 5, 4, 8, 4, 0, 0, 10, 6, 0, 0, 0, 0, 0, 0, 5, 0, 2, 0, 0, 0, 2, 5, 7, 0, 10, 9, 0, 0, 5, 1, 0, 1, 5, 6, 7, 0, 0, 0, 6, 3, 0, 10, 2, 7, 8, 0, 0, 0, 0, 4, 2, 0, 0, 0, 0, 9, 6, 0, 0, 5, 0, 9, 0, 9, 1, 0, 0, 0, 0, 0, 8, 6, 0, 0, 5, 10, 0, 0, 0, 5, 1, 0, 0, 0, 2, 9, 0, 0, 0, 3, 6, 4, 9, 5, 0, 0, 8, 0, 7, 5, 8, 0, 8, 5, 10, 9, 9, 0, 0, 0, 1, 8, 0, 0, 0, 0, 4, 1, 10, 9, 7, 0, 0, 0, 7, 0, 4, 0, 10, 0, 0, 0, 9, 0, 8, 0, 5, 0, 0, 6, 7, 8, 0, 0, 0, 0, 2, 0, 9, 0]);

suc = [
   {2, 3, 4},
   {32},
   {13},
   {16, 5, 31},
   {8, 6, 7},
   {38},
   {11, 14, 39},
   {9, 10, 20},
   {40, 12},
   {64},
   {28, 44, 15},
   {33, 21, 23},
   {65, 17, 30},
   {24, 46, 63},
   {26, 18, 19},
   {57, 59, 29},
   {69},
   {34, 62, 55},
   {25, 49},
   {36},
   {81, 37, 22},
   {70},
   {74},
   {85, 45},
   {27},
   {56},
   {59, 51},
   {38},
   {30},
   {73},
   {67, 42, 43},
   {50, 52, 86},
   {47},
   {35},
   {66, 53},
   {41, 61},
   {38},
   {90, 61, 55},
   {57},
   {48, 65, 58},
   {76},
   {78},
   {51},
   {68},
   {71},
   {53},
   {75},
   {84, 55},
   {79},
   {72, 89},
   {78, 71},
   {54, 87},
   {77},
   {75, 59},
   {60},
   {78},
   {74, 83},
   {70},
   {61},
   {79},
   {83},
   {66},
   {80},
   {70},
   {81},
   {84},
   {82, 75},
   {79},
   {81},
   {72},
   {87},
   {76},
   {90},
   {80},
   {91},
   {84},
   {85},
   {88},
   {80},
   {91},
   {87},
   {88},
   {89},
   {85},
   {91},
   {88},
   {90},
   {89},
   {92},
   {92},
   {92},
   {  } ];

deadline = array2d(1..92, 1..3, [3, 2, 5, 4, 1, 5, 5, 5, 4, 7, 1, 0, 7, 5, 2, 9, 2, 0, 10, 2, 2, 12, 3, 0, 15, 3, 2, 15, 3, 2, 18, 4, 3, 18, 1, 3, 24, 2, 5, 24, 1, 5, 29, 0, 3, 30, 4, 0, 30, 1, 2, 32, 0, 4, 37, 0, 1, 37, 1, 4, 38, 2, 4, 38, 4, 1, 39, 3, 3, 40, 2, 4, 40, 1, 0, 44, 2, 5, 49, 2, 0, 50, 4, 2, 51, 2, 1, 52, 3, 3, 56, 5, 0, 58, 2, 0, 59, 5, 0, 61, 0, 5, 64, 3, 2, 65, 0, 0, 67, 2, 2, 67, 3, 5, 68, 0, 4, 69, 0, 4, 74, 5, 5, 77, 2, 0, 81, 2, 2, 82, 0, 5, 85, 0, 2, 88, 5, 4, 91, 2, 2, 92, 3, 5, 100, 4, 2, 100, 3, 3, 100, 4, 4, 101, 4, 0, 102, 5, 5, 103, 1, 3, 107, 2, 3, 108, 5, 0, 108, 2, 4, 109, 1, 0, 109, 3, 3, 114, 4, 1, 116, 0, 5, 119, 0, 4, 120, 5, 3, 123, 2, 4, 125, 0, 5, 127, 5, 5, 127, 4, 4, 131, 2, 2, 134, 0, 3, 137, 1, 3, 138, 2, 2, 140, 1, 3, 145, 3, 3, 146, 1, 5, 146, 2, 2, 147, 4, 4, 148, 1, 0, 152, 3, 1, 155, 3, 1, 156, 1, 1, 159, 0, 4, 162, 3, 0, 163, 0, 5, 165, 0, 0, 168, 0, 2, 170, 0, 2, 170, 4, 4, 173, 4, 1, 175, 4, 4, 177, 5, 0, 177, 0, 0, 177, 0, 0]);
