n_res = 4;
rc = [ 46, 49, 41, 43 ];
n_tasks = 92;
d = [0, 5, 5, 3, 3, 5, 5, 5, 4, 8, 2, 9, 1, 8, 10, 3, 5, 8, 10, 3, 1, 2, 1, 10, 4, 1, 8, 6, 3, 8, 10, 5, 7, 5, 1, 4, 10, 2, 9, 3, 4, 8, 3, 6, 5, 7, 5, 9, 3, 5, 8, 3, 7, 4, 4, 1, 1, 2, 1, 10, 9, 3, 4, 3, 8, 4, 5, 4, 10, 9, 1, 7, 6, 3, 3, 9, 6, 7, 4, 4, 9, 9, 2, 2, 2, 10, 5, 5, 3, 5, 2, 0];
rr = array2d(1..4, 1..92, [0, 3, 9, 1, 0, 0, 10, 6, 4, 4, 10, 7, 7, 5, 7, 10, 10, 0, 3, 4, 0, 1, 2, 2, 1, 4, 4, 2, 10, 5, 5, 0, 7, 10, 1, 3, 3, 1, 0, 4, 0, 0, 4, 7, 7, 5, 7, 6, 7, 10, 6, 3, 0, 4, 0, 3, 7, 0, 2, 5, 9, 1, 2, 9, 7, 0, 0, 0, 6, 0, 8, 0, 6, 0, 6, 0, 9, 0, 0, 0, 7, 3, 0, 5, 2, 5, 0, 2, 6, 10, 10, 0, 0, 10, 8, 0, 6, 5, 3, 0, 0, 8, 9, 4, 0, 0, 0, 0, 9, 1, 7, 8, 7, 2, 10, 10, 7, 9, 0, 6, 0, 4, 0, 3, 9, 5, 6, 7, 0, 10, 9, 1, 5, 0, 5, 4, 10, 2, 2, 4, 5, 4, 3, 5, 0, 9, 3, 1, 2, 10, 4, 4, 5, 1, 0, 0, 0, 0, 6, 5, 10, 5, 0, 10, 9, 0, 0, 3, 0, 7, 2, 0, 6, 4, 0, 8, 1, 3, 6, 7, 3, 6, 0, 0, 0, 0, 6, 2, 7, 4, 9, 3, 3, 2, 7, 8, 6, 1, 5, 2, 0, 0, 0, 5, 6, 10, 5, 3, 0, 0, 8, 4, 4, 0, 0, 8, 6, 10, 8, 0, 4, 0, 0, 6, 4, 5, 0, 5, 1, 2, 9, 10, 4, 0, 0, 4, 9, 0, 0, 8, 5, 7, 6, 7, 9, 3, 10, 9, 2, 5, 7, 9, 2, 8, 4, 0, 6, 3, 9, 8, 3, 3, 1, 5, 6, 8, 5, 8, 7, 0, 4, 0, 1, 7, 4, 0, 0, 0, 6, 6, 8, 7, 10, 10, 6, 4, 0, 10, 5, 0, 8, 10, 1, 3, 1, 5, 8, 0, 2, 2, 0, 9, 7, 0, 5, 4, 10, 7, 0, 3, 2, 10, 8, 5, 8, 6, 0, 9, 2, 10, 10, 0, 1, 5, 2, 5, 0, 0, 1, 0, 4, 0, 0, 6, 9, 0, 10, 7, 4, 8, 6, 4, 0, 0, 5, 3, 5, 5, 7, 4, 8, 5, 2, 0, 5, 3, 0, 2, 9, 0, 8, 0, 1, 0, 7, 10, 0, 0]);

suc = [
   {2, 3, 4},
   {43, 71},
   {10, 5, 15},
   {8, 16, 14},
   {13, 6, 7},
   {18, 11, 12},
   {41, 36, 31},
   {24, 9, 33},
   {42},
   {41, 54},
   {58, 28, 68},
   {27, 69, 14},
   {44, 21, 46},
   {39},
   {19},
   {17, 22, 25},
   {32, 35, 20},
   {76, 63, 23},
   {28, 37, 30},
   {72, 26, 68},
   {29},
   {56, 34, 38},
   {50},
   {35, 54},
   {88, 62, 39},
   {57, 78, 47},
   {77},
   {49, 52, 62},
   {51},
   {49, 50},
   {66, 45},
   {81},
   {40, 48},
   {61},
   {41, 42},
   {39},
   {50, 47},
   {68},
   {81},
   {65, 63},
   {66, 53, 55},
   {62},
   {89, 70},
   {61, 70},
   {88},
   {59, 51},
   {83},
   {80, 85},
   {77},
   {60},
   {86, 69, 54},
   {74, 67},
   {57},
   {89, 83},
   {75},
   {73, 59, 63},
   {64, 67},
   {75},
   {72, 75, 61},
   {64, 77, 70},
   {82, 67, 71},
   {64, 65, 79},
   {66, 74},
   {80},
   {82},
   {71},
   {84, 69},
   {86},
   {91},
   {80},
   {79},
   {74},
   {84, 85},
   {79},
   {81},
   {78},
   {83, 78},
   {82},
   {87},
   {91},
   {90, 87},
   {85},
   {84},
   {88},
   {91, 86},
   {90, 87},
   {89},
   {90},
   {92},
   {92},
   {92},
   {  } ];

deadline = array2d(1..92, 1..3, [4, 3, 2, 5, 2, 4, 9, 0, 3, 9, 2, 5, 9, 3, 2, 9, 4, 0, 9, 4, 3, 14, 4, 3, 14, 3, 0, 19, 1, 4, 21, 5, 5, 23, 2, 3, 29, 1, 2, 32, 5, 5, 45, 3, 4, 46, 1, 0, 48, 1, 3, 51, 4, 4, 53, 0, 3, 57, 0, 4, 58, 5, 0, 59, 2, 0, 60, 3, 4, 65, 3, 1, 66, 1, 2, 73, 2, 5, 74, 3, 3, 75, 3, 1, 75, 5, 3, 82, 5, 1, 84, 2, 0, 87, 1, 2, 87, 4, 0, 91, 1, 2, 93, 1, 1, 97, 4, 5, 99, 5, 2, 103, 2, 1, 110, 3, 0, 111, 3, 3, 113, 3, 5, 115, 0, 0, 116, 5, 3, 122, 4, 4, 122, 3, 1, 129, 5, 4, 133, 3, 4, 133, 5, 5, 135, 4, 2, 136, 1, 5, 139, 0, 4, 141, 1, 4, 145, 0, 5, 147, 3, 0, 147, 2, 5, 150, 1, 4, 151, 5, 4, 154, 4, 5, 156, 1, 5, 156, 5, 0, 156, 0, 0, 158, 1, 4, 158, 3, 2, 164, 3, 4, 167, 5, 1, 168, 3, 0, 170, 3, 0, 175, 3, 5, 179, 5, 0, 180, 2, 0, 182, 4, 2, 182, 4, 1, 187, 2, 5, 188, 1, 1, 192, 1, 4, 192, 4, 5, 194, 4, 3, 197, 1, 1, 202, 3, 5, 203, 3, 0, 204, 4, 0, 205, 1, 0, 206, 2, 4, 207, 2, 2, 211, 5, 1, 213, 0, 1, 217, 0, 5, 220, 2, 0, 221, 4, 3, 228, 4, 4, 230, 5, 3, 230, 5, 2]);
