n_res = 4;
rc = [ 23, 16, 18, 23 ];
n_tasks = 92;
d = [0, 10, 6, 7, 7, 7, 9, 2, 1, 3, 10, 7, 2, 9, 6, 5, 7, 3, 6, 3, 6, 6, 5, 8, 9, 8, 10, 5, 8, 8, 10, 4, 3, 5, 6, 3, 6, 9, 7, 6, 8, 1, 2, 7, 7, 4, 2, 10, 8, 9, 1, 8, 10, 4, 5, 10, 10, 8, 7, 1, 9, 6, 6, 6, 3, 6, 7, 7, 8, 9, 5, 8, 1, 5, 5, 10, 7, 1, 9, 7, 5, 5, 5, 6, 2, 4, 3, 4, 8, 5, 1, 0];
rr = array2d(1..4, 1..92, [0, 0, 0, 0, 0, 0, 0, 0, 0, 0, 0, 0, 0, 0, 5, 0, 0, 0, 0, 0, 0, 0, 9, 0, 0, 6, 2, 0, 0, 0, 0, 0, 0, 7, 0, 3, 0, 0, 2, 0, 0, 8, 2, 0, 0, 0, 0, 0, 0, 0, 0, 0, 5, 4, 5, 3, 0, 7, 0, 0, 3, 4, 0, 0, 0, 9, 0, 0, 0, 0, 0, 9, 0, 0, 0, 0, 0, 0, 0, 0, 0, 0, 0, 0, 9, 0, 9, 0, 3, 4, 9, 0, 0, 6, 0, 0, 0, 1, 9, 0, 0, 0, 0, 0, 0, 1, 0, 0, 0, 0, 0, 1, 0, 10, 0, 0, 0, 0, 0, 10, 0, 2, 0, 0, 0, 0, 0, 0, 0, 0, 0, 0, 0, 0, 0, 0, 1, 0, 5, 1, 0, 0, 0, 0, 0, 0, 0, 0, 0, 0, 0, 0, 0, 0, 8, 9, 0, 0, 0, 0, 0, 0, 0, 0, 0, 0, 0, 2, 4, 0, 0, 0, 0, 6, 0, 0, 0, 0, 0, 5, 0, 0, 0, 0, 0, 0, 0, 7, 5, 0, 0, 0, 3, 1, 6, 0, 4, 0, 0, 3, 2, 0, 7, 0, 4, 0, 0, 0, 0, 0, 0, 0, 0, 0, 5, 0, 0, 0, 8, 0, 0, 0, 0, 0, 1, 0, 0, 2, 0, 0, 0, 0, 0, 2, 9, 0, 0, 0, 0, 0, 0, 0, 0, 3, 0, 0, 0, 0, 0, 0, 9, 2, 0, 0, 0, 0, 0, 7, 0, 0, 0, 0, 0, 8, 8, 0, 0, 1, 0, 8, 0, 0, 0, 0, 0, 0, 0, 0, 2, 0, 0, 0, 0, 10, 0, 0, 0, 5, 0, 0, 0, 0, 0, 10, 0, 0, 0, 0, 0, 1, 9, 0, 0, 0, 3, 0, 0, 5, 3, 0, 0, 0, 1, 5, 0, 10, 0, 0, 0, 0, 0, 5, 0, 0, 5, 0, 0, 7, 0, 0, 0, 0, 9, 0, 7, 0, 0, 0, 0, 0, 2, 0, 0, 0, 4, 5, 7, 0, 4, 0, 2, 0, 0, 5, 8, 0, 0, 0, 6, 0, 0, 0, 0, 0, 0, 0, 0, 0]);

suc = [
   {2, 3, 4},
   {8, 5, 7},
   {64, 55, 31},
   {27, 10, 26},
   {12, 6, 14},
   {16, 86, 46},
   {11, 12, 13},
   {9, 29, 15},
   {17, 18, 67},
   {53, 70},
   {21, 62},
   {50, 22, 23},
   {46, 41, 22},
   {34, 19, 20},
   {24, 49, 26},
   {81, 52, 69},
   {24, 54},
   {60, 39},
   {57, 45, 30},
   {24, 22, 47},
   {25, 58, 59},
   {58, 28, 31},
   {32, 48, 36},
   {51, 38},
   {26, 74, 29},
   {65, 91},
   {53, 29},
   {33, 75, 37},
   {40, 65, 34},
   {35},
   {33},
   {42, 43, 38},
   {57, 69},
   {56, 82, 45},
   {88, 59},
   {72, 44, 68},
   {57, 42, 43},
   {80, 66, 71},
   {49, 54, 63},
   {41, 90, 52},
   {56, 68, 47},
   {59, 76, 45},
   {56, 77, 79},
   {65, 51, 63},
   {68, 78},
   {84},
   {64, 49, 50},
   {52, 53, 55},
   {73},
   {71},
   {74, 60, 55},
   {67},
   {54, 63},
   {58, 83, 71},
   {77},
   {64, 72, 67},
   {62},
   {72, 81, 66},
   {74, 69},
   {61},
   {66, 83, 62},
   {73, 76, 79},
   {76, 79},
   {85, 70},
   {75, 70},
   {75, 84},
   {80, 78},
   {80},
   {91, 87},
   {78},
   {82},
   {89, 73},
   {84},
   {83, 87},
   {77},
   {81, 82},
   {86},
   {87},
   {88},
   {85},
   {88},
   {85},
   {86},
   {91},
   {89},
   {90},
   {89},
   {90},
   {92},
   {92},
   {92},
   {  } ];

deadline = array2d(1..92, 1..3, [6, 3, 5, 7, 2, 1, 9, 3, 1, 12, 2, 2, 16, 4, 0, 23, 4, 0, 23, 0, 4, 24, 1, 2, 25, 2, 3, 27, 5, 1, 29, 3, 4, 33, 4, 3, 36, 0, 4, 37, 0, 1, 38, 5, 3, 39, 0, 2, 39, 4, 3, 42, 1, 3, 45, 4, 4, 47, 3, 1, 48, 0, 1, 51, 5, 2, 52, 3, 2, 58, 2, 2, 63, 3, 4, 66, 3, 5, 70, 1, 1, 72, 0, 5, 74, 2, 4, 74, 4, 4, 75, 5, 2, 76, 5, 4, 77, 4, 3, 81, 3, 0, 82, 1, 2, 84, 4, 5, 91, 5, 0, 92, 5, 0, 96, 1, 3, 96, 4, 2, 97, 1, 0, 98, 0, 3, 100, 2, 5, 100, 0, 2, 107, 1, 2, 110, 5, 0, 112, 3, 1, 113, 4, 1, 114, 2, 0, 118, 1, 0, 118, 0, 1, 122, 2, 4, 126, 0, 0, 135, 5, 0, 137, 5, 5, 137, 5, 1, 141, 0, 0, 146, 0, 5, 152, 1, 5, 152, 3, 5, 154, 5, 2, 155, 5, 3, 158, 0, 3, 166, 3, 3, 167, 5, 1, 168, 3, 3, 179, 4, 5, 179, 4, 2, 183, 3, 2, 193, 3, 0, 194, 0, 4, 198, 0, 1, 199, 2, 5, 210, 3, 4, 212, 0, 2, 213, 2, 3, 216, 1, 4, 216, 5, 0, 219, 0, 4, 226, 1, 5, 228, 0, 4, 232, 1, 1, 235, 3, 2, 238, 3, 1, 238, 3, 4, 240, 1, 0, 244, 1, 2, 245, 5, 3, 252, 3, 2, 255, 4, 2, 255, 1, 4, 257, 2, 5]);
