n_res = 4;
rc = [ 24, 24, 25, 25 ];
n_tasks = 92;
d = [0, 9, 9, 10, 10, 4, 7, 3, 3, 6, 4, 10, 8, 10, 8, 3, 6, 4, 8, 1, 7, 3, 8, 2, 2, 9, 2, 7, 6, 1, 3, 4, 3, 3, 1, 7, 6, 10, 9, 4, 4, 9, 9, 9, 10, 4, 1, 8, 3, 1, 8, 10, 6, 7, 9, 6, 2, 9, 2, 2, 1, 6, 1, 9, 4, 6, 5, 1, 10, 10, 2, 8, 1, 9, 7, 2, 10, 1, 6, 4, 2, 8, 1, 10, 4, 1, 1, 4, 10, 1, 9, 0];
rr = array2d(1..4, 1..92, [0, 10, 3, 2, 7, 2, 9, 7, 7, 4, 1, 5, 4, 5, 4, 1, 5, 6, 9, 8, 2, 5, 8, 7, 2, 10, 6, 3, 7, 3, 3, 1, 6, 4, 5, 8, 1, 3, 4, 7, 6, 5, 3, 6, 6, 1, 6, 8, 1, 2, 5, 9, 4, 3, 3, 4, 5, 5, 9, 2, 10, 6, 1, 8, 9, 3, 7, 8, 3, 9, 3, 2, 5, 8, 1, 4, 6, 6, 9, 2, 3, 3, 10, 7, 9, 6, 7, 7, 7, 10, 5, 0, 0, 2, 7, 7, 4, 6, 4, 6, 1, 7, 10, 10, 8, 6, 6, 3, 7, 8, 5, 7, 7, 8, 1, 9, 6, 8, 10, 9, 7, 4, 6, 7, 1, 2, 7, 2, 6, 3, 8, 5, 5, 2, 4, 5, 1, 4, 8, 4, 4, 2, 1, 3, 2, 1, 5, 9, 6, 6, 3, 1, 4, 1, 6, 6, 9, 7, 10, 4, 6, 6, 4, 5, 6, 4, 3, 2, 10, 7, 2, 6, 6, 8, 9, 7, 3, 1, 2, 9, 1, 3, 1, 0, 0, 9, 7, 3, 9, 1, 5, 4, 9, 4, 1, 3, 2, 1, 2, 8, 1, 4, 2, 1, 8, 9, 6, 10, 8, 8, 5, 3, 7, 6, 4, 10, 9, 10, 1, 9, 9, 6, 9, 5, 10, 2, 3, 9, 3, 7, 7, 3, 1, 9, 5, 3, 3, 2, 4, 5, 1, 6, 6, 7, 3, 5, 7, 4, 1, 5, 3, 1, 7, 10, 8, 9, 3, 8, 7, 1, 1, 5, 8, 5, 10, 6, 10, 4, 9, 9, 10, 3, 1, 1, 5, 0, 0, 2, 7, 1, 3, 1, 5, 2, 2, 7, 7, 9, 5, 4, 5, 1, 2, 2, 10, 5, 10, 2, 3, 2, 10, 10, 5, 8, 1, 6, 4, 3, 4, 3, 2, 8, 8, 3, 3, 5, 9, 9, 4, 2, 5, 3, 4, 1, 10, 3, 5, 5, 4, 3, 6, 9, 1, 5, 10, 1, 2, 5, 9, 2, 1, 2, 7, 10, 1, 2, 8, 10, 3, 10, 7, 6, 8, 8, 10, 5, 9, 5, 2, 9, 1, 4, 5, 4, 4, 7, 7, 0]);

suc = [
   {2, 3, 4},
   {12, 53, 22},
   {13, 5, 6},
   {10, 21, 31},
   {8, 16, 14},
   {34, 7},
   {19, 11, 15},
   {9},
   {65},
   {42, 12, 30},
   {17, 18, 66},
   {81, 17, 61},
   {72, 51, 60},
   {32, 84, 53},
   {24, 20, 63},
   {33, 29, 23},
   {39},
   {27, 46, 63},
   {24, 46},
   {91, 29},
   {50},
   {56, 42, 28},
   {40, 26, 52},
   {73, 25, 26},
   {82, 59, 28},
   {64, 55},
   {44, 30},
   {41, 29, 62},
   {45},
   {81, 35, 79},
   {36, 52},
   {69, 70},
   {65, 74, 36},
   {48, 43},
   {88, 49, 37},
   {82, 38, 47},
   {56},
   {50, 68, 66},
   {80},
   {73, 75},
   {67},
   {58, 54, 71},
   {77},
   {45, 55},
   {70},
   {77, 47},
   {59},
   {50},
   {77},
   {62, 63},
   {64, 67, 76},
   {62},
   {78},
   {90, 55},
   {57},
   {67},
   {76},
   {86},
   {83, 68},
   {83, 75},
   {79},
   {84},
   {69, 70},
   {75},
   {89, 86},
   {85, 71},
   {68},
   {85, 78},
   {72, 81},
   {89},
   {72, 89},
   {83},
   {90, 76},
   {79},
   {78},
   {80},
   {87},
   {90},
   {80},
   {82, 84},
   {88},
   {87},
   {88},
   {85},
   {86},
   {87},
   {91},
   {91},
   {92},
   {92},
   {92},
   {  } ];

deadline = array2d(1..92, 1..3, [3, 4, 5, 4, 5, 5, 5, 5, 4, 5, 2, 2, 14, 4, 5, 15, 0, 3, 18, 3, 2, 20, 3, 0, 20, 1, 3, 22, 5, 4, 24, 5, 0, 25, 4, 5, 30, 1, 2, 30, 1, 5, 31, 4, 4, 32, 3, 3, 40, 0, 5, 40, 3, 4, 45, 4, 0, 51, 4, 4, 57, 3, 5, 58, 1, 2, 59, 3, 2, 60, 2, 4, 65, 4, 2, 65, 2, 3, 68, 1, 4, 68, 1, 5, 69, 3, 0, 69, 3, 3, 72, 0, 3, 72, 5, 1, 76, 4, 3, 78, 0, 4, 80, 3, 2, 87, 5, 4, 91, 2, 2, 91, 4, 0, 98, 5, 2, 99, 1, 0, 100, 0, 0, 102, 3, 3, 108, 2, 2, 109, 5, 0, 109, 1, 3, 113, 0, 3, 114, 4, 0, 117, 1, 1, 117, 0, 5, 118, 1, 2, 119, 5, 2, 120, 5, 4, 123, 1, 3, 124, 4, 5, 128, 2, 2, 128, 3, 2, 129, 3, 0, 130, 4, 1, 132, 0, 4, 133, 1, 1, 134, 3, 5, 134, 3, 1, 136, 5, 2, 137, 1, 0, 141, 3, 0, 143, 5, 1, 146, 5, 0, 146, 1, 3, 147, 3, 1, 148, 1, 2, 151, 1, 3, 153, 0, 3, 156, 2, 2, 157, 3, 3, 160, 1, 2, 161, 3, 5, 164, 5, 2, 164, 1, 0, 165, 1, 2, 171, 4, 5, 173, 2, 2, 174, 4, 0, 177, 4, 3, 180, 2, 2, 183, 3, 3, 185, 3, 5, 186, 4, 4, 192, 5, 0, 192, 2, 3, 199, 5, 2, 200, 2, 2, 200, 2, 0]);
