n_res = 4;
rc = [ 38, 39, 19, 44 ];
n_tasks = 92;
d = [0, 3, 2, 1, 9, 7, 10, 1, 3, 3, 3, 7, 1, 7, 9, 6, 7, 6, 7, 3, 1, 7, 9, 4, 2, 10, 2, 4, 9, 1, 2, 10, 5, 4, 9, 4, 7, 8, 3, 10, 2, 6, 6, 7, 7, 10, 4, 9, 9, 1, 5, 8, 4, 2, 10, 6, 4, 2, 4, 10, 1, 5, 3, 5, 5, 1, 2, 8, 7, 3, 4, 4, 6, 10, 4, 8, 4, 7, 3, 9, 3, 3, 8, 5, 2, 3, 8, 1, 3, 8, 2, 0];
rr = array2d(1..4, 1..92, [0, 0, 0, 0, 0, 0, 0, 0, 0, 0, 0, 9, 8, 0, 0, 1, 4, 0, 0, 3, 0, 5, 9, 6, 9, 0, 0, 3, 7, 0, 0, 5, 0, 0, 0, 0, 0, 0, 0, 0, 0, 0, 9, 7, 0, 0, 2, 0, 0, 0, 0, 0, 0, 4, 0, 0, 0, 0, 0, 0, 0, 0, 6, 0, 0, 0, 0, 0, 0, 0, 0, 6, 0, 0, 0, 0, 0, 8, 0, 0, 7, 0, 0, 6, 0, 8, 0, 0, 0, 6, 0, 0, 0, 0, 1, 4, 0, 10, 0, 0, 10, 9, 6, 0, 0, 0, 0, 0, 0, 4, 7, 0, 7, 0, 0, 0, 0, 0, 8, 0, 0, 0, 0, 0, 0, 0, 0, 0, 0, 0, 3, 0, 4, 10, 0, 0, 9, 0, 0, 7, 0, 0, 0, 10, 1, 0, 0, 0, 3, 0, 0, 0, 10, 0, 0, 6, 5, 7, 3, 0, 0, 0, 0, 0, 0, 2, 0, 0, 0, 0, 0, 9, 0, 0, 0, 0, 3, 0, 0, 0, 0, 0, 3, 0, 0, 0, 0, 0, 2, 0, 0, 10, 0, 0, 0, 0, 0, 5, 2, 0, 0, 0, 0, 0, 0, 0, 0, 0, 0, 0, 0, 0, 0, 0, 0, 0, 0, 0, 0, 0, 1, 0, 0, 0, 0, 0, 0, 0, 0, 0, 0, 0, 0, 9, 0, 0, 0, 0, 0, 4, 0, 0, 6, 0, 0, 0, 0, 0, 0, 0, 0, 0, 2, 0, 10, 0, 8, 0, 6, 0, 8, 0, 10, 0, 0, 0, 0, 0, 0, 0, 6, 8, 0, 0, 0, 0, 0, 8, 0, 0, 0, 0, 6, 0, 0, 0, 0, 0, 0, 0, 0, 0, 0, 0, 0, 0, 0, 0, 0, 0, 0, 7, 0, 0, 0, 6, 10, 0, 10, 7, 8, 3, 0, 1, 0, 8, 0, 0, 0, 0, 0, 6, 0, 0, 8, 0, 7, 0, 0, 0, 5, 0, 0, 5, 0, 5, 0, 6, 0, 0, 0, 0, 0, 2, 0, 3, 0, 0, 0, 0, 0, 3, 0, 0, 0, 0, 0, 7, 7, 0, 0, 0, 0, 0, 5, 0, 0, 0]);

suc = [
   {2, 3, 4},
   {16, 48, 11},
   {10, 19, 13},
   {36, 5, 6},
   {8, 25, 7},
   {9, 13, 30},
   {58},
   {12},
   {88, 49, 42},
   {24, 22, 15},
   {21, 14},
   {28},
   {69},
   {17, 20, 46},
   {18, 26, 37},
   {43},
   {34, 79, 23},
   {33, 27},
   {83},
   {29},
   {83},
   {68, 39},
   {45, 38},
   {64, 53, 55},
   {72},
   {40},
   {32},
   {33, 67},
   {54, 31},
   {85, 61},
   {62},
   {35, 44, 47},
   {41},
   {51, 62},
   {84},
   {40},
   {52, 63},
   {60},
   {56, 50},
   {84},
   {76},
   {61},
   {50, 71},
   {73},
   {55},
   {75},
   {59},
   {81},
   {80, 66},
   {76, 61, 86},
   {59},
   {74},
   {78},
   {57, 82, 71},
   {82},
   {65},
   {59},
   {68},
   {73},
   {89},
   {77},
   {67},
   {90},
   {73},
   {66},
   {70},
   {70},
   {89},
   {91},
   {74},
   {75},
   {74, 79},
   {80},
   {76},
   {90, 78},
   {77, 87},
   {89},
   {84},
   {88, 83, 87},
   {85},
   {86},
   {85},
   {90},
   {86},
   {87},
   {88},
   {91},
   {91},
   {92},
   {92},
   {92},
   {  } ];

deadline = array2d(1..92, 1..3, [6, 4, 2, 9, 5, 1, 9, 3, 5, 14, 0, 2, 15, 0, 4, 17, 4, 3, 19, 0, 0, 20, 5, 3, 21, 1, 1, 22, 3, 3, 24, 4, 0, 25, 1, 2, 26, 2, 2, 27, 3, 1, 27, 0, 0, 29, 0, 5, 31, 5, 3, 35, 5, 3, 35, 5, 1, 38, 4, 3, 40, 5, 3, 42, 4, 5, 44, 5, 1, 48, 5, 0, 49, 5, 0, 51, 4, 1, 52, 1, 0, 57, 2, 1, 59, 0, 3, 60, 3, 4, 61, 4, 1, 62, 2, 4, 68, 3, 0, 71, 4, 1, 72, 5, 4, 75, 4, 0, 75, 2, 4, 76, 4, 3, 77, 0, 4, 78, 2, 1, 78, 4, 4, 80, 1, 1, 80, 5, 2, 83, 5, 0, 83, 5, 4, 85, 1, 2, 85, 5, 3, 87, 1, 4, 91, 4, 2, 93, 5, 0, 96, 4, 4, 98, 3, 4, 100, 0, 1, 101, 3, 4, 101, 3, 3, 102, 3, 3, 102, 3, 4, 103, 5, 2, 107, 3, 1, 107, 3, 0, 111, 2, 0, 111, 2, 0, 116, 2, 0, 120, 3, 2, 122, 4, 3, 122, 3, 0, 124, 1, 2, 124, 3, 2, 126, 5, 4, 127, 0, 5, 127, 3, 5, 127, 0, 2, 132, 1, 2, 133, 2, 3, 138, 2, 1, 138, 4, 4, 139, 4, 2, 140, 5, 3, 141, 5, 5, 145, 4, 3, 145, 2, 3, 146, 2, 3, 146, 5, 4, 149, 3, 3, 154, 3, 3, 155, 3, 4, 156, 1, 4, 158, 5, 5, 160, 4, 3, 163, 0, 4, 165, 1, 3, 166, 0, 5]);
