n_res = 4;
rc = [ 25, 26, 26, 22 ];
n_tasks = 92;
d = [0, 3, 8, 3, 4, 7, 5, 6, 2, 8, 5, 8, 5, 3, 9, 9, 3, 10, 1, 8, 7, 4, 9, 1, 3, 10, 9, 8, 10, 3, 7, 5, 1, 5, 1, 3, 5, 2, 9, 3, 7, 10, 1, 4, 3, 8, 8, 5, 3, 2, 8, 5, 10, 7, 4, 2, 4, 9, 10, 5, 2, 6, 6, 1, 5, 3, 3, 8, 2, 2, 3, 4, 5, 3, 10, 10, 5, 10, 9, 1, 10, 1, 4, 4, 3, 8, 2, 8, 7, 9, 6, 0];
rr = array2d(1..4, 1..92, [0, 10, 5, 8, 4, 7, 3, 3, 2, 7, 3, 10, 1, 9, 3, 4, 9, 6, 1, 10, 5, 1, 3, 3, 6, 9, 7, 8, 5, 4, 1, 9, 8, 3, 7, 6, 5, 3, 7, 5, 10, 3, 3, 9, 6, 9, 6, 5, 4, 6, 1, 2, 2, 7, 7, 8, 1, 6, 9, 10, 5, 6, 2, 6, 7, 3, 6, 8, 5, 5, 1, 2, 3, 4, 9, 1, 2, 7, 8, 2, 3, 8, 5, 5, 10, 9, 2, 7, 8, 8, 6, 0, 0, 5, 1, 6, 3, 6, 7, 8, 5, 9, 2, 1, 5, 1, 4, 5, 4, 10, 6, 7, 1, 9, 2, 7, 10, 8, 4, 2, 9, 10, 8, 3, 1, 10, 4, 6, 7, 1, 10, 3, 3, 3, 9, 8, 2, 4, 9, 7, 9, 6, 10, 6, 8, 7, 4, 4, 1, 4, 2, 5, 6, 4, 6, 7, 9, 9, 2, 5, 2, 8, 9, 8, 3, 5, 3, 3, 8, 2, 6, 10, 4, 7, 1, 9, 2, 8, 9, 8, 9, 10, 6, 0, 0, 4, 2, 7, 5, 8, 5, 7, 1, 2, 1, 5, 7, 7, 7, 4, 6, 10, 9, 10, 1, 9, 5, 1, 5, 9, 4, 9, 8, 2, 6, 2, 6, 4, 10, 4, 4, 9, 1, 7, 5, 10, 3, 3, 3, 2, 8, 4, 2, 5, 3, 7, 8, 6, 6, 4, 8, 2, 5, 3, 7, 8, 5, 3, 4, 3, 4, 8, 8, 9, 2, 2, 8, 6, 9, 3, 8, 10, 5, 6, 5, 7, 3, 3, 7, 5, 4, 6, 2, 3, 9, 0, 0, 3, 6, 6, 3, 8, 2, 6, 10, 6, 3, 1, 3, 5, 1, 1, 1, 8, 7, 9, 1, 4, 2, 4, 9, 2, 1, 8, 5, 6, 8, 4, 1, 10, 5, 1, 6, 4, 3, 3, 2, 3, 8, 6, 6, 5, 5, 2, 7, 1, 7, 5, 6, 5, 8, 2, 6, 4, 3, 9, 2, 3, 8, 7, 5, 7, 4, 2, 5, 1, 8, 9, 5, 6, 7, 3, 10, 1, 10, 2, 2, 1, 9, 9, 5, 9, 4, 1, 1, 3, 9, 0]);

suc = [
   {2, 3, 4},
   {19, 14, 7},
   {8, 10, 6},
   {16, 11, 5},
   {73, 9, 42},
   {17, 25},
   {11, 21},
   {33, 66, 52},
   {65, 36, 45},
   {12, 61, 23},
   {40, 64, 15},
   {56, 29, 13},
   {35, 20},
   {72, 18, 90},
   {69, 38},
   {24, 22},
   {48},
   {82},
   {44, 29},
   {55, 31},
   {27},
   {43, 28},
   {26, 29},
   {47},
   {32},
   {65, 30, 71},
   {66, 61},
   {41},
   {54},
   {37},
   {69},
   {43},
   {34},
   {51, 85},
   {46},
   {49, 58, 59},
   {87},
   {70, 39},
   {75, 79},
   {53},
   {61},
   {50, 60},
   {53},
   {68},
   {54},
   {59},
   {82},
   {57},
   {68},
   {80},
   {84, 77},
   {78},
   {86},
   {62},
   {82},
   {83},
   {67},
   {62},
   {81},
   {84},
   {83, 63},
   {91, 83},
   {77},
   {68},
   {88, 74},
   {76, 69},
   {79},
   {80},
   {75},
   {81},
   {78},
   {80, 81},
   {78},
   {90},
   {77},
   {84},
   {87},
   {86},
   {86},
   {85},
   {91},
   {88},
   {87},
   {89, 90},
   {88},
   {91},
   {89},
   {89},
   {92},
   {92},
   {92},
   {  } ];

deadline = array2d(1..92, 1..3, [5, 3, 2, 8, 5, 0, 14, 3, 4, 16, 5, 4, 18, 1, 5, 19, 5, 5, 23, 4, 1, 25, 0, 4, 26, 1, 5, 26, 5, 5, 26, 3, 1, 29, 3, 4, 30, 0, 4, 32, 1, 1, 32, 1, 5, 33, 1, 2, 33, 2, 2, 39, 3, 0, 40, 2, 5, 42, 2, 2, 44, 5, 5, 44, 4, 0, 45, 0, 0, 46, 5, 4, 47, 4, 1, 47, 2, 5, 48, 1, 4, 50, 5, 3, 51, 0, 4, 54, 0, 4, 55, 3, 4, 57, 2, 1, 57, 1, 5, 60, 1, 2, 61, 0, 5, 63, 1, 1, 67, 0, 1, 67, 1, 0, 67, 0, 4, 71, 1, 1, 74, 3, 4, 79, 5, 4, 80, 4, 1, 83, 5, 5, 84, 5, 4, 84, 4, 4, 84, 5, 0, 88, 4, 2, 89, 1, 4, 96, 5, 4, 97, 5, 2, 98, 1, 3, 99, 3, 1, 100, 2, 3, 101, 2, 5, 102, 4, 1, 103, 0, 2, 103, 4, 1, 104, 3, 2, 104, 1, 4, 104, 5, 1, 110, 0, 0, 113, 2, 0, 119, 4, 3, 120, 0, 3, 123, 5, 3, 124, 4, 3, 125, 5, 0, 126, 1, 2, 131, 5, 5, 133, 2, 1, 134, 1, 4, 134, 2, 1, 139, 4, 4, 142, 5, 4, 143, 0, 2, 143, 4, 4, 145, 2, 0, 147, 4, 4, 151, 0, 3, 155, 4, 5, 157, 3, 3, 158, 2, 3, 158, 5, 5, 159, 4, 0, 162, 0, 2, 162, 4, 1, 163, 1, 3, 164, 3, 2, 167, 3, 1, 169, 5, 1, 172, 2, 5]);
