n_res = 4;
rc = [ 63, 58, 64, 68 ];
n_tasks = 92;
d = [0, 5, 2, 2, 9, 4, 6, 3, 4, 3, 7, 7, 10, 4, 10, 4, 5, 1, 1, 3, 8, 10, 10, 1, 10, 8, 10, 9, 6, 8, 8, 8, 7, 4, 1, 1, 6, 7, 2, 3, 1, 3, 10, 2, 5, 10, 10, 1, 5, 10, 10, 10, 9, 9, 10, 3, 8, 2, 3, 2, 6, 5, 9, 1, 3, 1, 8, 3, 3, 1, 4, 2, 7, 9, 3, 9, 1, 6, 5, 8, 2, 2, 7, 3, 1, 3, 9, 3, 6, 5, 8, 0];
rr = array2d(1..4, 1..92, [0, 4, 6, 9, 6, 9, 5, 2, 6, 1, 9, 9, 3, 1, 5, 4, 3, 7, 3, 5, 10, 2, 9, 5, 7, 2, 7, 1, 10, 8, 6, 9, 1, 3, 4, 9, 5, 8, 1, 2, 9, 7, 5, 3, 4, 7, 8, 1, 1, 8, 5, 7, 6, 4, 5, 9, 10, 5, 6, 10, 4, 2, 4, 6, 10, 7, 7, 7, 1, 10, 4, 7, 1, 6, 1, 10, 1, 2, 3, 7, 5, 6, 2, 5, 3, 1, 4, 6, 7, 7, 10, 0, 0, 5, 3, 5, 3, 8, 1, 7, 10, 4, 9, 9, 4, 3, 9, 2, 4, 9, 4, 3, 3, 10, 6, 8, 9, 4, 5, 4, 6, 3, 4, 6, 2, 1, 7, 9, 4, 7, 8, 10, 2, 4, 4, 6, 9, 4, 6, 1, 7, 6, 5, 4, 2, 10, 6, 4, 10, 2, 2, 3, 5, 4, 4, 2, 9, 6, 4, 2, 4, 1, 7, 2, 4, 4, 5, 2, 3, 2, 2, 6, 8, 3, 4, 1, 7, 3, 2, 3, 1, 4, 3, 0, 0, 8, 9, 7, 7, 4, 9, 8, 8, 3, 5, 7, 4, 3, 5, 3, 3, 7, 1, 1, 8, 3, 8, 2, 1, 4, 8, 8, 2, 4, 2, 6, 8, 9, 6, 3, 10, 1, 1, 6, 7, 6, 9, 4, 1, 10, 1, 1, 10, 2, 8, 3, 10, 7, 7, 1, 4, 2, 7, 7, 9, 4, 10, 5, 8, 2, 6, 6, 2, 7, 10, 8, 8, 6, 8, 7, 8, 2, 5, 2, 9, 4, 9, 6, 8, 2, 1, 2, 3, 1, 10, 0, 0, 3, 3, 7, 1, 9, 8, 3, 1, 10, 5, 5, 6, 6, 6, 6, 10, 9, 1, 6, 7, 5, 6, 6, 8, 6, 10, 9, 10, 5, 3, 4, 1, 1, 3, 8, 10, 2, 9, 7, 9, 6, 5, 5, 4, 7, 8, 9, 5, 5, 5, 2, 3, 9, 8, 5, 9, 5, 9, 9, 4, 2, 9, 8, 3, 10, 10, 5, 10, 3, 2, 8, 10, 4, 6, 3, 5, 6, 1, 5, 9, 10, 1, 8, 8, 10, 9, 2, 2, 2, 2, 0]);

suc = [
   {2, 3, 4},
   {16, 52, 14},
   {8, 9, 6},
   {10, 13, 5},
   {32, 19, 7},
   {91},
   {12},
   {53, 29},
   {50, 59, 55},
   {17, 11, 20},
   {24, 21, 15},
   {18, 23},
   {43, 28},
   {49, 27},
   {26, 34, 31},
   {24, 18, 34},
   {49, 26, 84},
   {42, 37, 22},
   {73, 35, 28},
   {62},
   {33},
   {75},
   {25, 60, 30},
   {74, 27, 30},
   {33, 27, 59},
   {65},
   {39},
   {48},
   {64},
   {40, 65, 36},
   {88, 61, 38},
   {41, 57},
   {40, 56, 43},
   {60, 71},
   {75, 77, 69},
   {44},
   {66, 79},
   {45},
   {72, 77},
   {54},
   {82, 45},
   {86, 46, 47},
   {78, 63},
   {47},
   {49},
   {90, 70, 71},
   {76, 85},
   {68},
   {51, 53},
   {57, 74, 51},
   {66, 78},
   {69, 54},
   {70},
   {58, 67, 68},
   {58, 68},
   {57, 75},
   {63},
   {83, 76, 71},
   {63},
   {69, 62},
   {86},
   {65, 66, 83},
   {80},
   {72, 91},
   {70},
   {90},
   {82},
   {88},
   {87},
   {78},
   {82},
   {80},
   {74},
   {76, 79},
   {83, 87},
   {90},
   {81, 79},
   {81},
   {80},
   {86},
   {85},
   {84, 87},
   {91, 84},
   {85},
   {89},
   {89},
   {88},
   {89},
   {92},
   {92},
   {92},
   {  } ];

deadline = array2d(1..92, 1..3, [2, 2, 4, 5, 0, 0, 5, 5, 4, 5, 4, 3, 9, 4, 5, 13, 1, 2, 16, 3, 1, 17, 4, 0, 20, 5, 2, 21, 5, 1, 23, 2, 4, 24, 5, 5, 33, 2, 1, 33, 2, 2, 37, 4, 2, 38, 3, 5, 40, 3, 0, 42, 3, 1, 43, 2, 0, 51, 2, 1, 53, 3, 4, 55, 1, 5, 58, 3, 2, 60, 1, 0, 63, 0, 1, 63, 2, 5, 69, 0, 2, 74, 1, 1, 80, 0, 1, 89, 0, 0, 91, 3, 0, 91, 3, 1, 93, 3, 1, 98, 0, 0, 99, 5, 1, 101, 0, 4, 101, 0, 5, 104, 1, 1, 107, 2, 5, 108, 4, 0, 110, 5, 0, 112, 1, 5, 112, 3, 0, 113, 4, 1, 114, 5, 3, 114, 2, 2, 116, 3, 0, 123, 1, 0, 126, 0, 0, 129, 4, 2, 129, 2, 1, 131, 4, 1, 131, 1, 4, 132, 3, 4, 132, 1, 0, 133, 2, 2, 137, 4, 3, 137, 1, 3, 147, 5, 2, 149, 4, 3, 155, 3, 0, 164, 1, 3, 168, 4, 0, 169, 0, 1, 170, 5, 4, 174, 3, 2, 175, 5, 1, 176, 1, 4, 177, 3, 1, 180, 5, 3, 182, 3, 2, 186, 5, 3, 189, 0, 2, 193, 2, 1, 194, 5, 2, 197, 0, 2, 198, 2, 0, 205, 0, 3, 205, 0, 1, 207, 0, 1, 207, 5, 4, 210, 0, 2, 216, 3, 4, 219, 5, 3, 220, 2, 1, 222, 1, 1, 222, 0, 3, 223, 0, 4, 224, 3, 5, 226, 1, 4, 227, 3, 2, 227, 2, 0]);
