n_res = 4;
rc = [ 88, 78, 83, 77 ];
n_tasks = 92;
d = [0, 3, 5, 1, 3, 8, 1, 4, 2, 5, 7, 8, 10, 5, 5, 5, 5, 8, 2, 9, 6, 5, 8, 4, 5, 4, 1, 8, 5, 4, 3, 9, 5, 3, 7, 8, 8, 4, 8, 6, 9, 9, 9, 6, 3, 8, 4, 10, 9, 8, 9, 10, 5, 1, 9, 8, 7, 1, 3, 8, 10, 8, 8, 2, 6, 4, 1, 1, 5, 3, 9, 2, 4, 6, 3, 8, 3, 2, 10, 1, 5, 4, 1, 5, 1, 7, 4, 3, 1, 2, 3, 0];
rr = array2d(1..4, 1..92, [0, 6, 9, 1, 3, 1, 9, 1, 1, 8, 2, 1, 1, 5, 7, 4, 7, 8, 7, 4, 9, 6, 8, 3, 8, 8, 4, 8, 10, 10, 5, 4, 2, 1, 8, 10, 6, 10, 10, 10, 5, 1, 4, 6, 9, 4, 4, 4, 9, 3, 8, 6, 8, 10, 4, 7, 10, 7, 4, 1, 10, 10, 10, 2, 1, 8, 4, 3, 4, 5, 2, 5, 9, 2, 5, 10, 7, 10, 3, 7, 6, 5, 3, 2, 3, 4, 5, 7, 6, 6, 6, 0, 0, 5, 8, 5, 3, 2, 1, 4, 5, 7, 3, 6, 2, 7, 8, 4, 10, 1, 8, 7, 3, 2, 8, 1, 10, 1, 6, 7, 8, 4, 5, 4, 2, 3, 9, 6, 5, 3, 8, 6, 10, 2, 5, 8, 9, 1, 5, 2, 6, 2, 7, 9, 2, 5, 9, 6, 10, 10, 5, 1, 8, 10, 10, 4, 8, 6, 10, 2, 4, 4, 5, 3, 2, 4, 4, 6, 3, 4, 7, 4, 7, 8, 4, 8, 7, 4, 8, 2, 8, 9, 8, 0, 0, 3, 9, 5, 4, 3, 5, 6, 5, 1, 6, 6, 4, 4, 8, 8, 10, 3, 9, 1, 2, 10, 8, 9, 10, 4, 8, 10, 1, 7, 8, 3, 2, 1, 8, 9, 6, 10, 6, 3, 9, 3, 4, 8, 5, 5, 5, 9, 5, 5, 6, 5, 4, 3, 3, 5, 6, 7, 9, 1, 3, 1, 5, 4, 10, 3, 7, 5, 4, 2, 6, 4, 2, 2, 7, 5, 7, 1, 10, 4, 7, 5, 10, 4, 5, 2, 9, 2, 8, 1, 2, 0, 0, 1, 10, 6, 10, 4, 4, 7, 8, 6, 10, 4, 4, 8, 3, 4, 6, 9, 3, 10, 9, 6, 9, 8, 3, 3, 6, 5, 1, 6, 7, 4, 2, 2, 7, 10, 10, 8, 6, 10, 9, 4, 8, 4, 7, 4, 1, 5, 8, 8, 1, 3, 2, 1, 3, 10, 4, 9, 3, 3, 5, 5, 8, 2, 4, 7, 8, 10, 5, 7, 5, 2, 4, 6, 3, 8, 3, 6, 2, 2, 3, 6, 2, 10, 6, 3, 6, 6, 5, 2, 4, 0]);

suc = [
   {2, 3, 4},
   {24, 19, 21},
   {32, 10},
   {8, 5, 6},
   {9, 18, 7},
   {16},
   {86},
   {11, 28, 38},
   {21},
   {12, 14, 15},
   {49, 13},
   {33, 39},
   {89, 20},
   {17, 60, 57},
   {27, 30, 31},
   {43, 78},
   {50},
   {35},
   {61},
   {22, 55},
   {26, 47},
   {65, 25, 23},
   {37},
   {51, 67, 43},
   {48},
   {29},
   {80, 81},
   {40, 82, 53},
   {80},
   {69},
   {34, 83, 69},
   {36, 62, 68},
   {76},
   {41, 36},
   {59, 70},
   {52, 46},
   {57},
   {79},
   {73},
   {62},
   {42, 45},
   {44},
   {54},
   {85},
   {79},
   {66},
   {58},
   {84},
   {71},
   {63},
   {64, 52, 78},
   {56, 72},
   {66},
   {88},
   {61},
   {85},
   {59},
   {75, 61, 71},
   {80},
   {62},
   {74, 78},
   {90},
   {87},
   {77},
   {72, 68},
   {87},
   {79},
   {71},
   {76},
   {77},
   {86},
   {81},
   {76},
   {87},
   {81},
   {88},
   {89, 84},
   {91},
   {84},
   {82},
   {82, 86},
   {85},
   {88},
   {90},
   {91},
   {90},
   {91},
   {89},
   {92},
   {92},
   {92},
   {  } ];

deadline = array2d(1..92, 1..3, [2, 2, 0, 3, 0, 1, 3, 1, 1, 3, 1, 4, 5, 5, 2, 10, 4, 4, 10, 3, 1, 12, 1, 3, 12, 2, 1, 14, 2, 3, 14, 5, 2, 17, 3, 1, 17, 1, 2, 18, 5, 2, 19, 1, 5, 19, 1, 3, 20, 3, 4, 21, 5, 2, 21, 4, 2, 22, 3, 1, 22, 3, 4, 22, 0, 4, 22, 4, 5, 22, 3, 5, 26, 5, 5, 28, 0, 2, 38, 0, 4, 39, 1, 3, 41, 3, 1, 42, 4, 2, 43, 0, 3, 44, 3, 3, 46, 5, 4, 47, 5, 3, 50, 2, 4, 52, 1, 5, 56, 2, 1, 57, 2, 4, 57, 1, 4, 57, 0, 2, 59, 0, 2, 62, 0, 4, 64, 5, 0, 70, 1, 3, 72, 1, 4, 73, 1, 5, 78, 0, 1, 85, 2, 4, 85, 4, 5, 87, 2, 4, 87, 0, 2, 96, 1, 5, 97, 3, 1, 100, 5, 1, 105, 3, 4, 106, 2, 4, 108, 3, 1, 110, 0, 0, 110, 1, 2, 110, 4, 5, 111, 4, 1, 111, 0, 2, 113, 5, 1, 113, 1, 3, 114, 5, 0, 122, 1, 0, 123, 5, 1, 125, 3, 2, 128, 4, 1, 131, 3, 5, 131, 1, 4, 131, 4, 0, 133, 5, 4, 139, 3, 4, 141, 5, 4, 143, 3, 3, 144, 4, 0, 146, 5, 4, 146, 4, 2, 148, 1, 0, 152, 2, 0, 152, 3, 4, 152, 4, 0, 161, 4, 4, 161, 1, 4, 166, 0, 0, 166, 4, 0, 168, 2, 0, 168, 5, 0, 171, 4, 5, 173, 1, 0, 173, 0, 5]);
