n_res = 4;
rc = [ 60, 36, 47, 44 ];
n_tasks = 92;
d = [0, 1, 8, 2, 6, 9, 5, 9, 9, 2, 8, 7, 7, 4, 10, 1, 2, 8, 9, 4, 1, 10, 7, 2, 5, 3, 5, 6, 6, 7, 6, 6, 10, 8, 2, 7, 9, 2, 4, 5, 9, 2, 5, 1, 8, 9, 9, 1, 2, 6, 4, 4, 3, 2, 1, 8, 1, 6, 9, 4, 3, 1, 10, 4, 2, 6, 7, 5, 2, 5, 7, 4, 1, 3, 7, 3, 8, 7, 4, 6, 2, 3, 5, 4, 6, 8, 10, 6, 7, 7, 5, 0];
rr = array2d(1..4, 1..92, [0, 1, 5, 0, 4, 0, 6, 9, 0, 5, 0, 7, 0, 0, 0, 1, 0, 0, 9, 0, 0, 9, 0, 9, 0, 9, 10, 0, 0, 0, 0, 0, 0, 10, 0, 8, 0, 0, 3, 4, 5, 9, 5, 3, 8, 0, 5, 0, 0, 3, 1, 0, 2, 6, 0, 3, 0, 0, 0, 0, 9, 0, 0, 0, 5, 7, 4, 0, 1, 2, 2, 0, 0, 0, 0, 1, 3, 5, 0, 5, 7, 5, 0, 7, 0, 0, 0, 0, 0, 0, 6, 0, 0, 0, 0, 0, 9, 0, 0, 4, 8, 4, 0, 0, 1, 0, 8, 0, 0, 6, 0, 0, 1, 0, 0, 0, 6, 0, 0, 6, 6, 7, 3, 7, 0, 3, 0, 0, 0, 8, 9, 0, 8, 3, 0, 3, 0, 0, 0, 9, 10, 2, 0, 1, 0, 0, 0, 1, 3, 0, 7, 0, 10, 0, 5, 0, 0, 0, 0, 0, 4, 0, 3, 0, 5, 0, 0, 0, 0, 0, 0, 5, 0, 4, 5, 0, 9, 0, 5, 0, 0, 0, 9, 0, 0, 0, 7, 3, 0, 0, 0, 0, 6, 0, 0, 0, 6, 6, 7, 0, 7, 3, 2, 4, 3, 0, 0, 2, 10, 0, 6, 5, 10, 0, 6, 7, 0, 6, 5, 0, 8, 4, 0, 0, 0, 7, 0, 0, 0, 8, 0, 2, 0, 7, 0, 8, 3, 8, 6, 10, 6, 4, 0, 3, 0, 1, 0, 1, 8, 10, 0, 0, 4, 0, 0, 0, 0, 1, 7, 10, 0, 0, 1, 6, 0, 0, 0, 2, 7, 0, 0, 10, 3, 0, 0, 0, 0, 0, 0, 4, 0, 10, 10, 7, 0, 4, 5, 2, 5, 0, 8, 6, 2, 0, 0, 5, 0, 0, 5, 0, 2, 0, 2, 5, 6, 3, 1, 0, 3, 0, 0, 6, 8, 0, 0, 8, 0, 0, 8, 0, 0, 5, 6, 3, 6, 0, 5, 0, 5, 0, 0, 10, 0, 0, 2, 0, 0, 0, 4, 1, 0, 4, 0, 4, 5, 8, 1, 3, 6, 0, 3, 5, 0, 0, 7, 0, 9, 2, 6, 7, 4, 4, 0, 0, 6, 1, 0, 0]);

suc = [
   {2, 3, 4},
   {31},
   {5, 22, 7},
   {80, 35, 38},
   {11, 13, 6},
   {8, 9, 12},
   {15},
   {43, 27, 37},
   {81, 10},
   {17, 20, 33},
   {17, 19, 23},
   {61},
   {48, 19, 14},
   {49, 54},
   {16, 18, 21},
   {40, 55},
   {60},
   {24, 27, 28},
   {36},
   {29, 78},
   {50, 47},
   {45},
   {25, 26, 82},
   {41},
   {30, 63},
   {57, 34, 42},
   {73, 52, 77},
   {75, 46},
   {91, 71, 39},
   {32, 72},
   {70},
   {79},
   {77},
   {44},
   {54, 47},
   {58},
   {87},
   {43},
   {66, 87},
   {83, 53},
   {85},
   {69},
   {62},
   {56},
   {84, 61},
   {70},
   {77},
   {67},
   {59, 51},
   {63},
   {67},
   {68},
   {74},
   {75},
   {56},
   {60},
   {58},
   {64, 68},
   {62},
   {64},
   {71},
   {65},
   {64},
   {71},
   {68},
   {79},
   {69},
   {76},
   {91},
   {86, 78},
   {76},
   {91},
   {88},
   {84},
   {84},
   {86},
   {82},
   {80},
   {89, 85},
   {87},
   {86},
   {90},
   {88},
   {85},
   {90},
   {88, 90},
   {89},
   {89},
   {92},
   {92},
   {92},
   {  } ];

deadline = array2d(1..92, 1..3, [1, 2, 4, 1, 1, 0, 2, 0, 4, 6, 2, 2, 6, 3, 4, 7, 3, 0, 9, 1, 0, 12, 2, 5, 14, 3, 4, 18, 1, 0, 21, 4, 2, 26, 1, 1, 26, 2, 4, 28, 1, 5, 28, 2, 1, 34, 4, 0, 35, 2, 2, 35, 4, 3, 36, 5, 5, 37, 0, 5, 38, 1, 4, 40, 4, 2, 43, 1, 1, 47, 4, 3, 50, 1, 4, 53, 2, 0, 56, 4, 3, 56, 2, 2, 58, 1, 4, 58, 4, 5, 59, 3, 1, 59, 2, 1, 60, 4, 2, 64, 2, 0, 70, 3, 2, 81, 4, 4, 88, 0, 2, 89, 3, 3, 93, 2, 1, 94, 5, 2, 100, 5, 2, 104, 4, 4, 108, 3, 3, 110, 1, 3, 111, 5, 2, 116, 0, 5, 116, 5, 2, 118, 5, 3, 119, 2, 0, 120, 1, 1, 121, 0, 0, 123, 1, 1, 125, 5, 2, 125, 5, 0, 130, 2, 1, 131, 3, 3, 139, 4, 4, 141, 3, 3, 144, 2, 2, 144, 0, 2, 146, 5, 5, 147, 2, 5, 148, 5, 3, 155, 1, 1, 165, 3, 2, 165, 4, 4, 166, 4, 5, 169, 0, 0, 170, 2, 3, 172, 3, 2, 173, 2, 3, 173, 5, 2, 173, 5, 0, 177, 2, 3, 180, 0, 5, 186, 5, 5, 193, 0, 2, 197, 5, 1, 198, 3, 2, 201, 4, 4, 205, 4, 5, 205, 3, 0, 208, 2, 0, 210, 2, 5, 210, 0, 0, 212, 2, 5, 213, 3, 0, 216, 5, 3, 216, 2, 1, 216, 0, 1, 218, 1, 3, 220, 3, 5]);
