n_res = 4;
rc = [ 52, 41, 58, 45 ];
n_tasks = 92;
d = [0, 6, 6, 4, 9, 1, 2, 2, 2, 5, 9, 7, 6, 2, 10, 9, 1, 6, 3, 3, 9, 4, 2, 5, 3, 3, 5, 6, 5, 5, 5, 1, 3, 6, 5, 4, 5, 9, 3, 10, 2, 10, 3, 7, 3, 9, 5, 7, 2, 2, 6, 3, 10, 10, 4, 1, 10, 10, 5, 4, 5, 8, 8, 7, 8, 4, 7, 1, 1, 10, 8, 5, 9, 4, 4, 8, 6, 6, 10, 6, 8, 7, 6, 8, 3, 8, 5, 5, 3, 7, 3, 0];
rr = array2d(1..4, 1..92, [0, 1, 9, 2, 7, 4, 5, 0, 2, 7, 4, 0, 0, 0, 4, 0, 2, 7, 8, 4, 3, 0, 6, 8, 9, 10, 5, 0, 0, 3, 4, 4, 0, 2, 10, 5, 9, 6, 0, 0, 7, 8, 0, 7, 7, 10, 1, 6, 3, 3, 2, 0, 0, 8, 0, 10, 0, 6, 9, 0, 10, 9, 10, 6, 1, 6, 9, 5, 7, 7, 2, 5, 3, 2, 1, 7, 7, 10, 5, 2, 0, 7, 10, 2, 0, 6, 4, 3, 6, 8, 5, 0, 0, 0, 0, 8, 1, 8, 0, 10, 3, 8, 2, 0, 2, 10, 5, 5, 7, 1, 5, 0, 3, 10, 0, 0, 5, 0, 2, 0, 0, 6, 7, 0, 0, 8, 0, 0, 3, 1, 0, 8, 0, 1, 0, 1, 7, 0, 0, 0, 3, 1, 7, 2, 3, 2, 0, 4, 4, 8, 0, 8, 8, 9, 5, 0, 8, 6, 0, 0, 9, 1, 1, 9, 0, 9, 7, 4, 6, 3, 1, 10, 6, 0, 2, 3, 0, 0, 0, 1, 0, 6, 2, 0, 0, 3, 7, 0, 4, 5, 6, 8, 4, 5, 0, 6, 8, 7, 7, 9, 9, 0, 1, 0, 0, 2, 5, 10, 0, 1, 0, 5, 1, 4, 0, 10, 6, 2, 9, 8, 8, 4, 0, 0, 2, 10, 10, 0, 4, 0, 0, 7, 2, 1, 4, 0, 9, 8, 4, 1, 7, 10, 10, 6, 10, 0, 9, 6, 6, 7, 9, 0, 0, 6, 1, 10, 4, 8, 0, 10, 8, 0, 10, 9, 6, 7, 4, 3, 7, 8, 5, 6, 8, 5, 8, 0, 0, 0, 1, 3, 3, 4, 6, 7, 0, 2, 9, 0, 0, 1, 0, 4, 9, 4, 10, 9, 0, 8, 2, 3, 6, 1, 6, 4, 7, 0, 10, 9, 5, 0, 0, 4, 10, 2, 9, 0, 10, 0, 0, 6, 9, 1, 1, 1, 0, 7, 0, 0, 0, 10, 4, 5, 6, 9, 10, 7, 6, 0, 7, 1, 8, 2, 7, 4, 7, 8, 0, 1, 2, 5, 8, 5, 10, 0, 7, 9, 10, 5, 5, 9, 1, 0, 8, 4, 4, 7, 4, 0]);

suc = [
   {2, 3, 4},
   {5},
   {8, 9},
   {15, 6, 7},
   {40, 10, 12},
   {16, 29, 31},
   {26, 20, 13},
   {55},
   {52, 14, 30},
   {11},
   {66, 21, 55},
   {18, 35, 42},
   {68, 38},
   {28},
   {17, 22, 23},
   {24, 25, 53},
   {33, 27, 37},
   {56, 19, 39},
   {32},
   {82},
   {57, 44},
   {35},
   {43, 45},
   {72},
   {72},
   {27},
   {59, 36},
   {58},
   {70},
   {64, 51},
   {60},
   {48, 41},
   {34, 79},
   {49},
   {66, 69, 46},
   {40},
   {64, 80},
   {40, 66, 88},
   {91},
   {48},
   {80},
   {55},
   {76},
   {61},
   {62},
   {49, 47},
   {57, 50, 83},
   {63},
   {89},
   {73, 78, 86},
   {65, 61},
   {67},
   {54, 71},
   {81, 67},
   {75},
   {76},
   {80},
   {72},
   {74},
   {84},
   {79},
   {68},
   {70},
   {78},
   {75},
   {87},
   {70},
   {79},
   {77},
   {76},
   {73},
   {91},
   {89},
   {77},
   {82, 77},
   {90},
   {88},
   {90},
   {85},
   {81},
   {84},
   {89, 85},
   {85},
   {87},
   {88},
   {87},
   {91},
   {90},
   {92},
   {92},
   {92},
   {  } ];

deadline = array2d(1..92, 1..3, [3, 4, 4, 3, 3, 4, 4, 1, 0, 4, 4, 3, 5, 4, 3, 8, 1, 4, 13, 4, 3, 13, 5, 0, 14, 5, 4, 14, 4, 2, 19, 3, 0, 21, 4, 2, 23, 5, 3, 24, 4, 1, 25, 0, 3, 30, 1, 5, 31, 4, 2, 36, 2, 1, 37, 3, 2, 37, 3, 4, 38, 5, 1, 38, 5, 5, 42, 4, 5, 42, 1, 3, 46, 1, 0, 46, 4, 3, 47, 2, 1, 47, 4, 0, 57, 3, 5, 58, 0, 5, 60, 0, 2, 66, 4, 5, 68, 1, 1, 70, 4, 5, 70, 0, 1, 73, 3, 3, 74, 0, 0, 77, 4, 0, 80, 3, 1, 81, 3, 0, 82, 5, 0, 86, 2, 5, 91, 4, 2, 93, 3, 5, 94, 0, 3, 94, 3, 5, 95, 1, 3, 96, 4, 0, 97, 4, 4, 97, 5, 1, 99, 3, 1, 105, 2, 4, 106, 2, 4, 106, 4, 0, 106, 5, 1, 107, 3, 2, 108, 0, 4, 110, 1, 3, 111, 0, 1, 112, 0, 5, 115, 0, 0, 120, 5, 4, 121, 2, 5, 122, 5, 0, 123, 2, 5, 124, 4, 1, 131, 1, 4, 139, 3, 4, 140, 0, 4, 143, 0, 1, 143, 2, 3, 145, 1, 4, 146, 0, 5, 155, 4, 5, 158, 4, 1, 161, 0, 2, 165, 3, 5, 165, 5, 0, 172, 1, 1, 175, 5, 5, 180, 3, 4, 180, 5, 5, 181, 3, 2, 181, 3, 2, 187, 0, 5, 187, 5, 3, 195, 2, 4, 196, 5, 2, 197, 2, 5, 197, 5, 3, 198, 4, 0, 198, 3, 4]);
