n_res = 4;
rc = [ 37, 42, 40, 37 ];
n_tasks = 92;
d = [0, 6, 8, 2, 3, 7, 7, 6, 3, 10, 8, 10, 5, 10, 8, 6, 7, 9, 9, 6, 5, 5, 5, 9, 9, 8, 9, 3, 5, 4, 5, 2, 6, 10, 5, 7, 8, 2, 8, 4, 8, 5, 10, 8, 9, 8, 1, 4, 4, 5, 10, 5, 1, 9, 10, 8, 5, 2, 7, 1, 8, 8, 7, 8, 3, 9, 2, 2, 10, 1, 2, 3, 6, 3, 9, 5, 1, 2, 7, 8, 2, 7, 8, 1, 8, 2, 8, 3, 9, 10, 7, 0];
rr = array2d(1..4, 1..92, [0, 2, 9, 2, 10, 3, 6, 6, 8, 4, 6, 2, 5, 2, 1, 2, 10, 7, 7, 8, 2, 4, 1, 10, 4, 10, 7, 4, 6, 5, 1, 7, 7, 7, 7, 3, 6, 1, 2, 4, 7, 6, 8, 1, 7, 8, 1, 8, 1, 9, 7, 5, 1, 7, 10, 4, 10, 7, 8, 2, 4, 9, 2, 1, 9, 5, 3, 8, 7, 1, 3, 6, 10, 5, 4, 5, 9, 9, 9, 5, 1, 9, 6, 1, 3, 2, 3, 5, 5, 2, 8, 0, 0, 2, 8, 9, 7, 4, 10, 1, 3, 9, 9, 9, 8, 7, 7, 5, 6, 1, 6, 5, 2, 8, 1, 3, 7, 3, 10, 8, 8, 3, 1, 10, 2, 2, 1, 2, 9, 9, 3, 10, 7, 1, 1, 5, 8, 8, 8, 3, 5, 10, 4, 1, 6, 7, 6, 8, 4, 8, 1, 8, 1, 10, 10, 5, 2, 10, 3, 2, 6, 6, 2, 1, 8, 2, 2, 1, 9, 5, 7, 1, 6, 5, 6, 3, 4, 2, 5, 7, 10, 6, 4, 0, 0, 5, 5, 10, 5, 3, 8, 9, 3, 2, 4, 7, 6, 2, 8, 6, 2, 10, 10, 9, 9, 1, 10, 10, 4, 2, 10, 1, 10, 2, 4, 7, 10, 1, 1, 5, 5, 1, 1, 1, 6, 4, 3, 7, 9, 8, 8, 1, 2, 3, 4, 2, 10, 1, 4, 10, 1, 1, 9, 4, 1, 4, 2, 8, 7, 5, 4, 2, 4, 3, 9, 9, 3, 7, 6, 1, 8, 3, 3, 6, 1, 3, 2, 9, 9, 10, 2, 3, 7, 4, 9, 0, 0, 4, 3, 2, 2, 3, 5, 5, 7, 4, 2, 1, 6, 10, 2, 5, 9, 7, 10, 9, 3, 6, 4, 4, 6, 10, 2, 1, 6, 6, 2, 2, 7, 6, 8, 8, 7, 3, 2, 9, 8, 7, 10, 7, 9, 3, 9, 1, 3, 2, 2, 5, 7, 6, 6, 4, 5, 7, 6, 9, 3, 7, 1, 8, 5, 8, 9, 4, 7, 6, 1, 4, 7, 9, 10, 1, 3, 3, 9, 6, 5, 5, 1, 10, 5, 2, 9, 2, 6, 4, 5, 0]);

suc = [
   {2, 3, 4},
   {33, 10, 27},
   {50, 20, 6},
   {16, 13, 5},
   {8, 9, 7},
   {53, 47},
   {12, 14, 31},
   {11},
   {21},
   {42, 39},
   {48, 18, 22},
   {40, 34, 19},
   {43, 37, 15},
   {80, 52, 23},
   {17, 34, 86},
   {75, 38, 63},
   {30},
   {24, 35, 39},
   {25, 28, 46},
   {55, 21, 31},
   {67, 63},
   {45, 29, 38},
   {26, 60},
   {32, 82},
   {64, 77, 39},
   {36, 70, 68},
   {44},
   {38},
   {41},
   {73, 45, 87},
   {65, 54},
   {65, 57, 52},
   {46, 79},
   {69},
   {41, 42},
   {66, 85, 61},
   {74},
   {77, 54, 47},
   {74},
   {56},
   {56, 49, 62},
   {60, 84},
   {83, 51},
   {51, 69, 63},
   {88, 59},
   {50, 83, 68},
   {76, 62},
   {58},
   {59},
   {85},
   {78, 54},
   {61},
   {71},
   {81, 62},
   {60},
   {86},
   {88, 73},
   {61, 79},
   {65},
   {71},
   {78},
   {66, 91, 68},
   {80, 88},
   {78},
   {91},
   {84},
   {72, 82, 69},
   {87},
   {71},
   {72},
   {73},
   {74, 76},
   {75, 76},
   {90, 75},
   {89},
   {79},
   {80},
   {81},
   {90},
   {82, 86},
   {84},
   {83},
   {85},
   {87},
   {90},
   {89},
   {89},
   {91},
   {92},
   {92},
   {92},
   {  } ];

deadline = array2d(1..92, 1..3, [1, 3, 5, 2, 0, 0, 4, 5, 2, 4, 4, 5, 6, 3, 1, 6, 1, 2, 8, 4, 1, 15, 3, 4, 20, 0, 5, 21, 5, 3, 27, 2, 1, 28, 0, 2, 31, 0, 2, 35, 4, 0, 39, 4, 4, 40, 1, 2, 40, 2, 5, 40, 0, 2, 44, 1, 2, 45, 0, 4, 52, 1, 5, 54, 5, 5, 56, 4, 3, 59, 4, 1, 62, 1, 1, 62, 3, 2, 63, 5, 5, 63, 3, 0, 65, 0, 2, 79, 5, 4, 83, 1, 2, 85, 1, 5, 89, 1, 1, 89, 2, 1, 90, 5, 0, 91, 3, 2, 94, 0, 1, 99, 4, 4, 101, 3, 4, 107, 4, 4, 109, 4, 5, 111, 3, 2, 111, 4, 2, 113, 4, 4, 117, 4, 1, 118, 5, 3, 119, 0, 4, 121, 1, 3, 121, 3, 1, 121, 1, 0, 122, 4, 5, 126, 4, 3, 127, 4, 2, 132, 4, 5, 135, 0, 2, 136, 4, 1, 136, 3, 0, 137, 3, 0, 138, 0, 2, 140, 0, 0, 141, 4, 2, 142, 4, 2, 146, 3, 2, 146, 2, 0, 149, 2, 3, 154, 5, 2, 157, 2, 0, 164, 0, 3, 173, 4, 1, 174, 5, 4, 181, 5, 1, 183, 2, 1, 183, 1, 5, 186, 5, 0, 187, 5, 4, 188, 3, 2, 189, 2, 3, 191, 1, 0, 192, 0, 1, 193, 0, 3, 193, 4, 5, 194, 0, 4, 194, 0, 1, 196, 1, 5, 198, 2, 0, 200, 0, 1, 201, 3, 0, 201, 4, 1, 201, 2, 0, 202, 3, 4, 204, 1, 1, 205, 5, 3]);
