n_res = 4;
rc = [ 50, 47, 48, 52 ];
n_tasks = 92;
d = [0, 1, 4, 4, 2, 10, 9, 6, 8, 8, 6, 6, 4, 3, 3, 9, 5, 10, 10, 9, 3, 9, 8, 10, 10, 3, 8, 5, 9, 7, 9, 2, 10, 3, 6, 6, 5, 9, 10, 10, 9, 7, 7, 3, 9, 4, 10, 3, 2, 7, 4, 9, 7, 7, 10, 7, 5, 4, 4, 9, 4, 2, 5, 6, 1, 5, 6, 4, 2, 10, 7, 8, 7, 4, 1, 5, 1, 2, 10, 3, 8, 3, 6, 2, 2, 2, 2, 3, 4, 1, 3, 0];
rr = array2d(1..4, 1..92, [0, 6, 6, 8, 5, 1, 6, 8, 10, 10, 3, 6, 8, 7, 10, 3, 3, 5, 10, 5, 6, 7, 2, 1, 9, 6, 3, 6, 5, 7, 10, 10, 10, 3, 1, 4, 2, 3, 1, 10, 10, 8, 9, 4, 7, 3, 7, 6, 10, 4, 7, 3, 9, 2, 8, 2, 2, 10, 6, 2, 7, 8, 6, 8, 3, 3, 6, 3, 8, 7, 2, 6, 10, 10, 1, 4, 6, 5, 6, 9, 10, 9, 6, 9, 10, 8, 1, 8, 6, 6, 1, 0, 0, 6, 1, 3, 1, 8, 10, 3, 9, 4, 4, 7, 6, 3, 4, 7, 10, 4, 3, 9, 9, 10, 5, 5, 4, 4, 8, 1, 3, 10, 2, 4, 8, 1, 9, 7, 8, 6, 2, 8, 2, 4, 4, 6, 3, 1, 4, 3, 7, 5, 4, 6, 10, 3, 4, 5, 7, 8, 9, 8, 6, 9, 6, 9, 4, 4, 10, 8, 8, 5, 4, 5, 6, 8, 4, 6, 10, 4, 5, 7, 2, 3, 2, 3, 9, 5, 4, 7, 9, 3, 9, 0, 0, 7, 10, 6, 9, 3, 9, 5, 3, 5, 10, 7, 8, 10, 1, 1, 5, 3, 10, 6, 4, 7, 10, 5, 4, 2, 9, 9, 8, 7, 9, 8, 1, 7, 6, 6, 3, 6, 1, 7, 7, 4, 10, 8, 10, 8, 1, 7, 10, 1, 10, 6, 5, 10, 10, 5, 4, 6, 2, 7, 8, 2, 1, 6, 3, 1, 6, 1, 7, 1, 3, 3, 1, 4, 7, 1, 2, 5, 1, 9, 7, 1, 6, 8, 4, 10, 10, 8, 1, 6, 5, 0, 0, 9, 4, 2, 8, 8, 7, 4, 6, 2, 8, 3, 1, 2, 3, 10, 6, 6, 8, 9, 4, 9, 7, 6, 4, 9, 1, 7, 8, 9, 5, 8, 6, 5, 1, 8, 1, 8, 2, 10, 4, 2, 10, 6, 1, 5, 7, 8, 2, 6, 5, 4, 7, 3, 5, 4, 9, 4, 10, 7, 10, 1, 10, 1, 1, 9, 2, 8, 8, 2, 10, 10, 9, 1, 6, 7, 8, 1, 5, 2, 10, 8, 1, 6, 3, 6, 5, 9, 2, 1, 10, 0]);

suc = [
   {2, 3, 4},
   {8, 65, 5},
   {9, 38},
   {14, 6, 7},
   {48},
   {33, 58, 15},
   {12, 13, 23},
   {16, 18},
   {17, 10, 11},
   {40, 43, 52},
   {57, 27, 45},
   {32, 68, 21},
   {25, 20, 21},
   {29},
   {50, 31},
   {49, 28},
   {19},
   {24, 49, 34},
   {44, 30, 60},
   {46, 57, 22},
   {49, 26},
   {43, 36},
   {40, 83, 37},
   {25, 66},
   {32, 39},
   {59, 60, 71},
   {54},
   {50},
   {32},
   {35, 79, 63},
   {65},
   {54, 63},
   {80, 76},
   {55},
   {45, 70},
   {66, 39},
   {61, 46},
   {41, 75},
   {84},
   {77},
   {42, 61},
   {53},
   {56, 62, 47},
   {72},
   {65, 69},
   {58, 84, 47},
   {60},
   {73, 54},
   {51, 53, 86},
   {53},
   {56, 78, 70},
   {91, 87},
   {81},
   {80, 74},
   {58, 77},
   {73},
   {64, 78},
   {66, 62},
   {87},
   {69, 70},
   {64, 88, 69},
   {64, 68, 76},
   {83},
   {67},
   {68, 71},
   {75},
   {85},
   {88},
   {72},
   {80},
   {88},
   {74, 77, 78},
   {82, 79},
   {81, 86},
   {82},
   {85},
   {81, 85, 87},
   {89},
   {91, 83},
   {91},
   {82},
   {89},
   {84},
   {89},
   {86},
   {90},
   {90},
   {90},
   {92},
   {92},
   {92},
   {  } ];

deadline = array2d(1..92, 1..3, [6, 5, 3, 8, 3, 3, 9, 3, 0, 12, 5, 3, 15, 1, 4, 16, 4, 0, 16, 2, 4, 17, 5, 5, 18, 5, 4, 18, 0, 5, 21, 1, 1, 22, 3, 3, 22, 0, 2, 23, 4, 2, 28, 0, 5, 30, 3, 5, 34, 2, 2, 35, 4, 2, 40, 4, 2, 42, 4, 0, 43, 0, 3, 43, 2, 2, 45, 1, 3, 48, 5, 0, 48, 4, 1, 50, 3, 2, 50, 3, 5, 52, 2, 4, 54, 3, 1, 61, 0, 3, 63, 4, 1, 64, 3, 2, 66, 0, 5, 74, 2, 3, 77, 5, 5, 79, 5, 5, 84, 2, 5, 87, 3, 4, 94, 3, 0, 95, 1, 3, 101, 0, 1, 101, 4, 1, 107, 1, 3, 108, 4, 2, 110, 5, 2, 111, 1, 0, 116, 3, 2, 118, 4, 3, 126, 3, 3, 129, 1, 4, 130, 1, 1, 133, 0, 0, 134, 4, 2, 140, 5, 4, 142, 0, 5, 143, 2, 0, 150, 5, 0, 153, 3, 2, 153, 2, 2, 154, 2, 0, 157, 4, 1, 162, 5, 0, 162, 4, 5, 165, 2, 2, 171, 4, 0, 174, 0, 4, 176, 2, 2, 177, 2, 1, 178, 2, 2, 181, 4, 3, 181, 2, 1, 188, 1, 2, 188, 0, 1, 194, 4, 2, 194, 5, 0, 202, 3, 1, 204, 3, 2, 206, 4, 0, 207, 1, 1, 208, 0, 0, 209, 0, 1, 209, 1, 5, 213, 4, 0, 213, 4, 3, 213, 3, 0, 216, 3, 3, 217, 2, 2, 217, 4, 1, 221, 1, 0, 223, 3, 1, 224, 1, 3, 225, 2, 0]);
