n_res = 4;
rc = [ 35, 40, 42, 36 ];
n_tasks = 92;
d = [0, 9, 6, 8, 9, 3, 7, 7, 8, 8, 10, 2, 8, 7, 1, 8, 6, 8, 2, 9, 5, 8, 3, 5, 7, 2, 3, 1, 3, 5, 8, 9, 2, 7, 7, 3, 9, 3, 9, 5, 1, 6, 9, 7, 2, 7, 2, 4, 6, 4, 9, 10, 9, 6, 8, 1, 8, 4, 3, 4, 3, 9, 7, 5, 5, 1, 1, 6, 8, 5, 10, 6, 5, 8, 4, 3, 1, 5, 9, 2, 4, 1, 10, 4, 3, 2, 3, 7, 3, 1, 3, 0];
rr = array2d(1..4, 1..92, [0, 3, 10, 4, 2, 2, 4, 10, 10, 4, 3, 5, 6, 8, 4, 7, 5, 3, 3, 5, 5, 8, 3, 0, 4, 0, 2, 10, 5, 0, 1, 0, 7, 3, 0, 3, 4, 9, 3, 0, 0, 7, 0, 9, 4, 0, 5, 2, 0, 4, 1, 1, 4, 0, 4, 6, 10, 9, 3, 5, 10, 8, 7, 10, 3, 4, 9, 0, 10, 0, 4, 0, 5, 0, 8, 1, 6, 6, 1, 2, 6, 5, 9, 0, 7, 0, 10, 6, 3, 4, 1, 0, 0, 0, 0, 0, 5, 5, 5, 9, 0, 4, 4, 8, 5, 9, 0, 8, 0, 4, 5, 8, 5, 8, 4, 2, 0, 9, 0, 7, 10, 9, 8, 4, 0, 4, 1, 7, 10, 4, 9, 4, 3, 3, 6, 0, 0, 6, 1, 5, 1, 7, 4, 8, 6, 0, 8, 9, 5, 3, 6, 5, 1, 10, 3, 2, 4, 0, 1, 1, 1, 8, 1, 4, 8, 4, 0, 2, 5, 10, 0, 8, 0, 6, 6, 0, 3, 0, 9, 6, 5, 7, 4, 0, 0, 0, 0, 6, 8, 7, 9, 8, 6, 8, 0, 2, 4, 10, 6, 3, 0, 0, 8, 5, 0, 4, 0, 1, 6, 0, 10, 5, 1, 10, 0, 6, 3, 4, 2, 8, 0, 10, 9, 7, 4, 3, 5, 5, 0, 7, 0, 2, 0, 0, 2, 0, 0, 5, 10, 5, 0, 7, 9, 10, 9, 0, 0, 7, 9, 9, 3, 9, 6, 10, 10, 10, 0, 0, 3, 0, 7, 0, 4, 3, 0, 7, 7, 0, 2, 2, 7, 0, 10, 0, 4, 0, 0, 4, 4, 9, 0, 0, 5, 0, 4, 1, 4, 9, 7, 8, 10, 0, 9, 2, 1, 0, 4, 5, 2, 0, 2, 4, 4, 8, 8, 0, 4, 2, 0, 3, 4, 7, 5, 10, 5, 2, 0, 0, 0, 2, 9, 2, 1, 9, 10, 4, 1, 10, 5, 4, 7, 10, 0, 7, 0, 9, 0, 8, 4, 0, 10, 0, 0, 0, 2, 1, 0, 8, 9, 4, 0, 8, 1, 0, 10, 5, 0, 0, 5, 9, 0, 0, 0, 0, 6, 8, 4, 0]);

suc = [
   {2, 3, 4},
   {8, 5, 15},
   {89, 75, 53},
   {9, 68, 7},
   {54, 17, 6},
   {16, 13, 30},
   {40, 50, 75},
   {64, 10, 11},
   {73, 35},
   {19, 12, 21},
   {32, 25, 34},
   {72, 55, 31},
   {18, 14, 23},
   {58, 22},
   {24, 27, 20},
   {26, 36, 22},
   {59},
   {43, 71},
   {41, 29},
   {75},
   {52, 68},
   {77},
   {25, 85, 45},
   {90},
   {77},
   {28, 70},
   {65, 57},
   {33, 38, 39},
   {81, 37},
   {65, 61},
   {45},
   {35},
   {40, 37},
   {44},
   {88},
   {48, 51},
   {60, 45},
   {79},
   {56, 42, 83},
   {64, 80},
   {48, 66, 74},
   {49, 47},
   {72, 57, 55},
   {67, 46},
   {65},
   {81, 69},
   {51, 61, 78},
   {73},
   {52, 77},
   {66, 76, 78},
   {58, 84, 63},
   {73, 66, 79},
   {85, 55},
   {74, 61},
   {86},
   {62},
   {70},
   {64},
   {60},
   {74, 62},
   {69, 63},
   {67, 69, 78},
   {80, 67},
   {71},
   {79},
   {80},
   {72, 68},
   {71},
   {76},
   {86},
   {85},
   {76},
   {88},
   {84},
   {91, 83},
   {87},
   {82, 91},
   {82, 87},
   {88},
   {89},
   {82, 83},
   {84},
   {90},
   {86},
   {87},
   {90},
   {91},
   {89},
   {92},
   {92},
   {92},
   {  } ];

deadline = array2d(1..92, 1..3, [1, 5, 4, 2, 3, 2, 8, 5, 3, 12, 1, 5, 15, 1, 5, 19, 5, 4, 19, 4, 0, 21, 0, 4, 23, 0, 4, 25, 0, 4, 26, 1, 0, 26, 2, 4, 28, 5, 4, 29, 2, 2, 32, 4, 5, 34, 1, 2, 37, 3, 0, 39, 2, 5, 41, 3, 4, 43, 0, 3, 45, 4, 4, 46, 2, 0, 46, 2, 5, 49, 2, 2, 50, 2, 4, 50, 2, 3, 53, 4, 1, 53, 3, 4, 57, 1, 3, 59, 3, 5, 62, 0, 5, 65, 1, 4, 67, 4, 5, 71, 2, 0, 72, 3, 3, 73, 2, 1, 75, 1, 2, 80, 3, 5, 82, 0, 0, 83, 1, 4, 84, 5, 5, 85, 5, 3, 85, 0, 5, 86, 0, 2, 88, 2, 5, 89, 4, 5, 89, 5, 4, 92, 3, 2, 97, 0, 3, 98, 0, 1, 108, 5, 2, 114, 0, 0, 115, 4, 5, 117, 4, 5, 118, 0, 3, 121, 1, 5, 122, 1, 3, 123, 3, 5, 123, 4, 5, 137, 2, 4, 138, 5, 5, 138, 1, 0, 139, 0, 3, 146, 2, 3, 148, 5, 5, 151, 0, 3, 153, 2, 1, 160, 4, 0, 164, 1, 4, 168, 0, 5, 168, 3, 2, 170, 1, 4, 170, 3, 2, 171, 2, 3, 175, 4, 3, 178, 3, 0, 180, 1, 4, 182, 0, 0, 187, 1, 5, 193, 5, 4, 195, 2, 4, 196, 4, 5, 197, 1, 2, 204, 3, 0, 206, 4, 5, 207, 0, 1, 215, 0, 5, 216, 1, 4, 220, 4, 3, 223, 1, 3, 223, 2, 4, 224, 0, 0]);
