n_res = 4;
rc = [ 75, 93, 86, 80 ];
n_tasks = 92;
d = [0, 10, 1, 1, 10, 7, 4, 7, 8, 5, 10, 1, 6, 10, 9, 10, 9, 8, 2, 6, 8, 5, 4, 2, 5, 6, 8, 7, 4, 2, 8, 2, 7, 4, 8, 8, 3, 5, 6, 5, 8, 5, 2, 6, 8, 3, 4, 10, 6, 6, 3, 3, 2, 6, 7, 6, 10, 2, 6, 6, 9, 3, 9, 4, 8, 3, 7, 4, 2, 3, 7, 9, 5, 9, 7, 5, 4, 4, 6, 7, 10, 6, 1, 8, 9, 7, 8, 3, 3, 7, 10, 0];
rr = array2d(1..4, 1..92, [0, 10, 2, 5, 3, 6, 2, 4, 7, 2, 8, 1, 6, 2, 1, 9, 1, 4, 4, 2, 2, 5, 5, 6, 8, 8, 4, 7, 3, 4, 6, 3, 8, 7, 3, 10, 9, 5, 7, 8, 9, 4, 7, 9, 5, 8, 8, 4, 8, 3, 4, 6, 5, 5, 5, 7, 8, 1, 2, 7, 1, 10, 2, 10, 10, 2, 5, 3, 8, 7, 9, 9, 7, 3, 1, 2, 8, 6, 4, 3, 10, 9, 4, 2, 7, 9, 9, 10, 2, 5, 6, 0, 0, 7, 1, 8, 4, 8, 8, 5, 5, 8, 8, 2, 8, 2, 7, 1, 4, 9, 9, 5, 8, 10, 8, 10, 5, 4, 1, 1, 10, 2, 3, 3, 4, 9, 7, 6, 10, 9, 9, 2, 7, 4, 1, 7, 10, 8, 4, 5, 10, 1, 9, 6, 7, 9, 4, 1, 8, 9, 9, 2, 1, 1, 7, 8, 9, 9, 5, 5, 7, 2, 4, 2, 5, 8, 2, 4, 5, 8, 1, 7, 5, 3, 4, 1, 6, 6, 6, 1, 8, 1, 6, 0, 0, 1, 9, 8, 1, 2, 10, 7, 6, 9, 2, 5, 4, 4, 9, 2, 8, 9, 6, 9, 1, 9, 5, 2, 4, 8, 6, 3, 6, 6, 1, 3, 7, 1, 2, 10, 3, 6, 8, 8, 10, 3, 10, 7, 8, 3, 7, 2, 1, 1, 7, 8, 10, 4, 3, 8, 1, 9, 7, 2, 10, 8, 9, 2, 1, 8, 10, 8, 2, 10, 3, 10, 10, 8, 1, 2, 6, 6, 4, 8, 1, 4, 9, 6, 10, 6, 7, 1, 10, 5, 10, 0, 0, 8, 2, 8, 5, 10, 9, 1, 1, 4, 1, 9, 1, 1, 9, 8, 2, 10, 1, 1, 3, 8, 8, 6, 7, 1, 9, 7, 10, 7, 7, 9, 7, 3, 10, 10, 8, 9, 1, 4, 5, 3, 1, 8, 7, 3, 1, 5, 8, 3, 4, 3, 1, 6, 5, 8, 4, 8, 1, 8, 1, 3, 9, 6, 6, 4, 8, 5, 1, 5, 8, 10, 5, 2, 8, 4, 4, 5, 9, 5, 1, 1, 9, 8, 7, 3, 3, 6, 1, 3, 6, 0]);

suc = [
   {2, 3, 4},
   {8, 64, 21},
   {17, 34, 13},
   {5, 6, 7},
   {11},
   {48, 53, 70},
   {9, 18, 26},
   {10, 52},
   {40, 49, 14},
   {16, 19, 20},
   {51, 12, 15},
   {22},
   {58, 23},
   {66},
   {41, 69},
   {22},
   {33},
   {24, 54},
   {27},
   {43, 35, 61},
   {83},
   {42},
   {45},
   {25},
   {32, 28, 30},
   {63, 29, 31},
   {57},
   {36, 44},
   {51, 55},
   {72},
   {86, 38},
   {37},
   {76},
   {65},
   {79},
   {41},
   {47, 39},
   {68},
   {50, 44},
   {88, 46},
   {66},
   {89},
   {47},
   {65, 52},
   {86, 67, 62},
   {77},
   {60},
   {57, 84},
   {59},
   {87},
   {56},
   {79},
   {59},
   {65},
   {64, 57, 73},
   {81, 60},
   {82},
   {74},
   {61},
   {75, 86, 87},
   {74},
   {88, 74},
   {69},
   {80},
   {84},
   {82},
   {68},
   {73, 76},
   {71},
   {83, 76},
   {72},
   {85, 78},
   {84},
   {85},
   {90},
   {81},
   {78},
   {83},
   {81},
   {87},
   {91},
   {91},
   {89},
   {85},
   {89},
   {88},
   {91},
   {90},
   {92},
   {92},
   {92},
   {  } ];

deadline = array2d(1..92, 1..3, [1, 5, 4, 3, 2, 0, 5, 4, 1, 8, 0, 3, 8, 1, 0, 13, 1, 5, 13, 3, 1, 16, 5, 3, 19, 2, 5, 19, 0, 3, 21, 0, 2, 24, 0, 2, 25, 3, 1, 26, 0, 4, 26, 3, 1, 30, 2, 4, 31, 4, 5, 33, 2, 4, 35, 2, 4, 36, 1, 4, 37, 1, 4, 37, 1, 4, 40, 2, 0, 43, 1, 4, 49, 5, 5, 49, 2, 3, 51, 4, 3, 52, 4, 1, 53, 1, 3, 54, 1, 2, 55, 0, 0, 55, 1, 2, 56, 1, 4, 57, 0, 2, 59, 2, 4, 59, 4, 4, 59, 3, 5, 64, 1, 4, 66, 5, 3, 69, 5, 5, 70, 2, 2, 72, 2, 5, 76, 1, 2, 80, 4, 0, 81, 0, 2, 82, 3, 3, 90, 5, 3, 93, 3, 4, 94, 3, 4, 96, 5, 2, 101, 2, 3, 106, 2, 0, 107, 3, 3, 108, 2, 1, 108, 2, 1, 109, 3, 3, 112, 5, 1, 113, 2, 0, 114, 5, 3, 117, 0, 1, 122, 4, 5, 122, 5, 5, 126, 5, 5, 129, 2, 3, 130, 5, 4, 132, 5, 4, 136, 3, 5, 136, 0, 0, 137, 5, 0, 138, 2, 4, 140, 5, 5, 140, 0, 4, 141, 5, 5, 141, 2, 1, 141, 1, 1, 142, 3, 4, 143, 2, 5, 147, 4, 0, 147, 3, 3, 148, 0, 2, 148, 3, 3, 149, 1, 1, 150, 3, 1, 151, 3, 4, 151, 5, 1, 155, 0, 2, 157, 2, 3, 162, 1, 3, 163, 1, 4, 163, 2, 3, 163, 0, 4, 165, 0, 2]);
