n_res = 4;
rc = [ 34, 41, 33, 27 ];
n_tasks = 92;
d = [0, 5, 9, 10, 5, 5, 5, 3, 7, 7, 1, 9, 2, 10, 4, 8, 1, 7, 2, 7, 6, 9, 1, 6, 9, 10, 5, 9, 1, 10, 8, 1, 2, 10, 9, 3, 7, 6, 5, 3, 4, 2, 8, 7, 6, 8, 1, 3, 1, 3, 5, 3, 8, 1, 10, 3, 5, 7, 4, 10, 2, 7, 9, 8, 4, 10, 10, 1, 2, 10, 7, 6, 1, 8, 8, 4, 1, 7, 10, 6, 4, 5, 3, 3, 4, 2, 5, 2, 5, 4, 6, 0];
rr = array2d(1..4, 1..92, [0, 0, 0, 0, 0, 0, 0, 3, 0, 3, 0, 0, 0, 3, 0, 0, 0, 0, 0, 0, 0, 5, 0, 0, 0, 0, 8, 0, 0, 0, 0, 0, 0, 0, 0, 10, 0, 0, 0, 0, 0, 0, 0, 0, 8, 9, 9, 0, 7, 0, 0, 0, 0, 2, 0, 7, 0, 7, 0, 0, 0, 0, 1, 0, 0, 0, 0, 0, 0, 0, 0, 0, 0, 1, 0, 0, 0, 0, 0, 7, 0, 0, 0, 0, 10, 5, 0, 0, 0, 9, 0, 0, 0, 0, 0, 0, 1, 7, 0, 0, 0, 0, 6, 1, 0, 0, 0, 0, 0, 0, 0, 0, 4, 0, 0, 0, 10, 7, 0, 0, 5, 10, 2, 0, 0, 5, 0, 0, 0, 3, 1, 2, 10, 0, 0, 0, 0, 0, 0, 0, 0, 9, 0, 8, 0, 0, 3, 0, 0, 0, 0, 2, 3, 7, 0, 0, 0, 0, 4, 8, 0, 5, 0, 0, 10, 0, 0, 8, 0, 0, 0, 0, 0, 3, 0, 0, 0, 0, 0, 0, 0, 0, 0, 0, 0, 6, 5, 0, 0, 0, 0, 0, 2, 0, 0, 0, 6, 0, 0, 0, 0, 0, 0, 0, 0, 0, 5, 0, 0, 0, 0, 1, 0, 0, 0, 1, 4, 0, 10, 0, 0, 0, 0, 0, 0, 0, 6, 10, 0, 0, 0, 0, 0, 0, 10, 0, 1, 0, 0, 0, 4, 0, 8, 0, 0, 0, 0, 7, 0, 10, 0, 0, 0, 0, 0, 0, 0, 0, 0, 0, 0, 0, 5, 0, 0, 0, 0, 0, 0, 0, 0, 2, 0, 0, 8, 0, 0, 0, 0, 3, 0, 0, 5, 0, 0, 0, 0, 0, 0, 0, 6, 8, 6, 9, 8, 10, 0, 0, 0, 10, 0, 0, 0, 0, 0, 0, 0, 0, 0, 0, 0, 0, 3, 0, 0, 0, 0, 4, 0, 0, 0, 0, 0, 7, 0, 0, 0, 0, 0, 0, 0, 0, 0, 0, 0, 0, 0, 0, 0, 0, 1, 0, 0, 0, 8, 0, 4, 9, 0, 0, 3, 0, 7, 10, 0, 0, 10, 0, 2, 8, 0, 0, 7, 0, 9, 0, 0, 0]);

suc = [
   {2, 3, 4},
   {13, 86, 7},
   {49, 5, 6},
   {16, 10, 40},
   {57, 27, 21},
   {33, 51, 68},
   {8, 9, 20},
   {18, 14, 23},
   {56, 34, 58},
   {24, 11},
   {35, 12, 15},
   {17, 26, 28},
   {54, 62, 30},
   {34, 28, 30},
   {25, 59, 54},
   {35, 22},
   {38, 19, 22},
   {32, 41, 27},
   {42, 20, 46},
   {91, 30},
   {80, 41, 42},
   {25, 29, 47},
   {32, 87, 31},
   {41, 52, 37},
   {32, 71, 39},
   {57, 69, 45},
   {82, 63, 31},
   {50},
   {49, 36},
   {77},
   {35, 46},
   {33, 44, 37},
   {43, 60, 55},
   {64, 65, 53},
   {74},
   {64, 61, 63},
   {46},
   {48, 58, 62},
   {48, 81, 52},
   {90, 71},
   {53, 70, 47},
   {51, 45},
   {75, 52},
   {68},
   {66, 60},
   {72, 53, 78},
   {77, 54},
   {57, 67, 63},
   {59, 51, 69},
   {88, 67, 55},
   {86},
   {80, 69},
   {88, 55},
   {61},
   {79},
   {73, 65, 62},
   {60},
   {73, 65, 61},
   {64, 66},
   {74, 76},
   {82},
   {81, 78, 70},
   {72, 68},
   {81, 90, 67},
   {75, 77, 71},
   {86},
   {73, 76, 70},
   {83, 75},
   {89, 74},
   {84, 79},
   {72, 85},
   {83},
   {85},
   {90, 83},
   {80, 76},
   {78},
   {84},
   {79},
   {91},
   {88},
   {82},
   {84},
   {91},
   {85},
   {87},
   {87},
   {89},
   {89},
   {92},
   {92},
   {92},
   {  } ];

deadline = array2d(1..92, 1..3, [3, 0, 5, 5, 5, 4, 6, 2, 2, 6, 1, 0, 9, 5, 1, 10, 1, 3, 14, 4, 0, 14, 4, 2, 18, 0, 1, 19, 3, 4, 21, 0, 3, 23, 0, 5, 26, 0, 4, 28, 3, 1, 29, 1, 0, 32, 4, 0, 33, 0, 4, 38, 3, 3, 41, 1, 4, 48, 2, 3, 49, 2, 2, 50, 2, 1, 51, 0, 5, 58, 0, 2, 60, 1, 4, 61, 5, 5, 61, 3, 1, 69, 0, 0, 69, 2, 0, 80, 5, 0, 82, 0, 3, 82, 4, 3, 83, 5, 3, 84, 2, 5, 90, 0, 5, 94, 4, 4, 96, 1, 3, 98, 1, 1, 101, 2, 5, 105, 0, 0, 105, 5, 2, 106, 5, 0, 107, 3, 4, 109, 2, 1, 110, 3, 5, 114, 1, 4, 116, 4, 3, 118, 1, 1, 127, 5, 4, 129, 5, 4, 129, 1, 3, 133, 1, 4, 135, 3, 2, 139, 2, 4, 140, 2, 2, 140, 5, 0, 145, 3, 0, 153, 2, 5, 153, 1, 5, 153, 1, 4, 156, 4, 5, 159, 3, 4, 164, 0, 3, 166, 4, 3, 168, 3, 4, 172, 3, 4, 176, 1, 4, 176, 2, 5, 176, 2, 3, 178, 0, 5, 180, 3, 0, 181, 0, 0, 182, 1, 1, 190, 3, 0, 190, 1, 3, 196, 1, 2, 198, 0, 1, 199, 3, 2, 203, 0, 5, 218, 2, 3, 220, 0, 4, 220, 5, 2, 221, 0, 2, 223, 0, 2, 223, 3, 3, 224, 5, 5, 229, 4, 4, 232, 5, 1, 233, 1, 4, 237, 2, 4, 244, 1, 4, 247, 1, 4]);
