n_res = 4;
rc = [ 63, 65, 74, 65 ];
n_tasks = 92;
d = [0, 1, 9, 8, 10, 6, 8, 6, 3, 2, 8, 4, 6, 5, 1, 2, 2, 1, 9, 7, 3, 2, 10, 8, 1, 8, 8, 10, 5, 3, 6, 5, 9, 5, 10, 9, 1, 10, 10, 1, 7, 9, 10, 9, 1, 7, 9, 3, 1, 7, 6, 9, 2, 5, 8, 2, 9, 5, 5, 3, 5, 5, 2, 3, 7, 6, 9, 7, 8, 2, 1, 6, 7, 10, 8, 1, 8, 5, 1, 9, 5, 5, 2, 5, 9, 5, 3, 1, 4, 2, 8, 0];
rr = array2d(1..4, 1..92, [0, 5, 9, 4, 9, 4, 5, 8, 3, 7, 1, 2, 8, 6, 10, 8, 8, 2, 1, 3, 9, 10, 2, 6, 7, 5, 4, 8, 1, 6, 6, 4, 3, 6, 7, 2, 3, 5, 9, 7, 2, 2, 4, 6, 6, 9, 8, 6, 6, 9, 3, 8, 7, 2, 2, 2, 5, 7, 3, 7, 5, 1, 4, 8, 3, 5, 2, 9, 8, 8, 1, 4, 9, 5, 8, 9, 8, 8, 5, 4, 7, 9, 4, 3, 8, 7, 4, 5, 10, 1, 9, 0, 0, 10, 6, 1, 5, 5, 1, 3, 1, 6, 8, 7, 7, 10, 9, 6, 1, 4, 2, 10, 3, 8, 1, 9, 7, 10, 1, 10, 2, 7, 9, 1, 2, 6, 6, 10, 1, 3, 8, 3, 4, 5, 4, 2, 9, 3, 2, 9, 1, 1, 5, 6, 6, 2, 4, 3, 5, 3, 5, 10, 5, 10, 4, 3, 1, 1, 9, 4, 3, 4, 1, 8, 7, 8, 6, 10, 6, 4, 7, 8, 5, 5, 10, 1, 9, 3, 7, 5, 1, 7, 4, 0, 0, 3, 8, 4, 10, 6, 6, 4, 4, 4, 8, 8, 4, 9, 8, 2, 3, 7, 5, 5, 2, 5, 2, 10, 1, 8, 6, 9, 10, 7, 7, 2, 9, 10, 5, 7, 3, 1, 10, 2, 5, 2, 4, 6, 7, 9, 1, 7, 4, 7, 2, 10, 5, 5, 6, 2, 2, 7, 10, 1, 8, 8, 5, 9, 7, 7, 8, 5, 10, 1, 9, 10, 7, 7, 3, 2, 5, 2, 4, 4, 2, 1, 9, 6, 8, 5, 8, 7, 8, 10, 2, 0, 0, 2, 5, 8, 9, 6, 4, 8, 5, 3, 10, 1, 6, 4, 6, 1, 4, 5, 6, 5, 10, 10, 7, 4, 7, 8, 1, 9, 9, 3, 4, 8, 3, 3, 7, 3, 2, 6, 4, 3, 4, 6, 2, 4, 6, 4, 6, 4, 3, 7, 9, 10, 6, 7, 6, 10, 3, 4, 3, 2, 5, 6, 3, 6, 3, 4, 5, 4, 3, 8, 2, 10, 10, 8, 4, 4, 3, 2, 5, 1, 9, 6, 9, 9, 9, 7, 1, 2, 6, 9, 1, 0]);

suc = [
   {2, 3, 4},
   {48, 21, 23},
   {8, 63, 7},
   {9, 5, 6},
   {26, 11},
   {17},
   {32, 12, 30},
   {16, 41, 10},
   {27, 29, 14},
   {56, 52, 22},
   {25, 58, 31},
   {24, 13},
   {15},
   {18, 36, 53},
   {19, 20},
   {81, 39},
   {54},
   {38},
   {40, 65},
   {85},
   {33, 28},
   {43},
   {82, 51},
   {44, 62, 55},
   {50, 46},
   {45},
   {75},
   {37, 47},
   {35, 77, 61},
   {34, 59},
   {45},
   {39},
   {74},
   {79},
   {63},
   {87},
   {88, 43},
   {78},
   {42, 83},
   {70},
   {64, 84},
   {43},
   {53},
   {49, 70},
   {76},
   {74, 83},
   {60},
   {73},
   {71},
   {56},
   {64},
   {70},
   {67},
   {57, 66, 68},
   {72, 75, 67},
   {81},
   {80, 60},
   {63},
   {60},
   {79},
   {86},
   {67},
   {75},
   {76, 69, 71},
   {68},
   {88},
   {77},
   {78},
   {81},
   {78},
   {74},
   {79},
   {83},
   {86},
   {90},
   {89, 87},
   {85},
   {89},
   {84},
   {88},
   {91},
   {85},
   {90},
   {91},
   {86},
   {91},
   {90},
   {89},
   {92},
   {92},
   {92},
   {  } ];

deadline = array2d(1..92, 1..3, [1, 5, 0, 10, 4, 2, 11, 3, 4, 14, 0, 0, 18, 2, 3, 21, 1, 5, 28, 4, 1, 40, 3, 4, 40, 2, 3, 40, 5, 4, 51, 1, 5, 53, 5, 3, 53, 4, 4, 54, 5, 2, 55, 0, 1, 56, 5, 1, 59, 5, 3, 66, 2, 0, 67, 2, 4, 72, 2, 4, 73, 3, 4, 82, 2, 5, 86, 1, 1, 88, 5, 1, 91, 3, 3, 92, 3, 1, 93, 3, 5, 98, 0, 1, 98, 2, 3, 102, 3, 1, 102, 2, 2, 102, 2, 2, 105, 1, 5, 110, 3, 2, 111, 2, 4, 112, 5, 4, 115, 5, 2, 116, 4, 5, 116, 2, 1, 117, 2, 4, 125, 3, 4, 126, 3, 4, 128, 1, 5, 129, 4, 0, 129, 5, 4, 130, 0, 2, 132, 4, 2, 136, 1, 4, 136, 3, 3, 139, 1, 2, 140, 1, 1, 142, 2, 5, 145, 2, 5, 146, 2, 5, 146, 4, 3, 149, 3, 4, 151, 4, 1, 152, 0, 2, 152, 4, 2, 154, 4, 2, 159, 4, 4, 160, 4, 4, 163, 3, 1, 163, 0, 0, 164, 5, 4, 165, 0, 5, 168, 1, 3, 168, 5, 3, 168, 1, 2, 171, 2, 1, 171, 0, 3, 172, 4, 0, 172, 5, 1, 173, 0, 2, 182, 3, 5, 183, 2, 5, 183, 3, 3, 186, 1, 3, 194, 4, 0, 199, 0, 3, 199, 4, 3, 199, 1, 3, 200, 0, 1, 202, 4, 0, 205, 3, 3, 208, 1, 2, 208, 3, 1, 208, 4, 3, 212, 0, 5, 221, 3, 3, 229, 3, 1, 230, 4, 3]);
