n_res = 4;
rc = [ 32, 24, 30, 33 ];
n_tasks = 92;
d = [0, 2, 10, 8, 2, 6, 8, 7, 3, 10, 2, 10, 2, 7, 7, 6, 8, 8, 9, 3, 5, 9, 3, 5, 7, 1, 2, 7, 4, 4, 4, 2, 6, 4, 6, 10, 4, 3, 10, 9, 4, 5, 1, 1, 7, 9, 7, 1, 2, 3, 8, 1, 10, 1, 9, 2, 2, 6, 6, 6, 8, 8, 1, 8, 4, 6, 9, 8, 1, 7, 4, 7, 6, 1, 6, 6, 1, 6, 6, 3, 6, 7, 3, 10, 1, 5, 3, 5, 3, 8, 10, 0];
rr = array2d(1..4, 1..92, [0, 0, 1, 0, 0, 4, 3, 5, 0, 10, 3, 10, 3, 5, 10, 0, 9, 5, 10, 3, 4, 9, 0, 10, 8, 1, 1, 5, 2, 4, 5, 0, 0, 1, 2, 1, 2, 3, 7, 1, 0, 0, 0, 9, 2, 8, 7, 0, 3, 0, 6, 3, 7, 3, 8, 4, 2, 0, 0, 0, 2, 3, 7, 0, 2, 2, 1, 8, 8, 6, 0, 0, 6, 2, 5, 0, 5, 6, 0, 3, 6, 3, 0, 0, 0, 0, 9, 2, 3, 1, 0, 0, 0, 6, 4, 10, 0, 2, 3, 4, 3, 0, 0, 0, 5, 6, 0, 0, 9, 0, 10, 5, 4, 1, 0, 0, 0, 2, 3, 1, 2, 4, 5, 2, 10, 1, 10, 0, 10, 0, 0, 8, 1, 2, 3, 4, 8, 0, 7, 4, 1, 5, 2, 6, 7, 0, 8, 3, 1, 5, 10, 10, 0, 3, 0, 0, 3, 4, 2, 5, 5, 6, 0, 6, 10, 7, 1, 2, 2, 7, 4, 10, 6, 5, 0, 2, 2, 6, 3, 5, 6, 1, 7, 0, 0, 2, 0, 5, 0, 8, 1, 3, 0, 2, 1, 7, 7, 2, 0, 10, 7, 9, 0, 4, 6, 0, 10, 2, 2, 2, 0, 2, 1, 3, 9, 3, 10, 6, 9, 3, 0, 0, 5, 3, 0, 4, 3, 9, 3, 0, 4, 7, 10, 0, 0, 0, 2, 8, 4, 8, 3, 8, 0, 2, 10, 0, 5, 0, 10, 1, 0, 6, 0, 0, 0, 5, 6, 8, 4, 0, 8, 0, 7, 10, 0, 1, 1, 5, 3, 9, 7, 3, 0, 0, 0, 0, 0, 6, 1, 5, 4, 5, 4, 0, 10, 6, 3, 4, 6, 4, 3, 2, 0, 4, 10, 2, 3, 0, 5, 0, 0, 2, 10, 9, 5, 4, 1, 7, 9, 0, 3, 7, 1, 4, 7, 9, 9, 0, 4, 4, 6, 9, 7, 0, 2, 0, 0, 7, 1, 1, 10, 2, 0, 3, 1, 2, 7, 5, 4, 9, 5, 0, 0, 10, 1, 5, 2, 10, 0, 10, 0, 1, 2, 9, 10, 2, 0, 8, 1, 8, 4, 4, 8, 9, 10, 4, 8, 0]);

suc = [
   {2, 3, 4},
   {8, 13, 6},
   {9, 10, 7},
   {24, 25, 5},
   {16, 11, 15},
   {32, 21},
   {12, 28},
   {65, 67, 38},
   {37, 29, 14},
   {56, 67},
   {32, 61, 22},
   {40, 43, 19},
   {34, 42, 86},
   {65, 17, 26},
   {20, 46, 23},
   {73, 68, 62},
   {18, 51, 46},
   {81, 27, 20},
   {50, 59, 52},
   {63, 47, 39},
   {42, 38, 23},
   {49, 53, 23},
   {40, 74, 87},
   {48, 33, 64},
   {64, 71},
   {42, 28, 70},
   {56, 58, 30},
   {35, 39, 31},
   {66, 44},
   {88, 38, 47},
   {64, 34, 63},
   {44, 37, 60},
   {41, 62, 70},
   {48, 50},
   {36, 69},
   {61, 76, 45},
   {70, 47},
   {61, 55, 39},
   {77, 52, 53},
   {60},
   {58, 52, 46},
   {57, 44, 60},
   {77, 45, 63},
   {83, 55},
   {56, 74, 84},
   {57, 53},
   {73, 85},
   {57, 51, 68},
   {80, 50, 51},
   {88},
   {75, 55},
   {90},
   {54},
   {72, 59},
   {87},
   {59, 78},
   {89},
   {66, 84, 71},
   {79},
   {81, 83, 68},
   {86},
   {69, 78},
   {82},
   {66, 69, 78},
   {72, 75, 79},
   {67},
   {72, 76},
   {88, 84},
   {91, 76},
   {81, 82, 71},
   {74},
   {80, 73},
   {90},
   {75},
   {83},
   {77},
   {79},
   {85},
   {80},
   {82},
   {89},
   {85},
   {89},
   {91},
   {86},
   {87},
   {90},
   {91},
   {92},
   {92},
   {92},
   {  } ];

deadline = array2d(1..92, 1..3, [3, 0, 2, 13, 4, 3, 16, 3, 2, 16, 2, 2, 17, 2, 2, 21, 4, 2, 24, 3, 4, 25, 5, 5, 28, 3, 2, 29, 0, 5, 31, 0, 4, 38, 1, 0, 39, 3, 3, 41, 1, 2, 41, 0, 0, 45, 0, 5, 45, 3, 3, 47, 0, 3, 50, 1, 3, 56, 1, 5, 57, 2, 0, 58, 5, 5, 60, 0, 0, 62, 5, 4, 67, 5, 3, 67, 2, 2, 68, 1, 1, 71, 4, 1, 75, 4, 5, 75, 1, 4, 77, 4, 3, 78, 4, 5, 78, 4, 0, 80, 5, 0, 80, 1, 5, 83, 1, 5, 87, 0, 5, 88, 2, 1, 88, 2, 4, 88, 4, 5, 104, 0, 0, 106, 0, 5, 110, 1, 4, 115, 5, 3, 121, 5, 5, 123, 5, 4, 128, 3, 2, 130, 1, 1, 132, 5, 2, 135, 1, 2, 136, 4, 0, 139, 4, 3, 145, 0, 5, 146, 0, 5, 147, 3, 2, 147, 4, 2, 151, 3, 4, 152, 2, 4, 152, 0, 5, 156, 4, 3, 157, 4, 4, 160, 5, 3, 160, 4, 5, 163, 5, 0, 166, 3, 1, 171, 0, 3, 174, 2, 0, 181, 0, 0, 188, 2, 3, 189, 4, 5, 191, 3, 1, 191, 1, 4, 195, 1, 4, 198, 1, 0, 207, 3, 1, 209, 5, 3, 209, 4, 3, 211, 2, 3, 211, 0, 0, 211, 2, 5, 215, 2, 4, 222, 3, 2, 224, 3, 0, 226, 4, 3, 235, 1, 3, 235, 5, 3, 237, 2, 3, 240, 2, 1, 241, 1, 3, 242, 1, 2, 252, 5, 4, 258, 2, 1]);
