n_res = 4;
rc = [ 12, 17, 16, 17 ];
n_tasks = 92;
d = [0, 4, 3, 9, 5, 1, 6, 10, 8, 9, 10, 7, 10, 3, 1, 3, 6, 9, 6, 9, 8, 3, 8, 2, 3, 2, 10, 9, 8, 2, 4, 6, 4, 10, 8, 1, 2, 2, 8, 7, 10, 5, 10, 6, 1, 10, 7, 2, 2, 4, 4, 9, 2, 1, 6, 4, 10, 5, 3, 3, 9, 9, 7, 8, 3, 9, 4, 7, 8, 9, 3, 6, 3, 5, 8, 1, 7, 3, 4, 1, 10, 2, 3, 5, 4, 1, 3, 9, 9, 4, 8, 0];
rr = array2d(1..4, 1..92, [0, 0, 7, 0, 0, 2, 0, 0, 0, 0, 0, 0, 0, 0, 0, 0, 10, 0, 0, 0, 0, 8, 0, 0, 0, 0, 0, 0, 0, 0, 0, 0, 0, 0, 0, 0, 0, 0, 2, 0, 0, 0, 6, 0, 0, 0, 0, 0, 0, 1, 0, 0, 0, 0, 9, 0, 2, 0, 0, 7, 1, 0, 0, 2, 0, 0, 0, 0, 0, 0, 0, 0, 6, 0, 0, 0, 0, 0, 5, 0, 0, 0, 0, 0, 0, 0, 0, 0, 0, 0, 0, 0, 0, 0, 0, 0, 6, 0, 8, 0, 6, 0, 0, 10, 0, 0, 2, 0, 0, 3, 3, 0, 0, 0, 0, 0, 10, 0, 0, 0, 0, 0, 0, 0, 0, 0, 0, 0, 1, 0, 0, 0, 10, 0, 0, 8, 0, 10, 0, 0, 0, 0, 0, 9, 7, 0, 0, 1, 0, 1, 3, 0, 0, 0, 6, 0, 0, 3, 0, 1, 0, 3, 0, 0, 0, 0, 0, 0, 5, 7, 0, 0, 0, 1, 0, 0, 0, 0, 0, 0, 0, 0, 0, 0, 0, 8, 0, 0, 0, 0, 0, 10, 0, 2, 1, 0, 10, 3, 0, 0, 0, 0, 0, 0, 0, 0, 8, 0, 0, 0, 0, 8, 8, 0, 0, 0, 0, 7, 0, 0, 0, 0, 0, 1, 0, 1, 0, 0, 0, 0, 0, 9, 10, 0, 0, 0, 0, 0, 0, 0, 0, 0, 0, 0, 0, 0, 0, 0, 0, 0, 4, 0, 6, 0, 8, 8, 0, 0, 0, 0, 0, 0, 0, 0, 1, 0, 1, 0, 2, 0, 10, 0, 9, 0, 1, 0, 0, 0, 0, 2, 0, 0, 0, 0, 0, 0, 0, 0, 0, 0, 0, 6, 0, 0, 0, 6, 9, 0, 0, 3, 0, 9, 5, 0, 0, 8, 9, 7, 3, 0, 1, 10, 0, 6, 0, 0, 0, 0, 0, 0, 3, 0, 7, 0, 0, 0, 10, 0, 0, 10, 0, 0, 0, 0, 0, 0, 0, 8, 0, 0, 7, 0, 0, 0, 0, 0, 0, 0, 0, 4, 10, 3, 0, 0, 0, 1, 0, 0, 0, 9, 0, 3, 0, 6, 0, 5, 0, 0]);

suc = [
   {2, 3, 4},
   {8, 18, 5},
   {28, 6, 31},
   {43, 30},
   {16, 7},
   {24, 10, 11},
   {17, 20, 14},
   {9, 19, 12},
   {26, 13},
   {56, 88, 78},
   {40, 41, 60},
   {80, 38},
   {32, 85, 22},
   {64, 36, 15},
   {34, 29, 23},
   {58, 71, 63},
   {48, 62, 55},
   {26, 27, 36},
   {77, 21, 46},
   {81, 53},
   {25, 44, 61},
   {65, 33},
   {49},
   {57, 90, 53},
   {58, 66},
   {51, 60, 39},
   {30},
   {32, 37},
   {78},
   {72, 35},
   {84},
   {65, 75},
   {50},
   {42, 47},
   {50},
   {75, 76},
   {54},
   {68, 61, 47},
   {75, 45},
   {45},
   {80, 91, 45},
   {74},
   {49, 76, 47},
   {55},
   {83},
   {50},
   {56, 71},
   {53, 63},
   {66, 52, 86},
   {66},
   {67, 52, 70},
   {58},
   {59},
   {64},
   {89},
   {59},
   {70},
   {73, 87},
   {86, 70},
   {64, 67},
   {79},
   {73, 79},
   {68},
   {69},
   {67, 71},
   {69},
   {72, 73},
   {85, 69},
   {81},
   {85},
   {83, 77},
   {74, 76, 82},
   {80},
   {83, 79},
   {81, 82},
   {78},
   {88},
   {90, 84},
   {86},
   {82},
   {84},
   {88},
   {90},
   {87},
   {89, 91},
   {87},
   {91},
   {89},
   {92},
   {92},
   {92},
   {  } ];

deadline = array2d(1..92, 1..3, [2, 4, 0, 2, 2, 3, 4, 3, 0, 15, 1, 0, 19, 5, 1, 22, 3, 1, 22, 4, 0, 23, 4, 5, 26, 3, 3, 26, 3, 2, 28, 2, 3, 29, 5, 3, 38, 3, 2, 43, 4, 3, 50, 2, 0, 51, 3, 4, 53, 5, 2, 58, 1, 0, 61, 5, 5, 63, 1, 0, 63, 4, 0, 64, 2, 1, 66, 2, 5, 70, 3, 2, 72, 4, 4, 74, 2, 5, 75, 4, 5, 75, 5, 0, 76, 2, 2, 80, 4, 1, 81, 0, 0, 82, 1, 1, 91, 0, 2, 93, 0, 4, 94, 5, 2, 95, 0, 5, 96, 2, 2, 97, 5, 5, 101, 1, 3, 103, 5, 3, 110, 2, 0, 113, 0, 4, 120, 0, 0, 121, 5, 2, 122, 5, 3, 125, 4, 4, 126, 5, 4, 127, 4, 3, 136, 1, 3, 136, 5, 2, 140, 3, 5, 140, 0, 0, 141, 3, 0, 142, 0, 5, 147, 3, 0, 153, 5, 5, 153, 5, 1, 154, 0, 5, 154, 2, 5, 154, 1, 1, 164, 1, 2, 165, 1, 3, 168, 4, 0, 169, 3, 0, 170, 4, 2, 170, 5, 0, 170, 5, 3, 172, 0, 1, 174, 5, 1, 176, 0, 1, 178, 3, 0, 178, 0, 0, 183, 0, 1, 186, 0, 0, 187, 5, 3, 188, 1, 3, 189, 3, 5, 191, 0, 2, 191, 4, 0, 193, 0, 5, 194, 5, 0, 196, 3, 0, 197, 3, 1, 198, 2, 4, 199, 2, 5, 200, 4, 3, 204, 2, 2, 205, 4, 4, 207, 0, 5, 207, 0, 4, 207, 5, 3, 213, 4, 1]);
