n_res = 4;
rc = [ 46, 44, 42, 45 ];
n_tasks = 92;
d = [0, 10, 9, 4, 7, 6, 5, 9, 5, 2, 2, 7, 1, 6, 10, 6, 1, 3, 6, 2, 4, 7, 10, 1, 5, 10, 4, 4, 2, 7, 2, 9, 7, 2, 7, 7, 2, 6, 9, 8, 7, 4, 2, 3, 7, 8, 3, 8, 1, 7, 10, 8, 4, 3, 4, 10, 4, 5, 5, 8, 6, 1, 7, 6, 8, 5, 2, 2, 5, 8, 2, 9, 10, 9, 9, 6, 7, 1, 3, 6, 10, 6, 9, 1, 3, 4, 6, 6, 9, 10, 1, 0];
rr = array2d(1..4, 1..92, [0, 10, 4, 3, 5, 7, 3, 6, 0, 5, 8, 1, 1, 2, 3, 0, 9, 0, 10, 7, 0, 3, 10, 8, 0, 1, 7, 8, 9, 10, 0, 0, 9, 3, 8, 0, 6, 0, 10, 5, 0, 7, 5, 5, 2, 3, 9, 3, 10, 0, 7, 7, 10, 0, 0, 1, 0, 1, 10, 0, 0, 5, 0, 9, 4, 0, 9, 9, 4, 7, 6, 9, 6, 1, 0, 1, 0, 10, 3, 3, 9, 4, 0, 8, 10, 2, 1, 0, 6, 4, 9, 0, 0, 7, 9, 4, 0, 9, 8, 5, 7, 8, 5, 0, 7, 5, 6, 10, 3, 5, 9, 8, 0, 0, 3, 0, 6, 10, 4, 7, 3, 0, 6, 7, 5, 6, 10, 3, 0, 9, 7, 5, 10, 8, 1, 9, 6, 0, 9, 9, 9, 8, 4, 9, 6, 3, 0, 4, 2, 0, 7, 0, 3, 9, 10, 8, 0, 9, 7, 8, 2, 2, 6, 5, 0, 0, 0, 0, 2, 0, 2, 2, 10, 2, 7, 7, 0, 2, 0, 5, 4, 7, 1, 0, 0, 0, 9, 8, 10, 1, 0, 5, 3, 8, 0, 7, 1, 0, 0, 1, 3, 0, 4, 0, 4, 5, 3, 8, 4, 0, 8, 1, 9, 0, 8, 2, 7, 10, 10, 7, 1, 2, 2, 5, 0, 4, 4, 4, 0, 8, 3, 3, 0, 1, 4, 3, 2, 0, 1, 2, 0, 7, 4, 0, 8, 3, 8, 0, 9, 10, 0, 9, 4, 8, 3, 8, 0, 1, 3, 3, 8, 5, 4, 4, 7, 5, 5, 0, 9, 4, 3, 0, 7, 6, 9, 0, 0, 2, 4, 4, 0, 6, 10, 1, 0, 0, 10, 0, 8, 8, 0, 8, 10, 0, 6, 0, 6, 0, 9, 4, 0, 0, 4, 3, 0, 4, 4, 4, 1, 2, 9, 9, 0, 8, 8, 0, 10, 0, 0, 2, 6, 1, 10, 5, 2, 3, 3, 0, 0, 1, 7, 6, 3, 0, 6, 5, 9, 4, 0, 0, 0, 10, 5, 9, 4, 5, 4, 0, 8, 0, 4, 4, 3, 5, 8, 2, 10, 4, 0, 3, 5, 0, 2, 0, 0, 5, 0, 0]);

suc = [
   {2, 3, 4},
   {9, 11, 12},
   {8, 33, 67},
   {21, 5, 15},
   {13, 6, 7},
   {16, 25, 10},
   {8, 24, 19},
   {74, 55},
   {27, 10, 18},
   {14, 31},
   {16, 23},
   {52, 38},
   {65, 49, 57},
   {43, 28},
   {89, 41, 57},
   {17, 27, 22},
   {20, 54, 47},
   {48, 28},
   {68, 53, 23},
   {59, 77, 29},
   {40, 34, 55},
   {31},
   {41, 46, 70},
   {26, 35, 36},
   {26, 34, 30},
   {32, 88, 28},
   {50, 61, 79},
   {57, 91, 63},
   {49, 45, 38},
   {33},
   {34, 42, 66},
   {72, 82, 77},
   {36, 37, 39},
   {48, 71, 39},
   {54, 44, 52},
   {59, 44, 85},
   {49, 51, 38},
   {80, 41, 43},
   {86, 46},
   {48, 83, 47},
   {75, 78},
   {72, 60, 86},
   {44, 61, 46},
   {75, 87},
   {72, 80, 53},
   {64},
   {56},
   {65, 77, 62},
   {83, 71},
   {51, 69, 55},
   {76},
   {58, 53, 70},
   {73, 66, 84},
   {64, 66, 63},
   {73, 85},
   {70, 74, 62},
   {67},
   {59, 61},
   {68, 76},
   {73, 62},
   {64, 68, 69},
   {63},
   {81, 67},
   {81, 65},
   {85},
   {69},
   {76, 79},
   {88, 74},
   {75, 78},
   {78, 71},
   {79},
   {83},
   {88},
   {86},
   {81},
   {80, 82},
   {87},
   {87},
   {84},
   {90},
   {82},
   {90},
   {84},
   {90},
   {89},
   {89},
   {91},
   {91},
   {92},
   {92},
   {92},
   {  } ];

deadline = array2d(1..92, 1..3, [4, 1, 3, 7, 5, 3, 11, 4, 4, 14, 2, 1, 17, 1, 0, 20, 5, 2, 20, 5, 3, 20, 4, 3, 21, 3, 1, 30, 3, 0, 30, 1, 3, 31, 4, 2, 32, 4, 0, 33, 3, 5, 40, 0, 3, 41, 2, 0, 47, 3, 1, 48, 3, 4, 52, 2, 4, 53, 0, 5, 53, 0, 4, 54, 4, 3, 59, 3, 0, 64, 2, 1, 64, 0, 5, 67, 3, 2, 71, 5, 2, 73, 5, 0, 74, 0, 0, 78, 5, 5, 79, 2, 5, 80, 0, 2, 81, 3, 0, 83, 4, 4, 84, 2, 0, 85, 5, 4, 91, 3, 4, 92, 0, 5, 92, 1, 1, 95, 0, 3, 95, 4, 4, 99, 5, 1, 102, 2, 0, 102, 5, 4, 106, 5, 0, 116, 2, 1, 125, 2, 1, 125, 3, 5, 126, 5, 0, 127, 1, 2, 129, 0, 3, 129, 0, 1, 132, 5, 1, 134, 3, 0, 136, 3, 0, 138, 0, 1, 139, 0, 0, 139, 3, 2, 143, 2, 0, 147, 4, 2, 148, 5, 1, 151, 3, 0, 153, 5, 5, 154, 2, 4, 155, 0, 3, 155, 2, 1, 157, 5, 5, 166, 1, 2, 167, 0, 2, 170, 4, 2, 174, 1, 3, 175, 0, 2, 176, 5, 2, 186, 2, 2, 188, 3, 3, 189, 3, 4, 190, 4, 4, 190, 5, 4, 194, 5, 4, 196, 3, 2, 198, 1, 4, 201, 2, 2, 202, 2, 1, 203, 3, 2, 204, 3, 1, 210, 2, 2, 211, 5, 0, 216, 5, 0, 223, 0, 3, 225, 3, 4, 227, 0, 1, 229, 3, 3]);
