n_res = 4;
rc = [ 36, 31, 33, 32 ];
n_tasks = 92;
d = [0, 4, 6, 9, 2, 9, 10, 9, 7, 9, 5, 10, 3, 2, 5, 6, 2, 6, 10, 2, 1, 9, 3, 10, 1, 7, 10, 1, 3, 2, 3, 10, 9, 3, 9, 9, 2, 5, 3, 9, 10, 9, 8, 2, 4, 2, 6, 7, 9, 1, 6, 7, 2, 1, 8, 3, 1, 3, 1, 5, 1, 10, 5, 7, 1, 6, 4, 10, 6, 8, 2, 8, 2, 7, 3, 10, 3, 5, 10, 10, 10, 8, 5, 2, 10, 5, 8, 6, 4, 3, 6, 0];
rr = array2d(1..4, 1..92, [0, 5, 7, 0, 9, 0, 0, 2, 0, 8, 0, 0, 0, 8, 0, 0, 0, 0, 3, 7, 0, 0, 8, 4, 7, 0, 1, 0, 7, 9, 4, 7, 10, 0, 2, 2, 2, 2, 9, 0, 10, 9, 5, 0, 0, 8, 0, 4, 0, 0, 0, 0, 0, 0, 10, 6, 0, 0, 1, 6, 0, 6, 0, 5, 0, 0, 0, 0, 4, 6, 9, 0, 0, 8, 0, 0, 0, 6, 0, 0, 0, 0, 3, 10, 1, 0, 0, 3, 0, 0, 3, 0, 0, 0, 0, 0, 9, 0, 4, 0, 9, 0, 0, 0, 0, 0, 0, 3, 6, 0, 0, 7, 0, 0, 0, 0, 0, 4, 0, 0, 4, 0, 8, 8, 0, 0, 8, 10, 0, 0, 0, 1, 0, 0, 0, 0, 6, 1, 3, 0, 3, 5, 8, 10, 10, 10, 5, 4, 0, 6, 9, 6, 1, 7, 5, 0, 0, 0, 3, 3, 6, 6, 0, 0, 4, 0, 0, 0, 0, 0, 0, 9, 9, 4, 0, 4, 0, 10, 0, 2, 1, 0, 0, 0, 0, 4, 0, 0, 0, 6, 1, 0, 9, 0, 3, 9, 9, 5, 9, 0, 8, 3, 0, 0, 6, 0, 4, 0, 0, 9, 0, 1, 0, 10, 0, 0, 8, 0, 0, 5, 0, 9, 0, 6, 10, 4, 0, 0, 0, 3, 5, 1, 9, 2, 0, 0, 0, 0, 0, 0, 5, 5, 8, 2, 6, 5, 0, 7, 2, 0, 0, 0, 4, 0, 3, 0, 10, 0, 2, 0, 9, 0, 0, 5, 0, 5, 0, 0, 10, 2, 5, 0, 10, 3, 3, 0, 0, 4, 10, 7, 0, 5, 0, 8, 7, 2, 1, 0, 3, 0, 3, 3, 4, 0, 9, 0, 0, 6, 0, 0, 0, 0, 7, 0, 0, 0, 2, 0, 7, 7, 0, 0, 0, 0, 0, 8, 0, 0, 0, 2, 4, 0, 0, 2, 6, 0, 4, 5, 0, 6, 6, 3, 2, 4, 0, 3, 0, 7, 5, 0, 0, 10, 0, 9, 4, 0, 10, 8, 0, 0, 0, 4, 0, 0, 5, 0, 7, 10, 5, 0, 0, 2, 10, 0, 10, 2, 3, 0]);

suc = [
   {2, 3, 4},
   {16, 59, 6},
   {11, 5, 7},
   {9, 13},
   {25, 15},
   {33, 19},
   {8, 18, 27},
   {12, 37},
   {49, 10, 74},
   {68, 87},
   {17, 28, 21},
   {80},
   {36, 14, 63},
   {26, 66},
   {35, 23},
   {32},
   {20, 38},
   {71},
   {32},
   {78, 22},
   {91},
   {76, 47},
   {24},
   {29, 31},
   {60, 46, 39},
   {75},
   {44},
   {34, 30},
   {57},
   {58},
   {43},
   {56, 50},
   {40, 51, 61},
   {77},
   {67},
   {85},
   {55},
   {41, 58},
   {90},
   {52, 45},
   {88, 42, 79},
   {69, 54},
   {79},
   {82},
   {78},
   {48, 76},
   {73},
   {53},
   {64, 65, 67},
   {71},
   {85},
   {64},
   {72, 66},
   {75},
   {66, 63},
   {81},
   {62},
   {67},
   {69, 63},
   {62},
   {70},
   {85},
   {74},
   {72, 83},
   {82},
   {79},
   {73},
   {78},
   {84},
   {80},
   {73, 83},
   {75},
   {81},
   {76, 87},
   {86},
   {89},
   {81, 82},
   {84},
   {84},
   {88, 91},
   {86},
   {89},
   {87},
   {86},
   {89},
   {91},
   {88},
   {90},
   {92},
   {92},
   {92},
   {  } ];

deadline = array2d(1..92, 1..3, [1, 1, 1, 1, 1, 1, 2, 1, 4, 7, 3, 1, 10, 4, 3, 12, 3, 0, 14, 5, 0, 14, 3, 5, 15, 1, 1, 16, 0, 3, 17, 3, 4, 21, 0, 2, 24, 2, 3, 26, 0, 3, 29, 5, 4, 31, 1, 4, 34, 5, 2, 35, 2, 0, 44, 3, 2, 45, 2, 3, 46, 4, 4, 47, 1, 2, 49, 3, 1, 49, 3, 1, 50, 4, 0, 51, 3, 1, 52, 5, 4, 54, 1, 0, 55, 0, 3, 56, 3, 5, 58, 3, 0, 58, 3, 0, 59, 1, 5, 61, 4, 1, 63, 2, 0, 65, 3, 1, 68, 1, 5, 68, 2, 2, 68, 4, 1, 71, 0, 2, 72, 0, 4, 73, 0, 1, 75, 5, 2, 79, 3, 1, 82, 5, 4, 82, 3, 4, 85, 1, 5, 85, 4, 1, 86, 4, 0, 86, 1, 5, 89, 2, 5, 93, 2, 4, 94, 4, 0, 95, 2, 5, 100, 3, 0, 102, 2, 1, 102, 2, 2, 105, 2, 2, 105, 3, 3, 112, 5, 1, 113, 2, 4, 115, 3, 0, 115, 2, 3, 116, 0, 1, 116, 4, 3, 123, 0, 2, 124, 0, 1, 124, 2, 3, 125, 0, 3, 128, 2, 0, 132, 0, 5, 132, 3, 5, 133, 5, 0, 134, 4, 4, 137, 2, 5, 138, 3, 1, 138, 2, 2, 140, 2, 0, 144, 4, 3, 145, 0, 3, 146, 2, 2, 147, 3, 0, 149, 0, 4, 151, 3, 1, 151, 0, 0, 154, 0, 0, 155, 3, 1, 158, 0, 3, 158, 4, 0, 160, 3, 0, 163, 0, 0, 164, 3, 5]);
