n_res = 4;
rc = [ 14, 15, 14, 16 ];
n_tasks = 92;
d = [0, 10, 8, 5, 7, 1, 7, 10, 7, 6, 6, 2, 1, 4, 7, 2, 6, 8, 10, 6, 8, 4, 5, 5, 3, 8, 5, 7, 9, 5, 2, 4, 4, 10, 6, 9, 3, 10, 2, 2, 4, 9, 10, 10, 9, 5, 1, 6, 9, 1, 4, 4, 2, 8, 9, 4, 9, 10, 2, 3, 8, 4, 7, 3, 9, 2, 4, 7, 9, 3, 6, 9, 7, 7, 10, 1, 7, 8, 4, 4, 1, 9, 4, 6, 6, 8, 4, 4, 3, 5, 1, 0];
rr = array2d(1..4, 1..92, [0, 9, 0, 0, 0, 0, 10, 2, 0, 0, 10, 1, 0, 0, 0, 3, 0, 0, 0, 9, 0, 0, 2, 0, 6, 0, 0, 0, 0, 0, 0, 0, 0, 0, 6, 0, 0, 9, 0, 0, 0, 9, 5, 2, 0, 0, 0, 0, 0, 0, 0, 0, 0, 4, 0, 0, 0, 0, 5, 0, 0, 0, 10, 0, 1, 0, 7, 6, 0, 0, 0, 4, 0, 0, 0, 0, 0, 0, 0, 0, 0, 4, 0, 0, 0, 8, 5, 0, 0, 0, 0, 0, 0, 0, 10, 0, 3, 0, 0, 0, 1, 4, 0, 0, 0, 0, 8, 0, 0, 6, 3, 0, 0, 0, 0, 0, 0, 0, 0, 0, 0, 0, 0, 7, 0, 2, 0, 0, 1, 0, 0, 0, 0, 0, 0, 0, 6, 2, 0, 0, 0, 5, 0, 0, 0, 0, 0, 6, 0, 0, 0, 0, 9, 0, 0, 8, 0, 0, 0, 0, 8, 4, 0, 0, 10, 0, 0, 7, 6, 8, 0, 0, 0, 0, 10, 7, 0, 0, 0, 10, 1, 0, 7, 0, 0, 0, 0, 0, 0, 1, 0, 0, 0, 0, 0, 0, 0, 10, 0, 0, 0, 0, 0, 0, 0, 9, 0, 0, 0, 0, 0, 10, 5, 0, 8, 0, 8, 0, 0, 0, 0, 0, 3, 0, 0, 0, 0, 0, 0, 0, 0, 0, 0, 0, 9, 7, 0, 0, 9, 0, 3, 7, 0, 3, 0, 0, 0, 0, 0, 0, 0, 0, 0, 0, 0, 0, 0, 9, 4, 0, 0, 0, 4, 10, 10, 0, 0, 0, 0, 0, 0, 0, 0, 0, 0, 0, 0, 0, 0, 3, 0, 0, 0, 0, 0, 0, 0, 0, 6, 0, 0, 0, 6, 0, 0, 0, 5, 0, 0, 6, 0, 8, 6, 0, 0, 6, 0, 0, 0, 0, 0, 10, 0, 0, 0, 3, 6, 0, 0, 0, 0, 0, 10, 8, 5, 0, 0, 0, 3, 0, 0, 0, 0, 0, 0, 0, 0, 3, 0, 0, 0, 9, 0, 0, 0, 0, 3, 0, 0, 0, 0, 0, 0, 0, 0, 0, 0, 0, 0, 0, 7, 0, 0, 0, 0, 3, 0, 0]);

suc = [
   {2, 3, 4},
   {18, 5, 6},
   {32, 35, 14},
   {16, 9, 24},
   {48, 12, 7},
   {8, 10, 22},
   {17, 11, 20},
   {27, 13},
   {19, 15},
   {77},
   {52},
   {41, 34},
   {51, 30, 47},
   {88, 26, 23},
   {53},
   {89, 17, 59},
   {44},
   {29, 59, 21},
   {85},
   {25, 55},
   {54},
   {27, 46},
   {33, 41},
   {25, 27, 28},
   {34, 60},
   {57, 36, 38},
   {52, 69, 39},
   {40, 81, 66},
   {52, 30},
   {68, 38, 31},
   {60, 87},
   {61},
   {49, 61, 57},
   {36},
   {76, 37, 54},
   {78, 91, 70},
   {72, 82, 84},
   {42},
   {49, 74, 57},
   {75, 42, 43},
   {50, 76, 71},
   {69},
   {56, 65, 80},
   {45},
   {50},
   {58, 62},
   {75, 69},
   {73, 65},
   {55},
   {74},
   {64},
   {60, 77, 63},
   {64, 73},
   {78, 70},
   {71},
   {79},
   {76, 84},
   {88, 61},
   {67, 79},
   {73, 79},
   {63},
   {90, 63},
   {66},
   {66, 67, 78},
   {68, 70},
   {91},
   {80},
   {74},
   {83},
   {82},
   {75},
   {81, 83},
   {83},
   {84},
   {91},
   {80},
   {88},
   {81, 85},
   {82},
   {87},
   {89, 86},
   {86},
   {86},
   {85},
   {87},
   {90},
   {90},
   {89},
   {92},
   {92},
   {92},
   {  } ];

deadline = array2d(1..92, 1..3, [2, 4, 5, 5, 5, 0, 7, 3, 0, 8, 4, 0, 8, 3, 4, 16, 4, 3, 20, 5, 1, 22, 3, 1, 30, 3, 3, 30, 1, 0, 31, 1, 5, 33, 3, 0, 33, 3, 5, 34, 5, 5, 37, 4, 1, 39, 2, 3, 40, 4, 2, 42, 1, 0, 47, 2, 5, 49, 3, 0, 50, 0, 3, 55, 3, 3, 58, 2, 5, 59, 0, 5, 59, 2, 0, 60, 0, 2, 60, 5, 5, 61, 0, 3, 61, 1, 3, 69, 5, 2, 69, 1, 5, 74, 5, 3, 75, 1, 1, 75, 5, 4, 77, 4, 0, 78, 5, 1, 83, 2, 1, 85, 0, 0, 86, 1, 3, 91, 0, 5, 95, 0, 1, 100, 0, 3, 100, 4, 2, 104, 4, 2, 106, 0, 0, 107, 5, 4, 109, 4, 5, 109, 4, 5, 109, 0, 2, 110, 0, 0, 111, 2, 4, 111, 5, 1, 118, 3, 2, 120, 4, 4, 123, 0, 1, 125, 5, 1, 126, 0, 1, 129, 4, 2, 134, 3, 0, 135, 0, 2, 141, 0, 3, 141, 3, 5, 142, 1, 1, 143, 4, 3, 146, 5, 1, 146, 4, 5, 154, 1, 3, 154, 0, 2, 156, 2, 0, 163, 0, 2, 164, 3, 0, 165, 3, 1, 168, 0, 2, 170, 0, 2, 173, 0, 2, 173, 2, 0, 177, 1, 2, 179, 4, 4, 180, 2, 2, 183, 2, 2, 184, 4, 0, 185, 5, 2, 186, 4, 1, 188, 4, 0, 189, 2, 0, 191, 0, 0, 192, 4, 1, 192, 0, 1, 193, 0, 0, 194, 2, 5, 195, 4, 0, 195, 4, 3]);
