n_res = 4;
rc = [ 45, 36, 34, 26 ];
n_tasks = 92;
d = [0, 10, 1, 8, 10, 8, 10, 9, 10, 4, 5, 1, 3, 5, 5, 5, 9, 1, 6, 5, 7, 2, 6, 1, 7, 1, 8, 10, 6, 2, 9, 7, 8, 7, 5, 1, 2, 6, 10, 8, 4, 1, 7, 8, 10, 3, 10, 9, 8, 2, 6, 1, 1, 5, 7, 10, 1, 10, 6, 6, 9, 5, 6, 3, 1, 5, 6, 7, 2, 1, 5, 1, 6, 3, 10, 9, 8, 5, 7, 8, 8, 3, 7, 8, 8, 1, 7, 9, 9, 10, 2, 0];
rr = array2d(1..4, 1..92, [0, 0, 0, 7, 0, 9, 8, 0, 0, 0, 0, 6, 0, 0, 0, 0, 3, 0, 0, 0, 0, 0, 0, 0, 0, 5, 0, 0, 0, 0, 0, 0, 0, 2, 0, 0, 0, 0, 0, 10, 0, 0, 0, 0, 0, 0, 0, 0, 9, 0, 0, 4, 8, 0, 3, 0, 0, 0, 2, 8, 0, 1, 10, 0, 0, 5, 9, 0, 0, 0, 10, 0, 0, 0, 0, 0, 4, 0, 0, 5, 0, 7, 0, 4, 0, 0, 1, 0, 0, 0, 0, 0, 0, 0, 9, 0, 0, 0, 0, 9, 0, 0, 0, 0, 0, 9, 7, 0, 0, 0, 1, 0, 0, 0, 0, 0, 1, 0, 0, 8, 7, 8, 0, 8, 0, 0, 0, 4, 2, 0, 2, 0, 8, 0, 8, 0, 0, 0, 0, 0, 0, 0, 5, 0, 0, 0, 0, 0, 0, 0, 0, 0, 0, 0, 0, 6, 0, 0, 0, 0, 0, 0, 0, 0, 0, 0, 0, 10, 0, 1, 0, 0, 8, 0, 0, 0, 0, 0, 0, 0, 0, 10, 0, 0, 0, 0, 0, 0, 0, 0, 0, 0, 0, 5, 0, 0, 3, 0, 0, 0, 0, 0, 0, 4, 8, 3, 1, 1, 0, 0, 0, 0, 0, 0, 10, 0, 0, 0, 10, 0, 0, 0, 0, 0, 0, 1, 0, 0, 7, 3, 6, 6, 0, 9, 0, 0, 0, 0, 0, 2, 0, 0, 0, 0, 0, 0, 0, 0, 0, 0, 0, 2, 2, 2, 0, 3, 0, 0, 9, 0, 0, 0, 6, 0, 0, 0, 0, 0, 0, 7, 0, 0, 0, 0, 0, 0, 0, 4, 0, 0, 3, 0, 0, 0, 1, 0, 8, 0, 0, 0, 0, 3, 0, 7, 0, 0, 0, 0, 0, 0, 0, 0, 2, 0, 0, 0, 0, 0, 3, 0, 0, 0, 0, 9, 0, 0, 0, 0, 0, 5, 0, 0, 0, 0, 0, 0, 0, 0, 0, 10, 0, 0, 8, 8, 0, 0, 8, 0, 0, 0, 2, 0, 0, 0, 0, 0, 0, 0, 2, 10, 0, 0, 0, 0, 0, 0, 0, 0, 1, 0, 8, 0, 0, 8, 9, 0, 9, 0]);

suc = [
   {2, 3, 4},
   {40, 33, 28},
   {8, 11, 5},
   {16, 9, 15},
   {10, 6, 7},
   {34, 59, 20},
   {32, 41, 29},
   {13, 14, 22},
   {38},
   {24, 12, 21},
   {82},
   {90},
   {17, 58, 19},
   {43, 36},
   {18},
   {25, 27, 23},
   {31},
   {21},
   {62, 71},
   {26},
   {69},
   {42},
   {65, 85, 30},
   {32},
   {51},
   {57, 35, 84},
   {33},
   {44, 68},
   {72, 52, 55},
   {80},
   {53},
   {64},
   {77, 37},
   {87},
   {67, 45},
   {70},
   {48},
   {88, 73, 39},
   {82},
   {57, 46, 47},
   {76},
   {49, 54},
   {72, 86},
   {50},
   {58},
   {63},
   {56, 50},
   {69},
   {73},
   {82, 53},
   {76},
   {54},
   {62},
   {81},
   {59, 61},
   {75},
   {70},
   {60, 69},
   {66},
   {75, 68},
   {86},
   {74},
   {66},
   {78},
   {79},
   {67},
   {83, 78},
   {81},
   {89},
   {83},
   {85},
   {74},
   {81, 78},
   {84},
   {86},
   {84},
   {88},
   {89},
   {91},
   {87},
   {83},
   {85},
   {91},
   {88, 90},
   {87},
   {91},
   {90},
   {89},
   {92},
   {92},
   {92},
   {  } ];

deadline = array2d(1..92, 1..3, [7, 5, 0, 7, 1, 1, 7, 5, 0, 8, 4, 4, 9, 5, 3, 10, 4, 4, 10, 5, 3, 10, 1, 2, 12, 0, 2, 13, 2, 2, 17, 4, 4, 18, 0, 0, 19, 3, 2, 22, 5, 0, 24, 2, 4, 24, 5, 2, 25, 3, 0, 25, 0, 1, 25, 0, 0, 30, 3, 3, 31, 0, 4, 32, 4, 1, 36, 4, 4, 39, 3, 2, 41, 2, 0, 44, 5, 1, 46, 3, 0, 46, 2, 2, 48, 4, 1, 52, 0, 1, 55, 3, 2, 58, 2, 4, 60, 1, 1, 61, 1, 4, 61, 3, 1, 63, 0, 5, 65, 1, 2, 67, 3, 2, 69, 0, 4, 71, 3, 1, 72, 0, 4, 75, 0, 3, 75, 0, 4, 77, 5, 1, 80, 5, 4, 83, 2, 4, 84, 3, 1, 86, 5, 4, 89, 1, 0, 89, 4, 2, 90, 2, 1, 91, 3, 0, 94, 1, 2, 95, 4, 0, 97, 5, 2, 101, 0, 0, 103, 4, 5, 112, 0, 0, 114, 3, 1, 118, 4, 2, 123, 5, 4, 125, 1, 5, 125, 0, 5, 126, 4, 3, 130, 0, 0, 132, 0, 5, 137, 2, 5, 138, 5, 3, 142, 5, 3, 147, 2, 1, 149, 0, 3, 152, 2, 2, 152, 1, 5, 152, 3, 4, 153, 1, 3, 156, 0, 4, 161, 5, 2, 162, 0, 4, 164, 3, 5, 169, 2, 5, 173, 2, 4, 173, 0, 0, 174, 0, 0, 175, 3, 3, 179, 2, 5, 182, 3, 3, 185, 5, 4, 186, 1, 1, 186, 4, 1, 190, 1, 4, 191, 2, 3, 192, 5, 3]);
