n_res = 4;
rc = [ 82, 84, 88, 81 ];
n_tasks = 92;
d = [0, 4, 8, 9, 6, 6, 10, 8, 2, 2, 10, 1, 6, 4, 2, 4, 9, 7, 2, 6, 3, 9, 7, 2, 3, 9, 3, 3, 7, 6, 3, 8, 2, 10, 1, 2, 4, 1, 9, 9, 9, 2, 4, 4, 9, 5, 2, 9, 3, 10, 4, 6, 8, 5, 3, 5, 9, 10, 9, 10, 5, 3, 9, 7, 1, 5, 4, 9, 5, 2, 10, 6, 3, 8, 6, 7, 5, 6, 3, 1, 7, 6, 1, 7, 8, 1, 1, 5, 5, 4, 7, 0];
rr = array2d(1..4, 1..92, [0, 9, 2, 9, 8, 9, 1, 6, 5, 10, 10, 4, 7, 9, 4, 7, 3, 9, 10, 9, 3, 9, 3, 9, 7, 5, 4, 5, 1, 4, 4, 6, 10, 6, 7, 9, 2, 3, 8, 2, 3, 10, 9, 4, 8, 7, 2, 6, 1, 4, 2, 9, 9, 2, 9, 3, 1, 3, 3, 9, 6, 10, 1, 5, 1, 1, 1, 9, 8, 6, 6, 5, 4, 9, 6, 5, 4, 9, 6, 6, 2, 4, 2, 7, 10, 2, 10, 5, 3, 7, 5, 0, 0, 4, 1, 1, 5, 4, 8, 9, 5, 5, 4, 9, 1, 10, 3, 3, 9, 4, 4, 2, 7, 2, 3, 9, 5, 9, 1, 6, 5, 3, 9, 7, 10, 5, 9, 9, 3, 9, 10, 5, 6, 6, 2, 1, 9, 4, 7, 2, 9, 8, 3, 5, 1, 7, 8, 5, 1, 9, 3, 6, 4, 9, 7, 6, 5, 4, 1, 4, 10, 6, 8, 7, 3, 8, 2, 3, 8, 2, 4, 4, 7, 1, 6, 5, 7, 6, 1, 2, 6, 8, 7, 0, 0, 3, 7, 8, 5, 7, 10, 7, 1, 6, 2, 3, 7, 6, 8, 10, 4, 7, 8, 6, 2, 2, 4, 10, 7, 6, 7, 3, 10, 3, 1, 3, 6, 1, 5, 3, 7, 5, 6, 9, 5, 3, 7, 8, 4, 5, 9, 10, 4, 4, 5, 10, 9, 6, 8, 3, 1, 1, 9, 8, 8, 3, 2, 4, 2, 1, 10, 3, 1, 1, 8, 7, 9, 8, 4, 6, 10, 1, 4, 1, 6, 7, 7, 9, 7, 6, 3, 7, 7, 6, 7, 0, 0, 8, 9, 5, 5, 3, 8, 4, 8, 8, 6, 7, 1, 6, 8, 4, 5, 1, 6, 10, 8, 6, 9, 10, 9, 2, 3, 8, 8, 2, 10, 1, 9, 5, 3, 5, 7, 2, 1, 5, 9, 10, 10, 6, 8, 8, 8, 8, 7, 7, 9, 7, 10, 4, 3, 1, 3, 9, 9, 3, 10, 1, 5, 8, 6, 6, 7, 1, 1, 3, 5, 6, 1, 5, 1, 10, 2, 1, 4, 9, 5, 2, 7, 5, 3, 6, 8, 3, 7, 5, 6, 0]);

suc = [
   {2, 3, 4},
   {16, 5, 38},
   {8, 18, 27},
   {10, 75, 14},
   {12, 6, 7},
   {69},
   {41, 11, 36},
   {9, 34, 23},
   {40, 13},
   {17, 15},
   {33, 22, 47},
   {25, 46},
   {21},
   {49, 28, 29},
   {73, 19, 20},
   {26},
   {48, 72},
   {61, 37},
   {83, 45},
   {24, 50, 30},
   {60},
   {45},
   {32, 39},
   {89, 51},
   {83, 62},
   {72},
   {35},
   {50},
   {52},
   {31},
   {56, 85, 54},
   {73},
   {43, 79},
   {52, 77},
   {78},
   {53, 55},
   {53},
   {74},
   {81, 45},
   {42},
   {67, 44},
   {83},
   {65, 57},
   {55},
   {58},
   {69},
   {87},
   {70, 87},
   {66},
   {59},
   {71},
   {64},
   {64, 60},
   {74, 63},
   {71},
   {90},
   {78},
   {88},
   {70},
   {66, 68},
   {78},
   {69},
   {67},
   {84},
   {80},
   {86},
   {80},
   {81},
   {77},
   {82, 84},
   {85},
   {77},
   {74},
   {76},
   {86},
   {89, 82},
   {85},
   {80},
   {81, 86},
   {88},
   {82},
   {91},
   {87},
   {89},
   {91},
   {88, 91},
   {90},
   {90},
   {92},
   {92},
   {92},
   {  } ];

deadline = array2d(1..92, 1..3, [1, 5, 3, 1, 4, 0, 2, 1, 4, 4, 0, 2, 7, 5, 3, 9, 2, 2, 14, 4, 5, 15, 5, 2, 15, 3, 4, 17, 1, 2, 18, 0, 2, 19, 1, 0, 20, 4, 5, 21, 0, 2, 23, 1, 2, 24, 0, 2, 24, 2, 2, 26, 4, 3, 27, 1, 2, 31, 5, 0, 31, 3, 2, 32, 3, 5, 37, 5, 4, 37, 4, 3, 39, 5, 3, 39, 2, 0, 41, 4, 1, 41, 2, 1, 44, 2, 5, 48, 4, 0, 49, 5, 5, 50, 3, 2, 50, 0, 3, 50, 1, 0, 52, 1, 2, 53, 3, 3, 58, 0, 0, 58, 2, 2, 60, 3, 5, 60, 4, 0, 63, 3, 2, 68, 4, 4, 73, 0, 5, 78, 5, 0, 83, 0, 1, 86, 1, 3, 88, 5, 2, 91, 3, 3, 95, 3, 4, 96, 2, 0, 98, 0, 0, 98, 5, 5, 98, 2, 5, 101, 4, 3, 105, 2, 1, 107, 3, 0, 108, 0, 3, 108, 0, 0, 109, 4, 3, 111, 1, 3, 112, 2, 1, 115, 4, 2, 122, 4, 1, 122, 0, 5, 127, 5, 3, 128, 0, 3, 128, 3, 5, 130, 2, 0, 130, 1, 1, 131, 2, 5, 133, 1, 2, 133, 4, 5, 135, 5, 5, 142, 4, 5, 143, 1, 2, 145, 0, 5, 146, 4, 0, 147, 2, 2, 149, 5, 5, 150, 4, 3, 150, 4, 1, 159, 3, 0, 163, 3, 3, 163, 1, 4, 164, 0, 1, 165, 0, 5, 165, 0, 1, 169, 3, 5, 170, 5, 1, 170, 0, 4, 171, 3, 4, 172, 4, 2]);
