n_res = 4;
rc = [ 72, 77, 76, 75 ];
n_tasks = 92;
d = [0, 4, 2, 3, 2, 1, 3, 8, 10, 3, 2, 1, 7, 5, 6, 6, 8, 8, 4, 7, 8, 6, 1, 1, 10, 6, 4, 4, 6, 4, 10, 1, 3, 3, 9, 6, 7, 3, 8, 7, 5, 2, 3, 8, 1, 8, 7, 7, 2, 7, 3, 5, 6, 2, 7, 3, 6, 4, 7, 8, 9, 2, 6, 3, 4, 4, 5, 3, 1, 5, 8, 9, 8, 10, 9, 2, 2, 7, 1, 8, 8, 6, 4, 3, 3, 2, 2, 4, 6, 8, 2, 0];
rr = array2d(1..4, 1..92, [0, 6, 9, 10, 3, 9, 8, 6, 5, 4, 10, 4, 1, 1, 8, 6, 5, 6, 4, 4, 6, 5, 8, 3, 7, 8, 2, 7, 9, 9, 2, 3, 1, 6, 7, 2, 3, 1, 6, 2, 10, 10, 3, 10, 3, 1, 3, 9, 4, 10, 6, 3, 4, 6, 4, 6, 7, 6, 2, 7, 9, 10, 9, 3, 10, 1, 8, 4, 6, 5, 1, 10, 9, 1, 1, 5, 2, 8, 7, 10, 10, 6, 4, 10, 7, 7, 7, 2, 3, 2, 4, 0, 0, 1, 7, 10, 9, 7, 1, 2, 2, 10, 2, 6, 4, 10, 8, 2, 4, 8, 6, 7, 3, 2, 7, 1, 8, 4, 5, 5, 1, 4, 7, 3, 1, 2, 4, 9, 3, 4, 9, 3, 1, 5, 10, 6, 3, 3, 10, 5, 6, 2, 1, 4, 7, 5, 8, 10, 7, 9, 1, 1, 9, 6, 5, 7, 8, 9, 1, 3, 5, 2, 6, 5, 8, 5, 4, 4, 6, 2, 1, 8, 3, 4, 9, 4, 3, 7, 1, 9, 8, 10, 10, 0, 0, 4, 4, 2, 3, 8, 5, 3, 9, 8, 8, 3, 8, 8, 4, 9, 7, 3, 5, 5, 2, 5, 5, 7, 1, 3, 6, 4, 7, 9, 5, 4, 3, 5, 1, 9, 8, 9, 7, 6, 2, 8, 4, 8, 5, 3, 8, 1, 9, 4, 9, 1, 10, 6, 3, 4, 7, 3, 6, 5, 6, 6, 1, 4, 3, 2, 7, 9, 7, 2, 9, 9, 5, 7, 5, 9, 6, 6, 3, 8, 5, 1, 6, 9, 8, 1, 8, 9, 8, 3, 9, 0, 0, 5, 5, 7, 8, 1, 10, 5, 8, 5, 7, 8, 6, 3, 4, 1, 7, 4, 3, 9, 8, 7, 6, 2, 1, 9, 3, 2, 10, 1, 6, 10, 4, 7, 8, 10, 6, 5, 5, 7, 6, 7, 7, 8, 9, 6, 5, 5, 5, 1, 7, 1, 3, 1, 8, 5, 8, 8, 10, 9, 9, 4, 5, 6, 8, 2, 2, 10, 1, 5, 5, 6, 9, 8, 5, 5, 2, 1, 7, 8, 7, 2, 4, 10, 1, 6, 8, 4, 8, 3, 2, 0]);

suc = [
   {2, 3, 4},
   {9, 19, 5},
   {11, 6, 14},
   {8, 42, 62},
   {55, 29, 7},
   {10, 12, 15},
   {17, 25, 23},
   {24, 18, 13},
   {26, 60, 21},
   {81},
   {65, 66},
   {33, 20, 31},
   {16},
   {90},
   {34},
   {28, 37, 38},
   {50, 27},
   {35, 22},
   {37},
   {30},
   {84},
   {41, 70},
   {82, 39},
   {89, 76},
   {52},
   {56, 36},
   {32},
   {53},
   {62},
   {64, 43},
   {40, 67, 61},
   {75},
   {65},
   {63},
   {45, 46},
   {58},
   {72},
   {41, 57},
   {71},
   {79},
   {51, 47},
   {44},
   {55},
   {49, 85, 78},
   {52},
   {48, 73, 58},
   {74, 54},
   {71},
   {52},
   {59, 87},
   {81},
   {56},
   {73},
   {60},
   {83},
   {90},
   {75},
   {68},
   {66},
   {80, 69},
   {79},
   {88},
   {88},
   {67},
   {88},
   {86},
   {72, 85},
   {90},
   {71},
   {77, 79},
   {78},
   {87},
   {76},
   {87},
   {80},
   {82, 77},
   {80, 78},
   {83},
   {81},
   {83, 84},
   {84},
   {91},
   {91},
   {85},
   {86},
   {91},
   {89},
   {89},
   {92},
   {92},
   {92},
   {  } ];

deadline = array2d(1..92, 1..3, [1, 2, 3, 2, 5, 2, 5, 5, 5, 6, 0, 4, 10, 0, 4, 12, 2, 5, 13, 1, 0, 15, 5, 1, 16, 3, 3, 20, 1, 5, 23, 5, 5, 25, 4, 3, 29, 1, 2, 29, 4, 2, 32, 0, 4, 34, 3, 2, 34, 0, 3, 35, 4, 3, 36, 0, 1, 36, 1, 3, 36, 4, 0, 39, 3, 5, 41, 2, 0, 47, 5, 3, 48, 5, 5, 48, 0, 3, 55, 4, 4, 56, 4, 1, 59, 5, 1, 67, 2, 1, 70, 3, 2, 71, 2, 4, 73, 5, 0, 76, 4, 2, 77, 5, 3, 79, 4, 3, 82, 5, 2, 82, 0, 1, 83, 2, 5, 84, 0, 0, 85, 4, 1, 85, 3, 3, 90, 3, 4, 91, 4, 5, 92, 2, 2, 94, 3, 3, 95, 3, 2, 97, 4, 5, 98, 5, 2, 98, 1, 1, 99, 0, 0, 100, 3, 3, 101, 0, 5, 104, 1, 1, 105, 0, 5, 106, 2, 1, 112, 1, 2, 119, 1, 2, 123, 2, 5, 125, 1, 3, 126, 2, 3, 129, 4, 0, 131, 2, 3, 132, 1, 5, 132, 0, 1, 135, 5, 1, 135, 4, 1, 136, 0, 1, 137, 3, 4, 137, 3, 1, 139, 3, 1, 144, 0, 1, 149, 0, 1, 151, 1, 3, 152, 2, 5, 154, 2, 2, 155, 2, 2, 156, 1, 3, 157, 5, 1, 161, 1, 2, 162, 5, 0, 162, 3, 3, 162, 4, 3, 164, 3, 4, 164, 3, 3, 166, 0, 4, 168, 3, 4, 172, 5, 5, 173, 0, 3, 174, 0, 0, 175, 0, 1, 177, 4, 1]);
