n_res = 4;
rc = [ 79, 64, 75, 69 ];
n_tasks = 92;
d = [0, 9, 4, 4, 5, 4, 7, 2, 9, 10, 4, 6, 4, 8, 4, 5, 8, 7, 7, 2, 7, 4, 9, 2, 6, 2, 10, 8, 7, 4, 3, 2, 8, 10, 4, 6, 8, 2, 6, 4, 4, 2, 5, 8, 9, 2, 5, 10, 2, 8, 3, 4, 5, 5, 7, 5, 3, 5, 9, 2, 7, 9, 6, 8, 7, 2, 8, 7, 8, 5, 2, 3, 10, 3, 5, 6, 2, 1, 5, 1, 1, 5, 3, 6, 4, 10, 9, 6, 1, 8, 8, 0];
rr = array2d(1..4, 1..92, [0, 6, 10, 1, 9, 5, 7, 8, 4, 3, 7, 6, 6, 1, 3, 10, 7, 1, 9, 8, 6, 4, 4, 1, 8, 9, 5, 9, 3, 1, 10, 6, 9, 8, 8, 10, 4, 9, 5, 4, 10, 4, 9, 5, 8, 2, 2, 5, 4, 3, 4, 10, 3, 6, 2, 2, 3, 1, 8, 3, 9, 7, 1, 10, 9, 4, 10, 6, 3, 1, 8, 10, 2, 5, 7, 9, 8, 6, 3, 4, 4, 7, 1, 4, 8, 1, 9, 2, 10, 7, 6, 0, 0, 10, 8, 8, 8, 3, 6, 10, 1, 3, 6, 4, 8, 3, 9, 9, 6, 5, 1, 3, 9, 7, 8, 2, 1, 8, 9, 6, 4, 6, 4, 6, 6, 1, 7, 5, 5, 2, 4, 1, 3, 4, 3, 10, 8, 1, 7, 1, 8, 1, 7, 3, 5, 6, 8, 2, 9, 5, 3, 8, 2, 8, 3, 3, 8, 4, 6, 9, 7, 2, 6, 4, 8, 7, 4, 4, 10, 2, 1, 10, 9, 2, 7, 7, 7, 7, 1, 5, 7, 2, 6, 0, 0, 4, 5, 9, 4, 6, 5, 9, 2, 1, 4, 4, 1, 5, 3, 1, 9, 5, 6, 8, 9, 9, 5, 3, 8, 6, 3, 3, 3, 8, 3, 1, 9, 6, 7, 3, 3, 9, 6, 3, 1, 5, 6, 7, 5, 2, 4, 10, 4, 4, 5, 8, 7, 5, 1, 2, 3, 10, 8, 3, 9, 8, 7, 1, 7, 10, 9, 5, 6, 10, 3, 2, 3, 4, 7, 2, 3, 8, 7, 4, 8, 2, 4, 8, 7, 10, 8, 3, 2, 6, 2, 0, 0, 5, 1, 7, 10, 2, 6, 5, 7, 9, 8, 7, 7, 6, 4, 5, 2, 3, 9, 7, 10, 8, 5, 5, 7, 3, 5, 5, 6, 8, 1, 1, 2, 5, 3, 3, 5, 8, 1, 4, 7, 3, 10, 3, 8, 1, 9, 5, 10, 3, 7, 4, 6, 8, 7, 3, 3, 4, 1, 1, 6, 3, 7, 4, 4, 5, 10, 5, 9, 5, 6, 1, 2, 5, 8, 3, 1, 3, 4, 6, 10, 9, 8, 5, 4, 2, 1, 1, 4, 1, 7, 0]);

suc = [
   {2, 3, 4},
   {10, 29, 6},
   {5, 14, 7},
   {8, 9, 17},
   {27, 45},
   {16, 28, 30},
   {27, 22, 23},
   {40, 11, 20},
   {40, 58, 15},
   {17, 12, 68},
   {48, 36, 13},
   {49, 44, 30},
   {18, 34, 52},
   {25, 35, 55},
   {21, 86},
   {33, 38, 23},
   {35, 19},
   {32, 73, 70},
   {51, 37, 22},
   {24, 67},
   {26},
   {86, 47},
   {49, 35, 78},
   {25, 90, 63},
   {56, 59, 31},
   {57, 38, 39},
   {74, 37, 87},
   {43, 55, 47},
   {73, 31},
   {78, 39},
   {62},
   {43, 53, 46},
   {80, 50, 60},
   {49, 50, 57},
   {62, 46, 47},
   {46, 42, 38},
   {65},
   {82, 67},
   {65, 41, 67},
   {41, 42},
   {75, 60, 85},
   {74, 78},
   {76, 71, 63},
   {50, 59, 53},
   {59, 61},
   {81, 58},
   {70},
   {51, 68, 53},
   {73, 54},
   {56, 75, 72},
   {56, 81, 52},
   {75},
   {64, 77, 54},
   {81, 58, 66},
   {57, 77},
   {66, 69},
   {68, 62},
   {72, 60, 86},
   {76},
   {89},
   {72, 63},
   {64, 65, 69},
   {64, 79},
   {91, 85},
   {66, 70},
   {71},
   {74},
   {80, 69},
   {87, 71},
   {88},
   {82, 79},
   {83, 76, 87},
   {84},
   {77},
   {82},
   {79},
   {90},
   {80},
   {84},
   {83},
   {83},
   {88},
   {88, 90, 84},
   {85},
   {89},
   {91},
   {89},
   {91},
   {92},
   {92},
   {92},
   {  } ];

deadline = array2d(1..92, 1..3, [2, 0, 4, 3, 0, 5, 7, 5, 4, 8, 0, 4, 9, 3, 5, 11, 0, 1, 13, 0, 5, 13, 0, 3, 17, 5, 3, 21, 3, 0, 28, 5, 0, 28, 0, 3, 29, 1, 2, 34, 2, 2, 34, 1, 2, 36, 0, 5, 37, 1, 0, 38, 1, 1, 38, 4, 4, 39, 5, 3, 39, 1, 4, 40, 3, 1, 42, 0, 4, 43, 3, 0, 47, 5, 4, 48, 5, 5, 49, 1, 2, 50, 4, 4, 57, 2, 1, 58, 4, 4, 58, 0, 0, 68, 0, 0, 68, 1, 2, 70, 0, 0, 74, 2, 0, 76, 0, 0, 78, 4, 5, 79, 5, 5, 81, 1, 1, 83, 5, 0, 85, 0, 4, 86, 5, 0, 87, 1, 3, 87, 3, 3, 94, 5, 5, 95, 5, 0, 95, 4, 1, 95, 2, 2, 98, 2, 2, 99, 3, 3, 100, 4, 1, 101, 5, 0, 102, 3, 1, 108, 1, 3, 109, 2, 4, 113, 4, 4, 113, 2, 0, 114, 1, 3, 121, 2, 0, 125, 3, 2, 130, 2, 3, 130, 1, 1, 133, 5, 2, 136, 2, 4, 138, 3, 0, 144, 3, 1, 145, 5, 2, 146, 0, 1, 152, 0, 4, 153, 0, 0, 154, 0, 3, 156, 1, 5, 160, 2, 1, 161, 4, 0, 162, 3, 1, 162, 0, 1, 163, 4, 2, 164, 4, 4, 164, 4, 1, 164, 5, 3, 164, 3, 4, 171, 2, 4, 175, 5, 5, 177, 4, 0, 177, 0, 1, 180, 4, 4, 181, 0, 4, 182, 5, 5, 183, 1, 1, 184, 0, 5, 185, 5, 3, 186, 2, 4]);
