n_res = 4;
rc = [ 35, 32, 28, 29 ];
n_tasks = 92;
d = [0, 9, 10, 2, 9, 5, 1, 2, 7, 10, 8, 5, 1, 5, 10, 2, 5, 3, 5, 6, 1, 8, 1, 7, 5, 6, 5, 6, 1, 2, 10, 2, 3, 8, 3, 1, 8, 7, 3, 7, 9, 3, 9, 5, 3, 2, 6, 7, 7, 1, 2, 6, 7, 3, 2, 2, 6, 6, 8, 3, 6, 6, 7, 5, 7, 7, 4, 10, 2, 10, 8, 7, 7, 8, 1, 1, 4, 6, 10, 9, 4, 2, 1, 9, 1, 10, 1, 5, 7, 1, 5, 0];
rr = array2d(1..4, 1..92, [0, 7, 0, 0, 4, 8, 3, 0, 10, 8, 0, 8, 6, 8, 4, 0, 10, 5, 0, 6, 5, 2, 0, 7, 0, 1, 2, 8, 10, 5, 10, 4, 0, 0, 3, 8, 1, 0, 4, 0, 0, 0, 10, 2, 10, 7, 0, 4, 5, 8, 0, 4, 8, 0, 7, 3, 10, 9, 0, 4, 0, 1, 6, 10, 1, 10, 5, 9, 0, 10, 9, 7, 5, 2, 1, 5, 2, 10, 5, 1, 8, 2, 8, 0, 10, 2, 1, 6, 0, 0, 2, 0, 0, 8, 2, 5, 6, 0, 0, 8, 6, 9, 1, 0, 1, 9, 10, 3, 0, 8, 6, 2, 0, 8, 6, 0, 7, 2, 7, 7, 5, 2, 0, 9, 3, 7, 8, 0, 7, 2, 4, 6, 0, 8, 0, 7, 2, 0, 9, 0, 1, 5, 0, 9, 4, 10, 1, 0, 1, 0, 1, 9, 7, 3, 2, 3, 10, 0, 9, 8, 9, 4, 4, 6, 0, 0, 2, 1, 2, 2, 1, 9, 8, 2, 4, 7, 0, 4, 7, 5, 0, 3, 6, 0, 0, 0, 10, 8, 4, 1, 8, 0, 8, 8, 0, 6, 5, 2, 6, 4, 0, 0, 8, 0, 4, 7, 0, 4, 3, 0, 0, 4, 6, 8, 1, 8, 5, 0, 10, 7, 3, 9, 0, 9, 0, 0, 1, 0, 8, 0, 7, 2, 9, 2, 5, 5, 1, 8, 0, 0, 0, 8, 10, 0, 9, 3, 5, 0, 9, 0, 0, 6, 2, 7, 0, 6, 3, 4, 6, 0, 8, 7, 10, 8, 2, 2, 4, 3, 0, 4, 2, 0, 8, 9, 9, 0, 0, 2, 6, 0, 3, 9, 1, 2, 0, 0, 0, 4, 5, 1, 6, 4, 0, 5, 5, 2, 6, 0, 0, 0, 0, 2, 9, 2, 7, 1, 2, 6, 10, 0, 8, 4, 0, 3, 6, 9, 2, 9, 2, 8, 1, 3, 5, 4, 0, 3, 0, 4, 5, 8, 2, 10, 1, 0, 6, 9, 3, 0, 3, 8, 1, 10, 9, 8, 2, 7, 0, 0, 5, 0, 10, 6, 7, 8, 3, 7, 9, 1, 9, 0, 2, 6, 8, 8, 7, 2, 0, 0]);

suc = [
   {2, 3, 4},
   {58, 30, 15},
   {8, 16, 11},
   {41, 5, 7},
   {6},
   {56, 10, 46},
   {19, 14, 22},
   {9, 21, 13},
   {56, 42, 70},
   {50, 28, 36},
   {24, 12, 52},
   {62, 26, 38},
   {45, 30, 47},
   {32, 25, 23},
   {25, 37, 41},
   {40, 17, 20},
   {18, 44, 61},
   {55},
   {37},
   {78, 38, 86},
   {59, 29, 47},
   {42, 66, 30},
   {40, 43, 29},
   {34, 27, 70},
   {65, 33, 78},
   {50, 35, 47},
   {42, 29, 31},
   {51},
   {48, 51, 39},
   {34, 91, 50},
   {35, 39},
   {33, 67, 54},
   {35},
   {48, 90, 44},
   {64, 68},
   {40, 60, 45},
   {67, 38, 63},
   {44, 71},
   {49, 53},
   {48, 57, 87},
   {82},
   {60, 69},
   {53, 54, 71},
   {82},
   {64},
   {58, 67, 62},
   {56, 83, 51},
   {89},
   {66, 75, 54},
   {77, 53, 55},
   {63},
   {85, 69, 79},
   {72, 75, 86},
   {72, 65, 61},
   {85},
   {65, 77, 61},
   {64, 72, 59},
   {59, 69},
   {75, 63},
   {76},
   {73, 68, 78},
   {73},
   {66, 68, 71},
   {74, 83, 90},
   {73, 74},
   {85},
   {70, 87},
   {91},
   {76, 77},
   {74, 83, 79},
   {80},
   {81},
   {76},
   {82},
   {80, 79},
   {84, 87},
   {80, 86},
   {84},
   {81},
   {81},
   {90},
   {89},
   {84},
   {91},
   {88},
   {88},
   {88},
   {89},
   {92},
   {92},
   {92},
   {  } ];

deadline = array2d(1..92, 1..3, [3, 3, 5, 8, 1, 0, 10, 2, 3, 12, 5, 5, 15, 0, 3, 23, 1, 5, 27, 1, 5, 29, 3, 0, 30, 1, 5, 35, 0, 3, 36, 5, 5, 36, 2, 3, 38, 0, 1, 39, 1, 3, 42, 4, 1, 42, 2, 4, 45, 3, 1, 49, 3, 0, 49, 5, 4, 53, 0, 1, 54, 4, 0, 57, 2, 3, 58, 5, 3, 58, 3, 5, 61, 3, 5, 62, 2, 0, 63, 5, 0, 65, 0, 3, 66, 0, 0, 68, 3, 4, 69, 4, 1, 69, 2, 2, 71, 2, 0, 74, 5, 0, 75, 5, 4, 75, 1, 4, 77, 2, 3, 79, 0, 1, 79, 3, 3, 81, 2, 0, 81, 2, 3, 82, 4, 2, 83, 5, 1, 88, 5, 2, 88, 1, 5, 88, 5, 1, 89, 4, 2, 91, 4, 2, 93, 1, 2, 96, 3, 5, 96, 3, 1, 104, 5, 1, 107, 3, 5, 108, 0, 3, 113, 4, 5, 116, 1, 2, 116, 1, 1, 117, 5, 1, 120, 2, 3, 120, 3, 5, 121, 0, 5, 122, 2, 0, 125, 3, 2, 129, 0, 5, 131, 1, 2, 131, 0, 1, 132, 5, 4, 133, 1, 0, 140, 0, 4, 140, 4, 4, 140, 5, 4, 143, 4, 3, 144, 3, 1, 144, 2, 0, 147, 5, 5, 148, 2, 1, 148, 0, 3, 163, 1, 1, 167, 1, 2, 168, 2, 4, 170, 1, 4, 171, 0, 2, 175, 0, 2, 177, 5, 4, 181, 1, 3, 186, 5, 2, 189, 3, 3, 191, 0, 0, 194, 1, 4, 198, 3, 3, 200, 1, 3, 204, 1, 3]);
