n_res = 4;
rc = [ 20, 19, 21, 19 ];
n_tasks = 92;
d = [0, 3, 10, 7, 3, 4, 10, 8, 1, 10, 10, 4, 4, 3, 8, 5, 4, 3, 3, 9, 9, 7, 10, 7, 6, 3, 5, 2, 6, 8, 9, 8, 9, 1, 4, 6, 7, 4, 3, 5, 5, 7, 3, 10, 6, 9, 10, 8, 7, 8, 5, 6, 8, 9, 5, 10, 5, 4, 4, 7, 9, 8, 2, 4, 7, 6, 8, 3, 1, 1, 9, 10, 3, 5, 5, 5, 3, 2, 8, 7, 7, 10, 7, 3, 1, 3, 10, 2, 9, 7, 9, 0];
rr = array2d(1..4, 1..92, [0, 0, 0, 0, 6, 0, 6, 9, 3, 0, 5, 0, 0, 0, 0, 0, 2, 0, 8, 0, 0, 0, 0, 0, 0, 4, 5, 0, 10, 0, 0, 0, 0, 0, 2, 0, 4, 10, 0, 0, 0, 0, 0, 0, 9, 5, 6, 0, 0, 1, 0, 0, 0, 0, 0, 0, 0, 9, 0, 0, 0, 2, 1, 0, 0, 0, 0, 5, 0, 0, 0, 0, 0, 10, 0, 0, 0, 0, 0, 0, 4, 0, 0, 0, 0, 0, 0, 0, 0, 0, 8, 0, 0, 6, 0, 0, 0, 0, 0, 0, 0, 0, 0, 0, 0, 4, 0, 0, 0, 3, 0, 0, 0, 5, 0, 1, 0, 0, 0, 0, 0, 0, 8, 6, 0, 5, 0, 0, 0, 0, 0, 0, 1, 0, 0, 0, 0, 0, 0, 0, 0, 0, 4, 3, 5, 6, 0, 0, 8, 0, 9, 0, 0, 0, 0, 8, 8, 0, 0, 0, 0, 0, 0, 0, 0, 0, 4, 0, 0, 6, 7, 10, 0, 3, 0, 1, 7, 0, 1, 8, 0, 3, 0, 0, 0, 0, 7, 0, 0, 1, 0, 0, 0, 2, 0, 3, 0, 0, 3, 0, 0, 0, 0, 3, 10, 0, 6, 0, 5, 0, 0, 2, 0, 0, 0, 0, 5, 0, 0, 8, 0, 0, 10, 0, 0, 5, 8, 10, 0, 0, 0, 9, 0, 0, 0, 0, 0, 0, 0, 7, 0, 0, 0, 6, 0, 0, 0, 0, 0, 0, 10, 0, 0, 0, 0, 1, 0, 0, 0, 10, 2, 0, 0, 0, 0, 0, 6, 0, 0, 0, 0, 0, 3, 0, 0, 0, 0, 0, 0, 9, 0, 0, 0, 0, 0, 0, 0, 0, 9, 0, 0, 2, 0, 0, 0, 0, 0, 0, 0, 0, 0, 0, 0, 0, 0, 7, 0, 0, 0, 0, 0, 0, 0, 0, 0, 1, 0, 0, 0, 0, 0, 0, 0, 0, 9, 0, 0, 0, 0, 0, 2, 0, 0, 0, 0, 0, 8, 0, 0, 0, 0, 10, 0, 0, 2, 10, 9, 0, 10, 0, 0, 0, 0, 0, 0, 0, 0, 0, 0, 0, 0, 6, 0, 0, 0, 0, 0, 0]);

suc = [
   {2, 3, 4},
   {28, 6, 7},
   {8, 13, 14},
   {12, 5, 23},
   {80, 9, 74},
   {16, 11, 15},
   {26, 51},
   {40, 17, 10},
   {24, 45},
   {73, 90},
   {48, 13},
   {89, 42, 38},
   {81, 44, 47},
   {25, 27, 57},
   {64},
   {33, 35, 57},
   {18, 19, 20},
   {35, 84, 29},
   {27, 36, 39},
   {56, 85, 21},
   {22},
   {65, 44},
   {61, 29, 47},
   {85, 30, 31},
   {82},
   {34, 83, 37},
   {28, 70},
   {67, 63},
   {71},
   {41, 69},
   {32, 91, 76},
   {48, 58, 55},
   {62, 38},
   {81, 60},
   {51, 61, 62},
   {65, 41},
   {86},
   {73, 50},
   {57, 79},
   {43},
   {78, 44, 46},
   {73, 51},
   {64, 68, 79},
   {49},
   {50, 52, 87},
   {59},
   {70},
   {50, 69},
   {75, 54},
   {66, 53},
   {53, 70},
   {53, 62},
   {64},
   {68},
   {56},
   {67},
   {82},
   {59},
   {77},
   {88},
   {67},
   {91},
   {81, 79},
   {72, 78},
   {66, 69},
   {72},
   {72, 68, 78},
   {77},
   {77},
   {74},
   {74, 76},
   {75},
   {84},
   {83},
   {83},
   {88},
   {82, 87},
   {88},
   {80, 86},
   {87},
   {84},
   {86},
   {90},
   {85},
   {91},
   {89},
   {89},
   {90},
   {92},
   {92},
   {92},
   {  } ];

deadline = array2d(1..92, 1..3, [4, 3, 0, 5, 5, 3, 5, 4, 4, 7, 1, 2, 10, 5, 2, 19, 2, 1, 19, 4, 0, 22, 3, 1, 24, 2, 3, 27, 5, 1, 27, 0, 3, 31, 0, 3, 32, 4, 0, 36, 0, 0, 37, 5, 5, 37, 3, 4, 39, 5, 0, 45, 0, 3, 46, 3, 4, 48, 0, 5, 49, 5, 3, 49, 1, 1, 51, 2, 0, 56, 1, 5, 58, 4, 0, 61, 2, 2, 62, 1, 1, 64, 0, 1, 65, 4, 1, 68, 3, 5, 72, 4, 1, 75, 4, 2, 80, 5, 2, 80, 4, 5, 80, 0, 0, 81, 3, 3, 89, 0, 5, 98, 5, 2, 98, 2, 5, 99, 1, 1, 100, 5, 5, 102, 1, 5, 106, 5, 1, 107, 3, 3, 111, 3, 1, 113, 5, 1, 116, 1, 2, 118, 3, 4, 123, 4, 0, 126, 0, 4, 129, 5, 4, 129, 2, 1, 130, 5, 2, 133, 5, 2, 136, 1, 0, 137, 1, 5, 143, 3, 4, 145, 4, 2, 146, 5, 1, 148, 2, 1, 161, 4, 3, 166, 0, 5, 169, 4, 4, 173, 3, 3, 173, 2, 2, 175, 1, 3, 176, 5, 5, 176, 2, 4, 178, 5, 5, 179, 0, 0, 182, 4, 5, 182, 3, 0, 186, 4, 3, 187, 1, 5, 192, 2, 0, 192, 1, 4, 198, 1, 5, 199, 3, 1, 200, 1, 5, 200, 5, 3, 203, 5, 3, 203, 2, 2, 211, 1, 5, 211, 2, 2, 225, 2, 1, 227, 3, 2, 228, 1, 5, 236, 1, 5, 239, 0, 1, 245, 4, 4, 246, 5, 0, 250, 1, 1]);
