n_res = 4;
rc = [ 30, 28, 28, 27 ];
n_tasks = 92;
d = [0, 10, 1, 6, 4, 10, 2, 4, 4, 4, 6, 9, 9, 8, 8, 3, 5, 1, 8, 6, 1, 9, 2, 6, 9, 5, 6, 10, 9, 7, 8, 7, 10, 10, 2, 4, 7, 2, 1, 3, 1, 9, 3, 6, 2, 3, 7, 7, 6, 10, 6, 6, 6, 10, 8, 2, 3, 4, 5, 1, 4, 8, 2, 6, 1, 4, 3, 4, 9, 6, 7, 2, 6, 6, 7, 8, 9, 2, 9, 4, 10, 9, 3, 9, 6, 7, 2, 3, 2, 2, 4, 0];
rr = array2d(1..4, 1..92, [0, 5, 2, 10, 10, 2, 6, 1, 4, 10, 3, 10, 3, 6, 5, 9, 9, 1, 8, 10, 9, 4, 9, 3, 3, 10, 6, 3, 5, 2, 6, 6, 9, 3, 1, 7, 4, 2, 10, 3, 2, 1, 5, 5, 9, 8, 2, 6, 7, 5, 9, 8, 6, 1, 9, 4, 9, 1, 2, 9, 7, 2, 5, 7, 9, 6, 8, 4, 9, 9, 2, 2, 6, 1, 9, 2, 2, 9, 9, 4, 2, 10, 1, 10, 6, 9, 2, 4, 8, 2, 2, 0, 0, 5, 10, 5, 7, 8, 9, 3, 7, 9, 8, 1, 3, 2, 9, 2, 3, 9, 9, 4, 6, 3, 1, 10, 5, 4, 6, 4, 6, 2, 5, 2, 2, 9, 6, 8, 7, 6, 6, 9, 5, 1, 10, 6, 2, 9, 5, 7, 3, 2, 6, 4, 7, 9, 8, 1, 10, 4, 9, 7, 4, 4, 8, 10, 8, 2, 6, 5, 2, 6, 2, 10, 8, 5, 9, 9, 7, 9, 8, 5, 3, 10, 5, 4, 6, 8, 6, 4, 10, 8, 2, 0, 0, 2, 9, 6, 3, 8, 4, 3, 3, 9, 8, 4, 2, 10, 9, 5, 9, 5, 4, 8, 9, 4, 9, 1, 6, 7, 7, 3, 4, 7, 7, 10, 6, 5, 6, 6, 9, 1, 3, 6, 1, 3, 10, 3, 1, 1, 9, 3, 3, 9, 7, 6, 4, 5, 6, 3, 1, 4, 7, 9, 10, 4, 8, 5, 8, 9, 4, 6, 5, 4, 10, 1, 7, 7, 3, 5, 10, 5, 8, 4, 10, 8, 2, 5, 2, 2, 8, 8, 1, 1, 5, 0, 0, 6, 1, 3, 8, 3, 9, 8, 9, 10, 8, 4, 7, 7, 5, 7, 3, 8, 7, 2, 7, 2, 2, 3, 3, 10, 1, 9, 3, 10, 6, 5, 9, 7, 2, 6, 9, 1, 9, 3, 6, 2, 4, 6, 5, 3, 5, 3, 8, 9, 7, 6, 1, 5, 5, 3, 4, 8, 1, 3, 7, 2, 9, 6, 1, 2, 10, 7, 4, 3, 6, 7, 8, 3, 9, 6, 2, 1, 7, 10, 7, 10, 10, 9, 10, 4, 4, 4, 6, 5, 10, 0]);

suc = [
   {2, 3, 4},
   {20},
   {17, 6},
   {8, 5, 7},
   {24, 10, 27},
   {35, 37, 31},
   {41, 18, 43},
   {9, 29, 13},
   {28},
   {11, 12, 14},
   {56, 15},
   {16},
   {55},
   {25, 22, 86},
   {72},
   {58, 54},
   {82, 23},
   {19, 21, 47},
   {26},
   {32, 34, 53},
   {28},
   {90},
   {81},
   {69, 45, 71},
   {83, 63},
   {36},
   {59, 77},
   {65, 30},
   {33, 46, 39},
   {88},
   {36, 38},
   {51, 52},
   {36},
   {88, 42, 55},
   {89, 49},
   {86},
   {64, 67, 68},
   {40},
   {79},
   {44},
   {48},
   {50},
   {75},
   {47},
   {48, 85},
   {77},
   {70, 63},
   {67},
   {66, 60, 74},
   {72, 57},
   {83},
   {86},
   {73},
   {63},
   {73},
   {75},
   {61, 62},
   {67},
   {89},
   {83},
   {84},
   {70},
   {73, 91},
   {79},
   {74},
   {69},
   {91},
   {70},
   {72, 78},
   {71},
   {74},
   {76},
   {76},
   {78},
   {84},
   {81},
   {80},
   {87},
   {82},
   {81, 91},
   {85},
   {84},
   {87},
   {87},
   {90},
   {88},
   {90},
   {89},
   {92},
   {92},
   {92},
   {  } ];

deadline = array2d(1..92, 1..3, [1, 0, 1, 3, 4, 0, 8, 0, 2, 9, 2, 4, 13, 4, 2, 14, 2, 2, 17, 2, 5, 24, 1, 1, 31, 1, 1, 34, 2, 5, 51, 4, 4, 51, 2, 4, 53, 2, 1, 53, 3, 3, 57, 3, 3, 57, 1, 3, 57, 5, 1, 59, 0, 4, 59, 4, 0, 65, 0, 4, 65, 2, 0, 66, 3, 1, 68, 4, 4, 71, 5, 0, 74, 4, 2, 74, 0, 4, 75, 4, 4, 76, 2, 5, 76, 4, 5, 76, 1, 0, 79, 5, 2, 82, 1, 5, 87, 1, 0, 90, 4, 5, 91, 1, 3, 91, 1, 1, 91, 5, 3, 92, 4, 1, 93, 0, 2, 94, 0, 3, 97, 2, 5, 97, 5, 0, 97, 1, 5, 100, 4, 2, 107, 0, 0, 109, 4, 0, 110, 4, 2, 113, 1, 1, 113, 1, 0, 114, 0, 5, 115, 3, 0, 119, 4, 1, 119, 5, 0, 121, 4, 3, 122, 4, 1, 123, 3, 3, 124, 2, 5, 124, 3, 1, 125, 0, 4, 130, 4, 1, 131, 4, 4, 134, 0, 1, 134, 2, 1, 135, 2, 0, 137, 5, 1, 137, 3, 1, 139, 4, 4, 139, 2, 5, 146, 1, 1, 148, 2, 4, 151, 4, 2, 151, 4, 5, 153, 0, 0, 155, 3, 3, 158, 1, 1, 163, 4, 4, 165, 0, 4, 165, 1, 3, 166, 4, 2, 169, 0, 2, 170, 1, 2, 171, 0, 2, 177, 5, 1, 177, 3, 0, 185, 5, 4, 186, 5, 2, 186, 2, 3, 192, 0, 5, 194, 0, 5, 197, 2, 3, 199, 4, 3, 202, 4, 5]);
