n_res = 4;
rc = [ 39, 48, 60, 49 ];
n_tasks = 92;
d = [0, 10, 4, 1, 8, 1, 1, 1, 1, 4, 6, 10, 8, 1, 6, 3, 3, 1, 7, 2, 3, 2, 3, 10, 7, 6, 5, 4, 3, 7, 10, 1, 5, 1, 6, 3, 8, 4, 10, 7, 3, 7, 10, 2, 7, 9, 1, 4, 7, 8, 8, 1, 2, 4, 5, 5, 7, 5, 7, 3, 1, 1, 1, 5, 8, 8, 8, 9, 6, 7, 7, 2, 3, 9, 1, 5, 4, 6, 10, 9, 1, 4, 10, 9, 5, 6, 6, 1, 1, 9, 10, 0];
rr = array2d(1..4, 1..92, [0, 1, 4, 4, 2, 0, 5, 8, 0, 0, 0, 5, 5, 0, 0, 9, 8, 1, 8, 0, 0, 7, 2, 0, 7, 2, 0, 0, 0, 0, 1, 0, 0, 10, 6, 0, 0, 0, 9, 6, 5, 9, 0, 2, 0, 0, 10, 0, 7, 2, 4, 0, 4, 1, 0, 0, 0, 0, 1, 0, 0, 6, 9, 6, 0, 0, 0, 0, 5, 0, 1, 0, 0, 0, 0, 0, 0, 0, 0, 0, 0, 0, 4, 0, 7, 0, 9, 5, 1, 9, 0, 0, 0, 0, 0, 0, 6, 5, 0, 0, 0, 0, 6, 1, 3, 3, 4, 0, 0, 10, 5, 0, 8, 0, 0, 0, 0, 6, 0, 0, 8, 0, 0, 0, 9, 0, 0, 6, 0, 8, 5, 3, 0, 8, 6, 5, 10, 0, 4, 8, 0, 0, 8, 0, 0, 0, 3, 0, 0, 0, 0, 2, 8, 0, 0, 6, 3, 0, 0, 2, 0, 7, 0, 4, 0, 0, 4, 0, 8, 9, 3, 0, 6, 0, 0, 0, 6, 4, 0, 0, 10, 5, 4, 0, 0, 9, 0, 3, 0, 0, 0, 0, 5, 8, 9, 1, 0, 8, 0, 0, 0, 0, 0, 3, 0, 0, 7, 7, 4, 0, 3, 9, 2, 9, 5, 0, 0, 8, 10, 5, 7, 0, 4, 2, 0, 0, 9, 6, 8, 7, 0, 4, 10, 4, 7, 5, 0, 0, 0, 8, 9, 6, 0, 10, 0, 10, 6, 0, 0, 0, 7, 0, 0, 0, 4, 0, 10, 6, 0, 1, 0, 3, 0, 5, 0, 0, 3, 0, 2, 0, 0, 7, 0, 0, 0, 0, 0, 0, 0, 0, 4, 0, 3, 0, 0, 10, 9, 0, 0, 0, 1, 6, 4, 0, 9, 0, 8, 0, 0, 0, 0, 0, 6, 0, 0, 0, 0, 7, 6, 10, 5, 0, 8, 9, 0, 0, 8, 3, 9, 0, 9, 8, 0, 10, 8, 0, 6, 2, 0, 0, 4, 3, 8, 1, 2, 0, 0, 2, 10, 0, 10, 2, 5, 2, 5, 1, 2, 0, 0, 2, 8, 0, 10, 3, 6, 4, 2, 3, 0, 1, 4, 0, 0, 0, 4, 0, 0, 0]);

suc = [
   {2, 3, 4},
   {26, 14, 7},
   {18, 12, 6},
   {32, 33, 5},
   {8, 25, 27},
   {74, 91, 31},
   {9, 13, 38},
   {10, 20, 86},
   {64, 11, 44},
   {76},
   {34, 19, 36},
   {72, 37},
   {16, 21, 15},
   {24, 22},
   {88, 75},
   {17, 68, 39},
   {55},
   {68},
   {58, 28, 30},
   {34},
   {51, 45, 54},
   {23},
   {83},
   {41, 46},
   {29},
   {85},
   {73, 49, 80},
   {69},
   {56},
   {53},
   {69, 55},
   {36},
   {57, 66, 35},
   {54},
   {70},
   {81},
   {42, 43},
   {40, 76},
   {77},
   {64, 50},
   {48},
   {70},
   {47},
   {90, 63},
   {49},
   {52},
   {67},
   {73},
   {65},
   {81},
   {87},
   {67},
   {78},
   {58},
   {59, 84},
   {80, 60, 87},
   {76, 62},
   {77},
   {72},
   {61},
   {78},
   {73},
   {75},
   {71},
   {72, 70},
   {71},
   {87},
   {77, 79},
   {82},
   {89},
   {81},
   {89},
   {75},
   {79},
   {78},
   {79},
   {88},
   {83},
   {82},
   {85},
   {85},
   {90},
   {84},
   {89},
   {86},
   {88},
   {90},
   {91},
   {92},
   {92},
   {92},
   {  } ];

deadline = array2d(1..92, 1..3, [1, 1, 3, 3, 2, 5, 4, 1, 1, 6, 4, 3, 6, 4, 5, 7, 3, 3, 12, 3, 3, 14, 4, 4, 15, 4, 5, 16, 1, 5, 16, 3, 1, 19, 2, 5, 20, 0, 2, 20, 3, 5, 25, 1, 4, 30, 5, 0, 30, 3, 4, 31, 2, 1, 31, 1, 2, 31, 0, 4, 31, 1, 4, 33, 0, 5, 33, 2, 4, 34, 1, 1, 35, 3, 1, 35, 0, 2, 37, 3, 1, 38, 5, 4, 42, 0, 3, 44, 4, 4, 46, 2, 0, 51, 0, 0, 51, 2, 4, 53, 4, 4, 56, 4, 5, 57, 1, 5, 59, 3, 3, 63, 3, 5, 66, 4, 4, 66, 2, 2, 68, 0, 0, 68, 1, 2, 69, 3, 2, 70, 2, 0, 75, 1, 4, 75, 4, 1, 75, 1, 1, 75, 5, 3, 75, 2, 5, 77, 5, 5, 78, 2, 2, 83, 1, 3, 83, 0, 4, 84, 5, 3, 85, 3, 0, 85, 3, 0, 86, 3, 1, 89, 2, 3, 90, 0, 0, 91, 0, 1, 92, 5, 4, 95, 4, 0, 96, 4, 4, 98, 2, 3, 100, 1, 4, 100, 3, 4, 100, 2, 1, 102, 2, 4, 105, 1, 4, 108, 5, 0, 108, 1, 5, 110, 0, 4, 114, 3, 3, 114, 3, 2, 116, 3, 5, 117, 3, 5, 117, 2, 5, 118, 4, 3, 121, 2, 5, 121, 5, 2, 123, 4, 1, 125, 3, 0, 129, 4, 1, 131, 4, 0, 133, 5, 3, 135, 3, 1, 136, 1, 3, 137, 1, 3, 137, 3, 2, 139, 0, 3, 141, 5, 4, 144, 4, 4]);
