n_res = 4;
rc = [ 44, 32, 32, 41 ];
n_tasks = 92;
d = [0, 7, 7, 6, 3, 2, 7, 5, 8, 8, 1, 2, 8, 2, 4, 9, 5, 4, 3, 9, 5, 8, 4, 6, 5, 6, 9, 9, 10, 10, 5, 1, 1, 2, 6, 2, 6, 4, 8, 9, 9, 8, 3, 8, 3, 8, 9, 10, 1, 3, 1, 5, 3, 3, 2, 3, 8, 9, 6, 4, 5, 2, 9, 2, 4, 10, 5, 10, 9, 8, 4, 6, 10, 8, 6, 6, 5, 8, 7, 3, 4, 4, 9, 8, 8, 4, 4, 7, 4, 1, 7, 0];
rr = array2d(1..4, 1..92, [0, 2, 6, 0, 0, 0, 7, 8, 6, 7, 5, 9, 7, 4, 1, 1, 0, 2, 0, 9, 0, 3, 0, 3, 1, 0, 0, 0, 0, 9, 1, 7, 5, 0, 0, 0, 0, 8, 2, 4, 5, 0, 0, 0, 0, 0, 6, 1, 0, 10, 1, 0, 0, 10, 8, 0, 6, 5, 0, 1, 5, 0, 8, 0, 10, 0, 0, 0, 0, 7, 3, 0, 4, 8, 5, 6, 8, 0, 5, 10, 0, 9, 3, 10, 0, 0, 2, 4, 9, 9, 0, 0, 0, 4, 3, 8, 0, 2, 6, 7, 0, 0, 0, 1, 0, 0, 0, 0, 1, 0, 0, 0, 5, 3, 0, 0, 9, 0, 7, 0, 4, 0, 7, 5, 1, 2, 0, 0, 0, 0, 0, 0, 6, 8, 4, 4, 0, 0, 0, 2, 0, 0, 0, 0, 6, 0, 0, 3, 0, 0, 0, 0, 0, 0, 1, 0, 0, 0, 10, 0, 4, 4, 0, 2, 9, 4, 7, 0, 0, 0, 1, 3, 3, 6, 0, 2, 0, 5, 0, 0, 6, 6, 1, 0, 0, 0, 5, 7, 4, 4, 0, 0, 9, 9, 1, 0, 1, 7, 0, 0, 0, 0, 2, 10, 0, 0, 4, 0, 3, 0, 7, 4, 0, 0, 7, 7, 10, 0, 0, 1, 0, 7, 0, 0, 2, 0, 0, 0, 9, 0, 8, 0, 10, 0, 0, 0, 4, 0, 0, 0, 0, 0, 4, 9, 4, 0, 0, 7, 0, 6, 0, 0, 0, 10, 4, 0, 0, 6, 0, 0, 0, 0, 0, 8, 8, 0, 1, 5, 0, 10, 5, 0, 0, 0, 0, 0, 0, 10, 0, 8, 0, 0, 0, 7, 2, 0, 4, 0, 4, 5, 0, 0, 8, 7, 8, 6, 1, 0, 6, 0, 0, 1, 9, 0, 0, 0, 0, 1, 0, 0, 1, 0, 6, 5, 2, 0, 0, 9, 10, 0, 0, 1, 0, 0, 0, 8, 0, 2, 0, 0, 5, 2, 0, 0, 8, 0, 2, 9, 0, 0, 1, 0, 0, 4, 3, 9, 0, 5, 9, 10, 3, 0, 1, 7, 0, 5, 0, 6, 0, 7, 8, 4, 4, 0, 0, 8, 6, 0]);

suc = [
   {2, 3, 4},
   {26, 18, 19},
   {42, 12, 46},
   {9, 5, 6},
   {8, 16, 23},
   {17, 55, 7},
   {61, 13, 70},
   {32, 10, 50},
   {84, 47},
   {25, 11, 15},
   {27, 28, 14},
   {81},
   {36, 76},
   {29, 38, 31},
   {80},
   {17, 20, 44},
   {71, 22, 30},
   {33, 68, 69},
   {73, 59, 36},
   {24, 37, 21},
   {50, 69},
   {50},
   {88, 27, 53},
   {34, 35, 31},
   {75, 87},
   {44, 76, 39},
   {82, 43},
   {48, 45, 86},
   {49, 54, 63},
   {84, 62},
   {51, 52},
   {54},
   {41, 77},
   {40},
   {67, 77},
   {75},
   {58},
   {41, 75},
   {65, 91},
   {58},
   {64, 57, 62},
   {55},
   {65},
   {49, 55},
   {52, 78},
   {80, 66, 59},
   {67, 70},
   {56, 88, 64},
   {65, 51, 79},
   {78, 79},
   {67},
   {70},
   {89, 83},
   {59},
   {56, 60},
   {72, 74},
   {61},
   {81},
   {85},
   {66},
   {78, 63},
   {83},
   {73, 90},
   {74, 71},
   {72},
   {72, 79},
   {68, 69, 71},
   {73, 74},
   {82},
   {77},
   {85},
   {81},
   {88},
   {89},
   {84},
   {82},
   {87},
   {80},
   {83},
   {85},
   {90},
   {86},
   {86},
   {91},
   {87},
   {90},
   {91},
   {89},
   {92},
   {92},
   {92},
   {  } ];

deadline = array2d(1..92, 1..3, [1, 0, 4, 3, 0, 4, 4, 1, 5, 6, 2, 2, 7, 2, 3, 9, 5, 1, 11, 0, 2, 18, 2, 4, 25, 2, 0, 25, 1, 3, 26, 0, 2, 28, 3, 1, 28, 0, 4, 29, 5, 1, 34, 1, 2, 39, 0, 4, 49, 0, 4, 50, 3, 0, 50, 1, 1, 52, 3, 2, 52, 3, 1, 57, 1, 5, 58, 3, 1, 60, 1, 5, 61, 0, 2, 61, 3, 4, 61, 2, 3, 62, 2, 4, 62, 0, 1, 66, 2, 1, 67, 0, 5, 70, 5, 2, 70, 5, 3, 71, 3, 5, 74, 4, 2, 75, 1, 2, 75, 5, 2, 76, 2, 2, 77, 2, 2, 83, 2, 3, 87, 2, 0, 87, 4, 4, 87, 2, 1, 89, 3, 0, 99, 4, 4, 101, 5, 1, 104, 0, 4, 106, 0, 4, 107, 3, 1, 107, 2, 4, 114, 1, 4, 116, 1, 3, 120, 2, 2, 128, 2, 4, 130, 5, 2, 131, 3, 2, 131, 0, 4, 132, 0, 1, 133, 5, 2, 133, 4, 2, 134, 2, 5, 134, 2, 0, 142, 0, 0, 147, 1, 2, 151, 2, 1, 153, 2, 2, 154, 5, 2, 158, 4, 4, 158, 1, 0, 158, 5, 3, 158, 1, 2, 158, 1, 2, 159, 3, 3, 160, 2, 1, 162, 2, 1, 168, 3, 3, 170, 4, 3, 171, 1, 3, 173, 3, 2, 175, 5, 5, 178, 4, 0, 178, 1, 3, 182, 4, 2, 185, 2, 4, 187, 1, 3, 190, 5, 5, 191, 3, 5, 192, 4, 4, 193, 5, 5, 202, 5, 3, 202, 3, 1, 202, 4, 3]);
