n_res = 4;
rc = [ 65, 45, 31, 68 ];
n_tasks = 92;
d = [0, 9, 2, 2, 2, 10, 9, 1, 4, 3, 2, 4, 9, 5, 6, 3, 10, 2, 10, 10, 3, 2, 1, 8, 2, 1, 8, 6, 1, 1, 2, 6, 10, 1, 9, 3, 7, 3, 3, 4, 1, 4, 10, 10, 7, 1, 10, 6, 5, 9, 2, 1, 10, 8, 5, 9, 1, 9, 8, 2, 1, 2, 1, 2, 2, 5, 1, 8, 7, 6, 2, 3, 8, 8, 7, 2, 5, 6, 8, 2, 5, 6, 1, 3, 1, 6, 3, 5, 5, 5, 6, 0];
rr = array2d(1..4, 1..92, [0, 0, 0, 0, 8, 0, 9, 3, 0, 10, 4, 0, 6, 1, 2, 0, 0, 8, 0, 0, 5, 7, 3, 4, 3, 0, 5, 0, 0, 0, 6, 0, 5, 4, 0, 0, 0, 2, 0, 0, 8, 7, 8, 6, 9, 0, 3, 9, 9, 6, 0, 8, 7, 1, 5, 10, 9, 0, 10, 3, 9, 0, 0, 0, 0, 2, 0, 5, 0, 7, 0, 9, 3, 0, 10, 6, 2, 0, 0, 0, 0, 4, 0, 8, 7, 6, 0, 0, 0, 3, 4, 0, 0, 0, 5, 3, 0, 2, 7, 0, 9, 0, 0, 0, 0, 1, 0, 4, 2, 0, 0, 4, 0, 10, 0, 8, 4, 0, 2, 0, 3, 0, 0, 3, 4, 0, 10, 5, 0, 0, 10, 1, 0, 0, 0, 6, 1, 5, 1, 0, 7, 0, 9, 0, 8, 0, 2, 0, 7, 1, 0, 6, 0, 7, 3, 10, 1, 0, 0, 6, 0, 0, 0, 7, 5, 0, 8, 2, 0, 8, 0, 10, 6, 8, 0, 4, 0, 8, 5, 2, 0, 0, 6, 0, 0, 10, 2, 4, 0, 0, 0, 5, 0, 0, 0, 1, 4, 1, 10, 4, 0, 7, 5, 0, 0, 3, 0, 0, 0, 3, 0, 7, 0, 5, 0, 0, 0, 0, 0, 0, 4, 7, 0, 0, 7, 0, 0, 0, 0, 4, 0, 0, 0, 0, 1, 0, 0, 7, 10, 0, 0, 0, 0, 0, 3, 5, 0, 0, 0, 5, 4, 2, 4, 0, 2, 0, 0, 0, 3, 0, 0, 0, 0, 0, 0, 0, 5, 8, 2, 0, 0, 0, 10, 0, 10, 0, 0, 0, 0, 0, 0, 2, 8, 0, 6, 0, 10, 0, 10, 0, 8, 1, 0, 6, 0, 10, 8, 2, 0, 0, 0, 7, 0, 9, 0, 0, 0, 8, 0, 0, 7, 9, 5, 5, 6, 6, 0, 0, 1, 8, 5, 0, 0, 4, 8, 6, 2, 0, 0, 0, 5, 6, 0, 0, 0, 0, 0, 5, 3, 5, 0, 10, 6, 0, 0, 0, 9, 7, 0, 10, 0, 1, 0, 7, 6, 0, 8, 0, 5, 0, 3, 2, 8, 0, 2, 0, 0, 0]);

suc = [
   {2, 3, 4},
   {16, 43, 38},
   {21, 11, 5},
   {9, 19, 76},
   {20, 6, 68},
   {10, 13, 7},
   {8, 36, 70},
   {25},
   {62, 50, 14},
   {26, 44},
   {17, 12, 15},
   {88, 35},
   {24, 40, 75},
   {16, 26},
   {18, 83, 70},
   {31, 39, 23},
   {65, 33, 39},
   {25, 82},
   {52, 22, 31},
   {32, 57, 28},
   {59, 85, 37},
   {34, 27, 30},
   {64},
   {48, 29, 46},
   {45, 55},
   {53, 46, 71},
   {67, 43},
   {64, 72, 47},
   {89},
   {56, 63},
   {79},
   {42, 54},
   {74},
   {80, 49, 55},
   {56, 69, 53},
   {49, 60, 45},
   {41, 86},
   {48, 73, 54},
   {51},
   {45, 46, 87},
   {77},
   {76},
   {69, 61},
   {59},
   {84, 62, 71},
   {67, 61},
   {59, 86},
   {81},
   {77},
   {64, 78, 79},
   {60},
   {72},
   {72},
   {58},
   {67, 77},
   {68},
   {84, 63},
   {74},
   {80},
   {82},
   {73},
   {81},
   {66},
   {83},
   {66},
   {74, 71},
   {84, 69},
   {80},
   {90, 91},
   {76},
   {79},
   {73, 75},
   {86, 78},
   {75, 87},
   {78},
   {81},
   {90},
   {82},
   {85},
   {83},
   {85},
   {90},
   {87},
   {88, 89},
   {88},
   {89},
   {91},
   {91},
   {92},
   {92},
   {92},
   {  } ];

deadline = array2d(1..92, 1..3, [1, 2, 2, 2, 2, 4, 3, 3, 0, 4, 5, 1, 9, 3, 2, 12, 0, 5, 14, 4, 1, 14, 4, 4, 14, 2, 0, 16, 2, 0, 16, 4, 0, 17, 0, 5, 17, 4, 4, 18, 4, 5, 20, 4, 4, 21, 2, 4, 23, 1, 1, 26, 1, 4, 26, 5, 2, 29, 2, 2, 30, 0, 2, 30, 4, 5, 31, 2, 0, 36, 3, 4, 37, 0, 0, 38, 4, 4, 40, 1, 5, 40, 3, 1, 46, 0, 5, 47, 1, 0, 48, 2, 0, 50, 0, 2, 50, 3, 0, 50, 1, 0, 50, 4, 0, 51, 1, 2, 55, 1, 1, 55, 3, 4, 58, 4, 1, 58, 3, 0, 60, 3, 4, 60, 2, 5, 60, 0, 5, 63, 3, 1, 64, 4, 4, 65, 3, 3, 65, 4, 3, 67, 2, 1, 67, 1, 1, 67, 2, 5, 68, 3, 4, 73, 2, 0, 76, 2, 4, 76, 2, 4, 79, 0, 2, 80, 3, 2, 88, 1, 1, 89, 4, 5, 90, 5, 3, 91, 4, 0, 92, 2, 5, 92, 3, 1, 98, 5, 4, 98, 0, 2, 101, 2, 1, 105, 5, 0, 106, 0, 0, 112, 2, 1, 113, 5, 2, 115, 1, 5, 115, 0, 3, 118, 0, 3, 123, 2, 1, 132, 1, 2, 133, 2, 5, 140, 2, 3, 143, 0, 2, 144, 3, 0, 145, 4, 5, 145, 3, 1, 147, 3, 1, 147, 2, 0, 157, 1, 5, 159, 3, 3, 159, 5, 5, 161, 1, 3, 162, 3, 1, 164, 1, 3, 165, 5, 1, 165, 5, 3, 167, 0, 4, 170, 3, 5]);
