n_res = 4;
rc = [ 31, 44, 35, 46 ];
n_tasks = 92;
d = [0, 2, 1, 4, 5, 1, 5, 8, 2, 1, 5, 1, 2, 9, 4, 8, 9, 10, 3, 3, 9, 2, 10, 5, 7, 4, 1, 9, 1, 10, 3, 9, 8, 1, 3, 9, 5, 5, 5, 10, 4, 2, 9, 9, 10, 8, 6, 3, 5, 10, 3, 8, 10, 5, 2, 10, 7, 8, 3, 6, 5, 5, 3, 7, 6, 6, 2, 1, 8, 3, 7, 1, 1, 5, 6, 7, 6, 10, 1, 10, 10, 4, 7, 4, 8, 9, 1, 8, 6, 2, 4, 0];
rr = array2d(1..4, 1..92, [0, 0, 8, 2, 0, 0, 0, 0, 4, 5, 8, 0, 0, 0, 5, 5, 3, 0, 1, 1, 0, 9, 6, 0, 2, 0, 9, 8, 0, 0, 0, 0, 0, 5, 1, 0, 0, 0, 0, 0, 9, 0, 0, 0, 0, 0, 5, 7, 0, 0, 0, 5, 3, 10, 0, 0, 0, 9, 0, 0, 10, 0, 4, 0, 5, 0, 0, 6, 4, 3, 0, 0, 1, 4, 9, 0, 0, 7, 4, 10, 7, 0, 3, 6, 4, 9, 6, 0, 4, 6, 2, 0, 0, 4, 2, 0, 2, 0, 8, 6, 1, 0, 5, 0, 0, 6, 10, 2, 6, 0, 2, 1, 0, 8, 7, 0, 9, 8, 8, 7, 8, 0, 0, 5, 6, 0, 0, 8, 7, 0, 0, 2, 0, 0, 6, 8, 0, 1, 0, 2, 1, 5, 0, 1, 9, 8, 1, 0, 0, 10, 4, 0, 0, 10, 7, 9, 0, 6, 0, 0, 0, 7, 10, 8, 0, 4, 10, 3, 0, 2, 0, 0, 0, 8, 0, 6, 0, 0, 9, 0, 0, 0, 0, 0, 0, 8, 1, 0, 4, 0, 0, 0, 5, 0, 0, 0, 1, 0, 2, 0, 0, 0, 0, 2, 9, 0, 9, 8, 0, 6, 0, 6, 0, 5, 9, 10, 4, 1, 0, 0, 2, 9, 0, 0, 0, 7, 0, 0, 0, 0, 0, 6, 0, 0, 0, 0, 0, 0, 10, 8, 5, 0, 8, 0, 0, 0, 3, 7, 0, 0, 4, 0, 10, 7, 6, 1, 3, 9, 0, 7, 0, 0, 0, 0, 0, 0, 4, 0, 9, 0, 0, 7, 0, 0, 0, 0, 0, 0, 0, 6, 0, 2, 9, 5, 0, 0, 0, 10, 10, 3, 0, 0, 0, 8, 0, 1, 9, 3, 0, 0, 0, 0, 3, 0, 2, 8, 10, 0, 10, 0, 0, 4, 0, 0, 8, 6, 8, 2, 6, 7, 2, 0, 0, 5, 2, 1, 7, 7, 0, 0, 0, 0, 0, 0, 0, 1, 8, 0, 2, 8, 0, 0, 0, 4, 6, 2, 0, 2, 0, 0, 0, 2, 7, 1, 2, 0, 0, 2, 0, 0, 8, 1, 0, 3, 0, 6, 1, 0]);

suc = [
   {2, 3, 4},
   {8, 5, 23},
   {64, 7},
   {24, 27, 6},
   {10, 28, 30},
   {75, 31, 15},
   {17, 11, 13},
   {16, 9, 12},
   {25, 51, 14},
   {57, 27, 12},
   {89, 33, 49},
   {20, 76, 15},
   {32, 29, 21},
   {65, 19, 22},
   {49, 82, 83},
   {40, 63},
   {57, 18, 61},
   {44, 38},
   {28, 47},
   {42, 50, 52},
   {51, 53, 39},
   {26, 58, 55},
   {64},
   {48, 50, 45},
   {34, 74, 39},
   {46, 28, 36},
   {51, 77},
   {66, 61, 62},
   {80, 30},
   {34, 83},
   {37, 54},
   {45, 54, 63},
   {35, 37, 47},
   {36, 37},
   {88, 41, 53},
   {68},
   {66},
   {48, 75, 39},
   {56, 59, 54},
   {48, 71},
   {72, 43, 55},
   {49, 69, 46},
   {44, 60},
   {69},
   {55, 47},
   {56, 61, 86},
   {88, 59, 60},
   {58, 67},
   {87},
   {56, 74, 62},
   {74, 67, 78},
   {65, 66, 53},
   {72},
   {58, 62},
   {57},
   {84, 71},
   {59, 60, 70},
   {82, 70},
   {73, 76, 77},
   {73, 68, 69},
   {84, 63},
   {89},
   {70},
   {81, 65, 68},
   {67, 77, 71},
   {91, 87},
   {73, 82},
   {76, 79},
   {75, 79},
   {78},
   {72, 89},
   {79},
   {80, 86},
   {81, 85, 86},
   {81},
   {78},
   {80},
   {85},
   {90},
   {85},
   {83},
   {84},
   {91},
   {87},
   {91},
   {90},
   {88},
   {90},
   {92},
   {92},
   {92},
   {  } ];

deadline = array2d(1..92, 1..3, [3, 4, 2, 10, 1, 4, 15, 4, 5, 16, 4, 2, 16, 5, 2, 20, 0, 3, 26, 3, 1, 26, 0, 0, 30, 4, 0, 30, 2, 2, 32, 0, 4, 35, 4, 3, 38, 5, 0, 39, 0, 2, 43, 3, 3, 44, 2, 2, 51, 2, 0, 51, 5, 0, 51, 1, 4, 51, 4, 2, 52, 1, 3, 52, 5, 0, 55, 0, 1, 57, 1, 0, 60, 3, 5, 62, 2, 1, 62, 3, 2, 63, 4, 0, 66, 3, 1, 67, 0, 4, 69, 1, 1, 70, 2, 1, 71, 4, 1, 73, 5, 0, 76, 4, 2, 79, 5, 1, 81, 0, 2, 85, 4, 5, 89, 1, 3, 92, 5, 5, 96, 5, 2, 96, 3, 2, 96, 3, 0, 97, 5, 0, 102, 5, 3, 103, 0, 2, 104, 0, 0, 105, 1, 3, 108, 1, 3, 108, 1, 1, 115, 0, 5, 116, 2, 0, 119, 0, 1, 120, 4, 3, 120, 1, 3, 120, 1, 2, 121, 4, 5, 122, 1, 3, 122, 3, 5, 130, 1, 0, 130, 3, 3, 131, 0, 4, 132, 4, 5, 133, 4, 2, 135, 4, 4, 137, 2, 1, 138, 1, 4, 141, 0, 5, 143, 2, 2, 144, 0, 5, 146, 3, 2, 146, 3, 1, 147, 2, 4, 153, 2, 5, 156, 1, 4, 157, 5, 5, 158, 2, 2, 158, 4, 3, 160, 5, 0, 160, 1, 5, 164, 4, 4, 171, 4, 1, 173, 4, 2, 184, 3, 0, 186, 4, 5, 186, 1, 2, 188, 1, 1, 191, 3, 2, 191, 2, 3, 193, 1, 5, 194, 5, 5, 195, 5, 4]);
