n_res = 4;
rc = [ 13, 12, 14, 12 ];
n_tasks = 92;
d = [0, 5, 4, 1, 10, 5, 4, 7, 4, 9, 1, 4, 2, 10, 5, 10, 3, 10, 9, 8, 3, 3, 1, 3, 10, 9, 6, 7, 6, 7, 1, 10, 9, 6, 10, 5, 6, 7, 1, 3, 3, 4, 4, 1, 9, 8, 4, 2, 5, 2, 1, 10, 3, 2, 7, 6, 2, 2, 5, 2, 4, 5, 4, 1, 2, 9, 4, 2, 4, 2, 4, 1, 8, 10, 6, 10, 6, 7, 6, 4, 5, 9, 1, 6, 3, 9, 1, 1, 3, 7, 2, 0];
rr = array2d(1..4, 1..92, [0, 0, 8, 9, 0, 0, 0, 0, 0, 8, 0, 0, 0, 0, 0, 3, 0, 0, 0, 0, 9, 1, 0, 4, 0, 6, 0, 0, 0, 8, 2, 0, 0, 0, 0, 1, 0, 0, 0, 0, 0, 0, 0, 0, 0, 0, 2, 0, 0, 0, 0, 0, 7, 0, 0, 3, 0, 0, 0, 0, 0, 0, 0, 0, 7, 0, 0, 1, 0, 1, 0, 0, 0, 0, 0, 0, 0, 10, 9, 0, 0, 0, 0, 0, 0, 0, 0, 4, 0, 5, 4, 0, 0, 0, 0, 0, 0, 0, 0, 0, 0, 0, 3, 0, 0, 0, 0, 0, 9, 0, 0, 2, 0, 0, 0, 0, 9, 0, 5, 0, 10, 0, 0, 5, 0, 0, 0, 0, 0, 0, 0, 0, 0, 0, 0, 0, 0, 0, 0, 0, 0, 0, 0, 0, 0, 9, 0, 0, 0, 0, 0, 0, 0, 0, 0, 0, 0, 0, 0, 0, 0, 0, 6, 1, 8, 0, 4, 0, 3, 0, 0, 0, 7, 0, 1, 0, 0, 0, 3, 0, 10, 0, 0, 0, 0, 0, 0, 0, 10, 10, 5, 8, 5, 0, 0, 2, 0, 8, 0, 0, 0, 8, 8, 0, 0, 0, 0, 0, 0, 0, 0, 4, 0, 0, 0, 0, 0, 1, 1, 0, 0, 9, 3, 0, 0, 0, 0, 3, 2, 0, 0, 0, 0, 0, 5, 0, 0, 0, 7, 0, 0, 9, 9, 1, 10, 0, 0, 4, 0, 0, 0, 0, 0, 0, 0, 0, 0, 0, 0, 4, 0, 0, 0, 2, 0, 0, 0, 8, 0, 0, 0, 0, 0, 0, 0, 0, 0, 5, 0, 0, 0, 0, 0, 0, 0, 0, 0, 0, 10, 0, 6, 0, 0, 0, 0, 0, 0, 0, 2, 0, 0, 0, 0, 0, 0, 0, 0, 0, 4, 0, 0, 0, 4, 0, 0, 5, 4, 2, 3, 0, 0, 6, 0, 4, 9, 2, 0, 4, 0, 0, 0, 0, 10, 0, 0, 0, 0, 9, 6, 0, 0, 2, 5, 0, 3, 0, 0, 0, 0, 5, 0, 0, 0, 0, 0, 0, 0, 9, 0, 0, 5, 5, 0, 0, 0, 0, 0, 0]);

suc = [
   {2, 3, 4},
   {41, 84, 45},
   {51, 36, 6},
   {18, 43, 5},
   {8, 28, 31},
   {16, 23, 7},
   {40, 12},
   {9, 13, 15},
   {48, 10, 22},
   {19, 11, 14},
   {72, 33, 12},
   {32, 44, 71},
   {24, 20},
   {72, 87, 63},
   {52, 39},
   {17, 25},
   {21},
   {25, 66, 47},
   {25, 38, 47},
   {26, 27, 52},
   {57, 52, 29},
   {59, 38},
   {40, 86, 46},
   {50, 35},
   {26, 35, 63},
   {75, 29},
   {49, 37, 30},
   {48, 61, 45},
   {33, 55},
   {59, 53},
   {34, 44, 54},
   {42, 50, 61},
   {65, 78, 79},
   {36, 77},
   {57, 67, 62},
   {88},
   {73, 75, 45},
   {58, 54},
   {67, 53, 70},
   {64, 49, 80},
   {43, 44, 60},
   {64, 53, 47},
   {89, 57, 50},
   {58, 68, 63},
   {56, 51, 55},
   {48, 77, 54},
   {56, 83, 70},
   {80, 49},
   {72, 65, 68},
   {80},
   {83},
   {59, 76, 55},
   {56, 66, 74},
   {71},
   {60},
   {60},
   {69},
   {64, 61},
   {79, 62, 71},
   {91, 62},
   {66, 86},
   {68, 86},
   {67, 69},
   {65, 83},
   {73, 69, 70},
   {76},
   {75, 78},
   {81},
   {82},
   {81},
   {84},
   {73, 82},
   {90, 76},
   {84, 77},
   {81},
   {85},
   {78, 79},
   {82},
   {89},
   {85},
   {88, 90},
   {91},
   {85, 87},
   {87},
   {91},
   {90},
   {88},
   {89},
   {92},
   {92},
   {92},
   {  } ];

deadline = array2d(1..92, 1..3, [1, 4, 1, 2, 2, 3, 3, 0, 0, 4, 1, 5, 9, 2, 2, 9, 0, 3, 13, 1, 4, 13, 4, 3, 14, 5, 2, 19, 1, 2, 25, 0, 1, 26, 4, 4, 29, 4, 1, 29, 2, 2, 29, 5, 0, 31, 4, 0, 39, 0, 3, 39, 4, 4, 43, 2, 4, 49, 5, 0, 51, 4, 0, 56, 3, 2, 57, 0, 5, 60, 2, 5, 60, 3, 5, 61, 4, 1, 62, 5, 1, 65, 0, 0, 67, 3, 0, 74, 4, 3, 75, 1, 0, 81, 5, 1, 86, 1, 0, 89, 5, 5, 92, 2, 0, 94, 3, 3, 96, 1, 5, 101, 3, 0, 101, 2, 5, 105, 5, 0, 112, 5, 3, 113, 1, 5, 115, 3, 1, 119, 3, 1, 124, 5, 3, 125, 3, 5, 126, 1, 0, 138, 4, 1, 144, 1, 5, 144, 4, 0, 149, 2, 5, 150, 3, 0, 157, 3, 1, 159, 5, 5, 162, 1, 4, 163, 3, 5, 166, 1, 0, 166, 3, 2, 168, 0, 0, 169, 1, 1, 173, 1, 0, 173, 1, 3, 174, 1, 3, 176, 3, 2, 178, 5, 2, 179, 2, 3, 185, 2, 2, 188, 2, 1, 193, 1, 2, 198, 2, 5, 198, 0, 5, 199, 3, 1, 202, 5, 2, 208, 2, 3, 211, 4, 5, 217, 0, 1, 220, 0, 5, 224, 5, 4, 229, 2, 4, 231, 5, 1, 231, 1, 5, 231, 4, 1, 233, 2, 1, 234, 0, 0, 237, 3, 4, 237, 0, 3, 237, 0, 3, 238, 2, 2, 241, 5, 0, 243, 1, 3, 244, 2, 2, 245, 0, 1]);
