n_res = 4;
rc = [ 36, 41, 32, 37 ];
n_tasks = 92;
d = [0, 10, 5, 1, 8, 5, 7, 3, 10, 1, 9, 7, 9, 1, 6, 10, 3, 1, 2, 4, 6, 7, 1, 4, 1, 1, 3, 10, 7, 3, 4, 1, 10, 1, 10, 1, 4, 9, 10, 9, 6, 1, 6, 6, 1, 4, 8, 4, 7, 7, 1, 9, 3, 5, 6, 2, 8, 8, 1, 2, 5, 9, 7, 9, 2, 8, 1, 4, 9, 7, 9, 5, 10, 9, 8, 4, 3, 2, 1, 5, 7, 7, 10, 10, 4, 2, 3, 10, 8, 7, 7, 0];
rr = array2d(1..4, 1..92, [0, 7, 10, 6, 6, 5, 6, 9, 6, 5, 3, 9, 2, 10, 6, 3, 9, 3, 10, 3, 7, 4, 5, 8, 4, 5, 6, 3, 4, 5, 2, 2, 4, 1, 1, 9, 3, 9, 8, 4, 3, 4, 10, 9, 8, 3, 4, 6, 9, 4, 10, 2, 6, 8, 3, 10, 5, 3, 3, 1, 9, 1, 9, 7, 3, 4, 7, 3, 9, 9, 3, 10, 10, 2, 2, 5, 3, 8, 9, 2, 2, 3, 5, 7, 7, 2, 8, 3, 10, 5, 6, 0, 0, 4, 4, 4, 9, 7, 5, 3, 4, 7, 8, 9, 6, 3, 8, 6, 5, 10, 9, 1, 3, 8, 3, 1, 6, 2, 5, 7, 2, 1, 1, 4, 4, 10, 7, 2, 2, 10, 4, 8, 10, 9, 5, 10, 1, 9, 8, 7, 6, 8, 8, 7, 10, 10, 4, 7, 8, 2, 4, 8, 4, 2, 4, 4, 7, 6, 5, 3, 9, 10, 3, 8, 10, 7, 1, 6, 6, 7, 7, 3, 6, 2, 4, 2, 7, 6, 2, 2, 1, 6, 9, 0, 0, 2, 5, 4, 9, 4, 5, 1, 8, 3, 3, 9, 6, 8, 4, 3, 2, 10, 9, 6, 8, 8, 5, 10, 7, 1, 1, 2, 4, 4, 1, 8, 10, 4, 10, 6, 8, 4, 5, 1, 4, 1, 9, 4, 7, 1, 8, 2, 5, 5, 3, 2, 7, 9, 2, 5, 3, 8, 4, 7, 9, 2, 2, 1, 5, 8, 8, 5, 1, 2, 7, 10, 9, 8, 5, 8, 10, 9, 10, 5, 5, 8, 10, 7, 6, 7, 9, 6, 5, 6, 6, 0, 0, 9, 1, 10, 6, 7, 4, 9, 9, 2, 7, 6, 4, 6, 3, 1, 10, 1, 2, 5, 10, 8, 3, 2, 10, 6, 1, 10, 7, 9, 9, 9, 1, 7, 5, 4, 10, 3, 8, 2, 10, 2, 7, 4, 6, 8, 7, 5, 3, 9, 5, 5, 3, 4, 6, 9, 9, 3, 10, 4, 10, 1, 9, 9, 7, 4, 3, 9, 2, 2, 6, 8, 2, 4, 7, 6, 4, 7, 9, 2, 7, 8, 1, 2, 6, 2, 9, 9, 3, 5, 3, 0]);

suc = [
   {2, 3, 4},
   {9, 34, 7},
   {8, 5, 15},
   {18, 11, 6},
   {10, 66, 13},
   {49, 74, 46},
   {57, 35, 52},
   {73, 12, 44},
   {50, 19, 68},
   {43, 21, 23},
   {17, 42, 86},
   {40, 21, 71},
   {24, 14, 22},
   {16, 59, 20},
   {35, 53, 79},
   {26, 43, 44},
   {25, 27, 28},
   {49, 34, 70},
   {82, 47},
   {33, 62},
   {52, 68},
   {44, 46, 39},
   {45, 27, 29},
   {49, 30, 47},
   {33, 35, 45},
   {32, 41, 75},
   {60, 37},
   {33, 29, 57},
   {56, 64, 31},
   {60, 61},
   {40, 67, 38},
   {56, 52, 53},
   {83, 36},
   {57, 43},
   {88, 50, 54},
   {67, 70, 63},
   {56, 72, 64},
   {81, 65, 39},
   {70, 82, 54},
   {50, 61, 46},
   {61},
   {64, 66, 47},
   {58, 53},
   {48, 72},
   {51},
   {65, 87},
   {78},
   {58, 87},
   {51, 55},
   {76},
   {62, 59, 54},
   {90, 84, 63},
   {73, 86, 71},
   {76},
   {58, 59, 62},
   {88, 73},
   {69, 63},
   {60, 86, 71},
   {78},
   {75, 85},
   {65},
   {68, 77, 87},
   {74},
   {80, 67},
   {91, 69},
   {72, 82, 78},
   {69},
   {79},
   {76, 77},
   {74},
   {85},
   {81, 75},
   {84},
   {88},
   {80, 77},
   {84},
   {79},
   {80, 81},
   {90},
   {90},
   {83},
   {83},
   {91},
   {85},
   {89},
   {89},
   {91},
   {89},
   {92},
   {92},
   {92},
   {  } ];

deadline = array2d(1..92, 1..3, [2, 1, 4, 3, 0, 0, 12, 2, 1, 12, 2, 4, 15, 3, 0, 19, 1, 0, 19, 4, 0, 23, 1, 1, 26, 5, 1, 28, 5, 5, 31, 3, 5, 32, 4, 0, 33, 0, 5, 33, 5, 4, 34, 2, 1, 36, 2, 2, 40, 5, 5, 42, 1, 0, 48, 2, 0, 49, 2, 3, 52, 2, 1, 54, 0, 0, 57, 3, 3, 57, 4, 3, 58, 2, 5, 65, 3, 2, 70, 4, 1, 71, 5, 5, 77, 3, 2, 78, 2, 1, 79, 5, 0, 79, 1, 2, 81, 5, 4, 84, 2, 3, 85, 1, 5, 88, 0, 1, 90, 1, 3, 94, 2, 1, 96, 3, 4, 102, 1, 0, 105, 3, 0, 105, 1, 2, 107, 1, 5, 111, 1, 2, 115, 5, 2, 116, 5, 4, 117, 1, 3, 121, 4, 0, 122, 2, 0, 123, 5, 2, 123, 2, 0, 125, 3, 4, 126, 3, 4, 129, 5, 1, 132, 5, 5, 138, 3, 1, 139, 2, 0, 139, 4, 4, 142, 5, 2, 143, 1, 1, 144, 4, 4, 146, 1, 2, 147, 0, 3, 148, 5, 5, 152, 3, 5, 152, 5, 1, 153, 0, 4, 154, 1, 1, 155, 0, 5, 159, 4, 3, 169, 1, 2, 175, 5, 3, 179, 1, 1, 179, 4, 4, 181, 4, 3, 185, 2, 0, 186, 3, 1, 186, 5, 1, 190, 2, 5, 191, 1, 0, 192, 5, 2, 192, 3, 2, 192, 5, 5, 199, 1, 0, 200, 2, 5, 200, 4, 1, 201, 5, 1, 201, 0, 1, 202, 3, 3, 205, 0, 2, 210, 1, 0, 214, 4, 5]);
