n_res = 4;
rc = [ 76, 80, 80, 73 ];
n_tasks = 92;
d = [0, 9, 10, 3, 2, 7, 3, 7, 9, 9, 1, 4, 5, 8, 4, 5, 5, 6, 3, 3, 3, 8, 7, 7, 3, 5, 5, 1, 10, 7, 6, 2, 4, 8, 6, 1, 6, 6, 8, 6, 6, 7, 2, 6, 4, 2, 8, 4, 7, 5, 5, 3, 9, 3, 1, 8, 3, 2, 2, 5, 9, 3, 10, 6, 6, 8, 6, 3, 9, 10, 4, 5, 8, 8, 6, 10, 3, 6, 10, 4, 1, 3, 3, 10, 5, 7, 7, 1, 9, 8, 2, 0];
rr = array2d(1..4, 1..92, [0, 7, 2, 3, 1, 8, 9, 5, 4, 2, 9, 8, 4, 4, 8, 2, 3, 10, 6, 3, 4, 10, 6, 10, 10, 9, 1, 6, 10, 9, 9, 5, 1, 9, 3, 2, 5, 7, 5, 5, 10, 7, 3, 7, 3, 7, 1, 10, 6, 9, 9, 7, 10, 5, 8, 10, 4, 7, 6, 10, 7, 2, 5, 10, 2, 6, 7, 1, 8, 5, 5, 3, 5, 8, 5, 5, 10, 5, 6, 6, 5, 1, 8, 9, 9, 10, 3, 2, 3, 9, 4, 0, 0, 8, 4, 6, 9, 9, 7, 4, 5, 8, 7, 7, 10, 1, 5, 4, 2, 5, 3, 3, 8, 10, 1, 7, 6, 5, 5, 8, 5, 3, 4, 2, 1, 5, 2, 9, 2, 1, 8, 7, 8, 9, 5, 6, 10, 1, 10, 6, 7, 10, 9, 1, 2, 4, 2, 7, 4, 1, 1, 9, 3, 10, 10, 6, 9, 10, 3, 10, 3, 8, 1, 10, 6, 7, 7, 6, 5, 10, 1, 2, 3, 10, 2, 8, 9, 2, 3, 5, 1, 2, 6, 0, 0, 2, 7, 2, 2, 1, 4, 6, 6, 7, 4, 2, 10, 5, 1, 7, 7, 9, 5, 1, 8, 10, 7, 9, 5, 3, 5, 5, 6, 10, 1, 10, 10, 8, 7, 1, 9, 9, 9, 2, 3, 6, 10, 1, 7, 6, 7, 2, 3, 7, 8, 6, 5, 8, 7, 1, 4, 7, 1, 5, 4, 4, 7, 5, 3, 9, 8, 1, 5, 4, 9, 3, 9, 10, 4, 7, 5, 5, 6, 3, 9, 7, 5, 2, 10, 4, 8, 10, 9, 2, 8, 0, 0, 9, 7, 10, 8, 9, 1, 9, 7, 5, 2, 6, 10, 8, 1, 9, 4, 6, 1, 7, 5, 4, 10, 2, 5, 9, 6, 2, 10, 8, 3, 7, 1, 6, 6, 6, 5, 7, 6, 1, 2, 10, 4, 2, 10, 1, 8, 4, 1, 5, 4, 8, 3, 7, 6, 7, 8, 3, 4, 8, 3, 3, 3, 2, 9, 1, 2, 5, 10, 1, 6, 6, 5, 8, 6, 2, 4, 9, 4, 2, 2, 9, 2, 7, 3, 4, 1, 7, 3, 7, 8, 0]);

suc = [
   {2, 3, 4},
   {9, 5, 7},
   {59, 43, 12},
   {33, 69},
   {51, 21, 6},
   {8, 11, 20},
   {10, 29, 15},
   {42, 47, 31},
   {59, 11, 63},
   {38, 19, 22},
   {13, 30},
   {16, 90, 39},
   {28, 53, 14},
   {18, 35, 31},
   {17, 19, 33},
   {76, 37, 23},
   {26, 58, 39},
   {56, 82, 27},
   {24, 57, 45},
   {25, 62, 47},
   {63},
   {41, 59, 76},
   {32, 34, 61},
   {32, 67, 79},
   {32, 41},
   {54, 64, 38},
   {57, 42, 55},
   {40, 36, 77},
   {57, 50, 30},
   {44, 53, 31},
   {62, 58, 38},
   {50, 36},
   {56, 34, 82},
   {48, 42, 36},
   {41, 55},
   {80, 65},
   {48, 70, 46},
   {56, 49, 61},
   {72, 86},
   {64, 50, 47},
   {52},
   {67, 46},
   {66, 78, 55},
   {60, 46, 71},
   {91, 51},
   {65, 85},
   {49},
   {75, 63},
   {80, 83, 68},
   {86},
   {81},
   {64, 61, 87},
   {58, 69},
   {65, 66, 68},
   {60},
   {72, 68},
   {75, 69, 62},
   {81, 66, 76},
   {72, 83, 70},
   {90},
   {67, 71},
   {91},
   {71},
   {73},
   {74},
   {82, 75},
   {88, 73, 74},
   {81},
   {74, 70},
   {77},
   {80, 77},
   {73, 79},
   {78},
   {78},
   {84},
   {83, 84, 86},
   {79},
   {89},
   {84},
   {91},
   {87},
   {89, 87},
   {85},
   {85},
   {88},
   {88},
   {90},
   {89},
   {92},
   {92},
   {92},
   {  } ];

deadline = array2d(1..92, 1..3, [2, 1, 5, 6, 0, 4, 8, 1, 0, 10, 4, 1, 12, 2, 5, 20, 4, 5, 20, 0, 3, 21, 2, 1, 23, 1, 4, 24, 4, 3, 26, 5, 4, 26, 5, 0, 29, 5, 1, 32, 4, 2, 35, 0, 3, 38, 4, 0, 44, 0, 2, 49, 4, 5, 62, 5, 3, 63, 4, 3, 68, 2, 5, 68, 1, 1, 69, 3, 1, 71, 1, 4, 71, 5, 5, 72, 0, 0, 73, 2, 1, 73, 5, 5, 76, 1, 5, 76, 0, 5, 78, 4, 2, 80, 4, 5, 81, 2, 5, 81, 5, 0, 81, 5, 3, 82, 3, 3, 83, 3, 4, 87, 2, 0, 89, 0, 1, 97, 2, 2, 98, 2, 3, 99, 4, 2, 109, 1, 1, 111, 0, 2, 111, 3, 1, 113, 0, 1, 115, 4, 0, 121, 3, 5, 124, 0, 2, 129, 0, 1, 130, 0, 5, 134, 3, 4, 136, 3, 3, 139, 5, 3, 142, 2, 5, 143, 5, 2, 143, 1, 0, 152, 2, 2, 153, 5, 2, 154, 1, 4, 155, 3, 4, 157, 4, 3, 158, 4, 5, 162, 3, 1, 164, 1, 0, 167, 2, 5, 173, 3, 4, 178, 0, 3, 178, 4, 3, 181, 3, 5, 185, 1, 3, 185, 4, 3, 187, 3, 4, 193, 2, 4, 198, 4, 2, 204, 3, 0, 205, 1, 2, 208, 1, 3, 210, 0, 4, 213, 4, 5, 215, 1, 2, 216, 5, 1, 219, 5, 0, 226, 2, 0, 227, 1, 5, 231, 3, 1, 239, 0, 2, 240, 1, 4, 240, 2, 5, 240, 1, 0, 243, 1, 0, 253, 0, 1]);
