n_res = 4;
rc = [ 21, 19, 14, 19 ];
n_tasks = 92;
d = [0, 7, 4, 8, 5, 4, 2, 6, 2, 2, 5, 6, 4, 7, 5, 9, 2, 1, 4, 5, 3, 3, 6, 4, 6, 9, 9, 6, 10, 1, 10, 3, 4, 10, 5, 7, 2, 2, 8, 8, 5, 8, 3, 4, 9, 1, 6, 1, 7, 1, 10, 3, 1, 4, 10, 2, 1, 3, 2, 7, 6, 8, 7, 2, 5, 5, 1, 8, 2, 2, 9, 5, 2, 2, 5, 1, 3, 10, 3, 2, 6, 4, 7, 5, 1, 5, 9, 9, 4, 1, 6, 0];
rr = array2d(1..4, 1..92, [0, 0, 0, 0, 3, 0, 0, 3, 0, 0, 1, 9, 8, 0, 1, 7, 1, 0, 10, 0, 0, 7, 5, 0, 9, 3, 9, 0, 6, 0, 7, 0, 0, 8, 0, 0, 10, 3, 0, 9, 0, 0, 0, 0, 0, 0, 0, 8, 9, 0, 0, 9, 9, 6, 6, 1, 1, 0, 0, 5, 0, 0, 6, 0, 3, 0, 0, 10, 8, 3, 5, 0, 4, 0, 4, 0, 1, 0, 0, 3, 0, 0, 0, 4, 0, 8, 0, 0, 0, 2, 6, 0, 0, 0, 6, 10, 0, 0, 0, 4, 1, 0, 4, 3, 3, 7, 0, 9, 0, 0, 0, 0, 10, 0, 3, 2, 0, 0, 0, 6, 0, 6, 10, 7, 0, 0, 4, 6, 0, 0, 0, 0, 6, 10, 0, 4, 0, 6, 0, 9, 1, 9, 0, 8, 0, 8, 0, 6, 0, 0, 0, 0, 0, 2, 5, 0, 10, 0, 0, 0, 0, 5, 10, 5, 0, 9, 9, 0, 0, 3, 0, 0, 10, 9, 3, 3, 1, 7, 1, 4, 0, 10, 2, 0, 0, 0, 7, 9, 0, 8, 10, 0, 0, 0, 0, 0, 0, 0, 0, 0, 3, 5, 2, 0, 9, 10, 0, 0, 9, 0, 0, 7, 0, 0, 0, 0, 2, 7, 6, 0, 2, 0, 1, 1, 0, 4, 5, 0, 8, 7, 9, 4, 3, 8, 7, 5, 8, 0, 0, 9, 0, 0, 0, 0, 8, 0, 6, 0, 0, 6, 10, 8, 8, 0, 0, 8, 8, 4, 0, 2, 0, 1, 0, 4, 1, 6, 0, 0, 0, 0, 0, 0, 0, 3, 0, 0, 0, 1, 0, 0, 1, 0, 6, 5, 0, 5, 0, 6, 8, 0, 0, 7, 0, 0, 2, 1, 0, 0, 0, 7, 8, 5, 5, 0, 6, 0, 10, 8, 0, 0, 2, 0, 0, 0, 0, 0, 4, 5, 0, 0, 8, 2, 0, 0, 1, 0, 0, 0, 0, 0, 2, 8, 0, 1, 4, 3, 10, 3, 0, 7, 1, 10, 5, 6, 0, 10, 0, 10, 0, 7, 0, 1, 0, 0, 2, 1, 0, 9, 8, 0, 0, 0, 6, 3, 1, 4, 0, 0]);

suc = [
   {2, 3, 4},
   {13, 7},
   {18, 5, 15},
   {9, 44, 41},
   {21, 6, 7},
   {8, 11, 30},
   {24, 17, 14},
   {24, 66, 39},
   {10, 12, 62},
   {17, 18},
   {27, 38},
   {32, 26, 51},
   {16, 35, 19},
   {20, 62},
   {23},
   {48, 22, 55},
   {58, 60},
   {57, 45},
   {82, 36, 37},
   {25, 34, 38},
   {33, 60},
   {53, 29},
   {31},
   {42, 70},
   {49, 28, 39},
   {43, 63},
   {91},
   {50, 51},
   {60},
   {34},
   {33, 76, 54},
   {58, 37},
   {73},
   {81, 63},
   {39},
   {78},
   {38, 47},
   {56, 61},
   {40, 47},
   {41, 46},
   {59, 52, 84},
   {90},
   {81, 68, 85},
   {85, 70},
   {78, 61, 46},
   {73},
   {56, 61},
   {64, 73, 52},
   {83},
   {67},
   {64},
   {69, 54, 63},
   {56, 80, 54},
   {72},
   {64},
   {89},
   {65},
   {72, 74, 84},
   {75, 69},
   {78},
   {71},
   {71},
   {72},
   {89, 66, 76},
   {77},
   {90},
   {87},
   {74, 86, 71},
   {74},
   {75, 77},
   {79},
   {82, 75},
   {81, 79},
   {79},
   {83},
   {82, 84},
   {80, 86, 87},
   {80, 87},
   {88},
   {83},
   {86},
   {91},
   {88},
   {85},
   {90},
   {88},
   {91},
   {89},
   {92},
   {92},
   {92},
   {  } ];

deadline = array2d(1..92, 1..3, [5, 3, 1, 6, 1, 0, 7, 0, 0, 10, 0, 4, 12, 3, 4, 12, 2, 0, 15, 0, 3, 16, 4, 1, 16, 1, 0, 16, 3, 4, 17, 1, 5, 19, 0, 1, 28, 1, 3, 30, 3, 3, 37, 1, 0, 40, 3, 1, 46, 4, 1, 47, 1, 2, 48, 4, 5, 51, 4, 0, 52, 0, 0, 58, 1, 0, 59, 5, 3, 59, 3, 3, 63, 2, 2, 64, 2, 0, 68, 5, 1, 73, 2, 5, 79, 4, 3, 79, 1, 3, 80, 2, 1, 87, 0, 3, 88, 5, 1, 89, 3, 2, 89, 3, 3, 91, 5, 5, 91, 0, 4, 95, 2, 2, 95, 1, 0, 96, 5, 2, 97, 1, 0, 97, 5, 2, 100, 3, 1, 107, 4, 5, 108, 4, 5, 118, 0, 4, 119, 4, 1, 120, 4, 5, 121, 1, 0, 121, 5, 3, 125, 1, 0, 127, 4, 1, 127, 1, 5, 131, 4, 0, 132, 3, 3, 135, 0, 3, 136, 3, 0, 136, 0, 3, 140, 3, 4, 143, 4, 3, 146, 2, 3, 147, 3, 4, 157, 0, 2, 159, 2, 1, 159, 3, 4, 160, 2, 0, 160, 4, 0, 161, 3, 5, 162, 0, 1, 163, 0, 3, 166, 4, 3, 167, 1, 3, 169, 4, 4, 169, 0, 0, 170, 0, 1, 171, 5, 5, 172, 5, 3, 173, 3, 2, 173, 5, 1, 174, 4, 0, 175, 1, 2, 177, 4, 4, 191, 2, 4, 197, 3, 1, 203, 0, 3, 203, 0, 3, 207, 2, 3, 207, 2, 2, 212, 3, 1, 214, 1, 5, 219, 1, 2, 220, 0, 2]);
