n_res = 4;
rc = [ 28, 28, 26, 31 ];
n_tasks = 92;
d = [0, 4, 1, 7, 4, 1, 2, 9, 6, 5, 3, 4, 2, 5, 8, 10, 1, 5, 3, 8, 5, 4, 4, 1, 4, 7, 3, 10, 3, 9, 10, 2, 7, 9, 3, 3, 6, 1, 8, 8, 8, 9, 7, 9, 1, 8, 7, 7, 3, 4, 5, 3, 6, 9, 2, 5, 6, 6, 7, 10, 9, 3, 2, 8, 5, 9, 10, 4, 3, 2, 4, 7, 6, 6, 1, 6, 4, 7, 7, 1, 2, 9, 1, 10, 2, 7, 10, 4, 3, 3, 3, 0];
rr = array2d(1..4, 1..92, [0, 4, 5, 3, 6, 9, 8, 2, 3, 8, 9, 8, 10, 5, 3, 1, 8, 10, 5, 7, 5, 2, 8, 6, 10, 4, 10, 6, 8, 3, 4, 6, 7, 7, 2, 5, 4, 5, 5, 8, 2, 9, 6, 1, 6, 3, 2, 9, 10, 3, 4, 6, 6, 4, 2, 2, 9, 4, 9, 10, 5, 9, 5, 4, 10, 1, 9, 9, 5, 10, 9, 5, 9, 3, 6, 9, 6, 5, 3, 4, 10, 10, 4, 6, 6, 6, 3, 6, 5, 6, 2, 0, 0, 10, 8, 9, 9, 10, 10, 7, 5, 1, 2, 4, 5, 9, 4, 1, 8, 6, 6, 2, 9, 7, 4, 8, 9, 8, 6, 9, 10, 6, 1, 5, 1, 4, 3, 7, 8, 3, 6, 6, 7, 1, 6, 8, 8, 6, 8, 8, 10, 4, 2, 4, 8, 8, 1, 2, 5, 3, 7, 6, 10, 6, 1, 3, 2, 4, 6, 6, 10, 6, 8, 1, 7, 4, 5, 8, 1, 6, 5, 10, 10, 7, 9, 1, 9, 2, 8, 1, 4, 6, 7, 0, 0, 5, 9, 2, 10, 10, 3, 9, 5, 8, 8, 4, 5, 1, 8, 4, 4, 3, 1, 9, 6, 3, 5, 9, 6, 1, 9, 3, 2, 3, 10, 4, 4, 2, 2, 3, 8, 10, 1, 4, 9, 4, 10, 10, 8, 3, 8, 7, 7, 1, 5, 10, 4, 5, 7, 8, 6, 1, 8, 4, 5, 9, 6, 8, 5, 10, 5, 1, 5, 6, 7, 10, 9, 3, 10, 1, 9, 7, 1, 4, 3, 10, 8, 1, 6, 5, 7, 4, 1, 10, 10, 0, 0, 1, 8, 8, 9, 4, 1, 3, 5, 10, 2, 1, 3, 6, 10, 9, 9, 6, 7, 5, 9, 8, 4, 2, 4, 4, 7, 3, 10, 8, 10, 3, 7, 2, 9, 9, 4, 8, 10, 8, 1, 1, 4, 7, 4, 2, 5, 3, 2, 2, 10, 1, 7, 4, 2, 5, 2, 4, 6, 5, 1, 9, 2, 3, 7, 6, 6, 7, 2, 7, 8, 7, 1, 6, 7, 2, 10, 8, 6, 7, 10, 10, 3, 8, 1, 1, 2, 1, 8, 10, 9, 0]);

suc = [
   {2, 3, 4},
   {20},
   {25, 5, 7},
   {8, 17, 11},
   {18, 19, 6},
   {9, 10, 13},
   {66, 35, 12},
   {33, 70, 23},
   {58, 51},
   {46, 36, 22},
   {16, 40},
   {31, 38, 15},
   {14},
   {24, 60},
   {29, 28, 21},
   {49},
   {76},
   {43, 61},
   {80},
   {67, 27},
   {65, 26, 63},
   {56, 34},
   {54},
   {68},
   {32},
   {39},
   {37, 30, 47},
   {41},
   {42},
   {53, 71},
   {32},
   {52},
   {48, 57, 45},
   {44},
   {83, 63},
   {64},
   {42, 82, 69},
   {50, 77, 69},
   {87},
   {55},
   {88, 74},
   {62},
   {44},
   {78},
   {76},
   {80},
   {53},
   {65},
   {91, 84, 62},
   {86},
   {85},
   {81},
   {64},
   {86},
   {61},
   {72},
   {90, 59},
   {72, 75},
   {60},
   {77, 69},
   {89},
   {90},
   {74},
   {70},
   {72},
   {85},
   {79},
   {88, 75},
   {86, 78},
   {73},
   {82},
   {79},
   {74},
   {90, 75},
   {81},
   {77},
   {83},
   {83},
   {85},
   {89},
   {84},
   {88},
   {84},
   {87},
   {91},
   {87},
   {89},
   {91},
   {92},
   {92},
   {92},
   {  } ];

deadline = array2d(1..92, 1..3, [3, 2, 5, 6, 5, 1, 6, 5, 5, 6, 3, 2, 11, 0, 2, 11, 2, 1, 13, 2, 4, 14, 5, 0, 14, 3, 2, 18, 2, 1, 19, 3, 3, 21, 0, 0, 24, 0, 0, 28, 0, 5, 28, 4, 3, 29, 3, 4, 31, 2, 0, 31, 0, 1, 32, 3, 3, 36, 3, 3, 38, 1, 1, 39, 5, 0, 43, 1, 4, 45, 5, 5, 46, 3, 0, 47, 3, 2, 49, 3, 5, 50, 3, 1, 52, 5, 3, 58, 1, 5, 60, 4, 4, 62, 1, 1, 65, 3, 1, 79, 1, 0, 81, 4, 3, 82, 3, 3, 83, 5, 2, 83, 1, 5, 85, 4, 2, 91, 2, 0, 92, 4, 1, 93, 5, 5, 95, 0, 2, 103, 5, 4, 103, 1, 2, 104, 0, 4, 108, 4, 1, 108, 2, 1, 113, 3, 5, 113, 5, 5, 114, 5, 1, 118, 0, 1, 119, 3, 5, 121, 2, 3, 122, 4, 5, 123, 1, 5, 126, 4, 3, 131, 2, 1, 137, 0, 0, 139, 4, 3, 143, 4, 2, 146, 5, 4, 149, 1, 0, 150, 2, 0, 151, 1, 3, 154, 5, 3, 156, 5, 4, 159, 3, 2, 159, 2, 2, 161, 1, 3, 162, 3, 2, 164, 3, 4, 168, 0, 2, 171, 5, 5, 174, 1, 3, 177, 0, 3, 178, 3, 1, 180, 4, 0, 182, 0, 4, 187, 4, 0, 189, 0, 2, 191, 3, 0, 191, 1, 0, 192, 2, 4, 193, 1, 1, 193, 1, 1, 193, 0, 2, 194, 2, 0, 195, 0, 5, 195, 0, 0, 195, 0, 3, 196, 4, 4]);
