n_res = 4;
rc = [ 30, 27, 24, 26 ];
n_tasks = 92;
d = [0, 7, 4, 8, 10, 2, 9, 1, 9, 9, 5, 5, 10, 10, 7, 9, 9, 8, 7, 10, 9, 7, 1, 3, 10, 5, 8, 8, 3, 9, 8, 1, 4, 4, 2, 5, 8, 9, 6, 4, 7, 4, 10, 9, 3, 2, 7, 9, 9, 6, 2, 4, 4, 5, 8, 2, 10, 2, 10, 3, 5, 10, 2, 3, 7, 4, 10, 2, 9, 9, 6, 1, 10, 4, 9, 2, 2, 2, 3, 1, 2, 2, 8, 5, 1, 6, 1, 1, 1, 5, 4, 0];
rr = array2d(1..4, 1..92, [0, 8, 0, 0, 2, 0, 6, 7, 0, 0, 0, 5, 8, 9, 0, 0, 0, 4, 8, 0, 0, 0, 8, 0, 0, 10, 0, 7, 0, 0, 0, 0, 8, 9, 5, 0, 4, 4, 9, 2, 2, 0, 3, 10, 4, 1, 0, 0, 8, 5, 0, 9, 5, 0, 0, 9, 0, 0, 4, 0, 5, 6, 0, 0, 0, 8, 0, 8, 0, 8, 4, 9, 0, 0, 10, 1, 0, 0, 0, 0, 0, 5, 7, 0, 0, 9, 0, 9, 0, 10, 4, 0, 0, 0, 10, 0, 0, 10, 10, 0, 5, 0, 7, 0, 0, 0, 1, 0, 5, 0, 8, 9, 5, 6, 0, 0, 5, 0, 6, 9, 1, 0, 0, 4, 0, 0, 0, 3, 0, 6, 0, 0, 0, 5, 1, 0, 0, 7, 2, 6, 0, 3, 0, 0, 0, 3, 0, 7, 0, 3, 0, 0, 0, 0, 0, 7, 4, 0, 8, 8, 0, 0, 0, 2, 0, 8, 0, 0, 7, 0, 6, 1, 0, 0, 7, 0, 9, 2, 0, 7, 0, 3, 0, 0, 0, 0, 0, 3, 7, 0, 0, 2, 0, 0, 8, 0, 1, 1, 6, 0, 4, 0, 5, 0, 0, 0, 1, 0, 0, 0, 0, 6, 0, 7, 0, 5, 1, 10, 0, 0, 0, 0, 6, 0, 9, 8, 0, 2, 0, 2, 0, 0, 0, 10, 4, 8, 7, 0, 1, 6, 4, 0, 0, 0, 7, 0, 0, 3, 1, 0, 7, 8, 5, 0, 4, 2, 1, 10, 0, 0, 6, 0, 9, 1, 4, 0, 2, 6, 5, 0, 10, 0, 5, 0, 7, 0, 0, 0, 0, 0, 0, 0, 2, 0, 10, 5, 2, 0, 0, 0, 6, 8, 0, 9, 7, 0, 4, 6, 0, 6, 2, 7, 0, 4, 0, 5, 2, 8, 10, 6, 8, 0, 0, 2, 10, 0, 0, 0, 0, 0, 2, 0, 1, 8, 0, 0, 9, 1, 0, 5, 0, 0, 0, 2, 0, 2, 0, 0, 6, 0, 6, 1, 0, 0, 2, 0, 1, 0, 2, 0, 8, 9, 0, 6, 8, 10, 0, 7, 5, 8, 8, 0, 1, 0, 0, 10, 8, 0]);

suc = [
   {2, 3, 4},
   {8, 78, 7},
   {17, 12, 15},
   {16, 13, 5},
   {40, 19, 6},
   {27, 60, 22},
   {33, 11, 14},
   {9, 19, 25},
   {10, 20, 14},
   {34, 30, 55},
   {26, 29, 39},
   {24, 35, 71},
   {49, 26, 62},
   {57, 36, 31},
   {43},
   {18, 19, 45},
   {48, 28, 23},
   {72, 58, 21},
   {48, 49},
   {67, 26, 27},
   {33, 27, 78},
   {64, 73, 59},
   {42, 69, 31},
   {73},
   {41, 51, 44},
   {46, 74, 38},
   {81, 34, 42},
   {32},
   {48, 46, 47},
   {56, 33},
   {50, 43, 47},
   {53, 70, 63},
   {76, 37, 47},
   {50, 83, 90},
   {52},
   {49, 43},
   {40, 52, 39},
   {76, 45, 54},
   {42, 67},
   {66},
   {88, 58, 52},
   {80},
   {72, 66, 53},
   {61, 53, 46},
   {50, 75, 58},
   {75, 70},
   {65, 62},
   {56, 67, 55},
   {61},
   {84},
   {59},
   {82, 85},
   {85, 62, 71},
   {56, 75, 55},
   {89},
   {64, 59},
   {73, 66, 70},
   {65, 77},
   {65, 61},
   {74, 63},
   {72, 68},
   {64, 88},
   {80, 69, 78},
   {79},
   {91, 68, 71},
   {91, 68},
   {74, 85, 69},
   {82},
   {77},
   {88, 76},
   {90, 79},
   {90, 83},
   {87},
   {79},
   {82, 77},
   {81},
   {81},
   {87},
   {80, 84},
   {87},
   {86},
   {83},
   {84},
   {86},
   {86},
   {89},
   {89},
   {91},
   {92},
   {92},
   {92},
   {  } ];

deadline = array2d(1..92, 1..3, [8, 2, 3, 14, 3, 3, 19, 4, 3, 19, 3, 1, 20, 0, 1, 20, 3, 0, 22, 5, 4, 22, 1, 3, 22, 1, 3, 28, 4, 2, 30, 0, 5, 31, 3, 0, 33, 2, 4, 37, 5, 1, 39, 0, 3, 42, 3, 2, 42, 3, 3, 44, 1, 0, 46, 4, 2, 47, 5, 3, 47, 5, 5, 50, 0, 1, 56, 4, 5, 57, 2, 5, 59, 5, 3, 59, 1, 3, 60, 2, 3, 63, 1, 3, 65, 1, 4, 66, 3, 2, 67, 4, 0, 70, 0, 4, 72, 2, 2, 72, 0, 3, 80, 4, 4, 81, 4, 3, 84, 4, 5, 86, 2, 5, 86, 1, 4, 88, 1, 1, 93, 1, 4, 101, 5, 0, 102, 3, 2, 102, 2, 2, 104, 3, 5, 107, 4, 2, 108, 4, 4, 111, 5, 3, 115, 2, 2, 115, 3, 3, 116, 5, 5, 120, 3, 1, 122, 0, 2, 125, 0, 5, 131, 0, 5, 132, 5, 2, 133, 3, 4, 136, 0, 2, 142, 1, 3, 143, 2, 4, 147, 2, 2, 147, 5, 0, 148, 0, 2, 151, 3, 5, 153, 2, 1, 157, 0, 0, 159, 4, 5, 160, 0, 4, 163, 1, 3, 168, 5, 3, 169, 4, 2, 170, 5, 0, 171, 0, 0, 174, 4, 1, 176, 4, 1, 176, 1, 4, 176, 3, 3, 179, 0, 5, 180, 3, 1, 181, 2, 4, 184, 4, 4, 191, 0, 5, 194, 5, 0, 194, 2, 0, 196, 0, 3, 196, 4, 4, 201, 4, 4, 204, 5, 1, 208, 4, 0, 211, 0, 0, 212, 4, 1, 222, 2, 0]);
