n_res = 4;
rc = [ 16, 26, 31, 25 ];
n_tasks = 92;
d = [0, 6, 3, 3, 4, 7, 5, 6, 1, 3, 3, 9, 6, 3, 3, 5, 6, 6, 10, 5, 6, 6, 5, 5, 8, 6, 9, 2, 4, 1, 7, 10, 1, 1, 1, 2, 1, 2, 8, 4, 9, 9, 2, 5, 1, 8, 6, 9, 4, 8, 9, 10, 6, 1, 1, 3, 6, 1, 2, 5, 3, 3, 3, 4, 1, 9, 9, 10, 6, 8, 1, 10, 9, 9, 2, 3, 1, 7, 4, 9, 1, 9, 2, 2, 3, 6, 3, 2, 2, 10, 4, 0];
rr = array2d(1..4, 1..92, [0, 5, 0, 0, 0, 0, 0, 0, 0, 0, 0, 0, 0, 0, 0, 0, 0, 6, 0, 0, 0, 0, 0, 0, 0, 8, 0, 0, 0, 0, 0, 0, 0, 0, 6, 0, 0, 0, 0, 0, 0, 0, 0, 0, 0, 1, 0, 1, 0, 0, 0, 0, 6, 0, 0, 4, 2, 0, 0, 0, 0, 4, 0, 0, 0, 5, 5, 0, 0, 0, 0, 0, 0, 0, 0, 0, 0, 0, 0, 0, 0, 0, 0, 0, 0, 0, 2, 0, 0, 8, 0, 0, 0, 0, 0, 0, 8, 0, 8, 1, 10, 4, 0, 0, 7, 0, 0, 7, 0, 0, 2, 0, 3, 0, 0, 0, 0, 0, 10, 0, 0, 0, 0, 0, 0, 0, 0, 0, 8, 2, 0, 3, 0, 0, 0, 3, 8, 0, 0, 0, 9, 0, 0, 4, 0, 0, 5, 0, 0, 0, 0, 0, 0, 0, 0, 0, 0, 0, 0, 0, 0, 7, 0, 0, 9, 0, 0, 0, 0, 0, 0, 0, 0, 0, 0, 2, 7, 0, 0, 0, 1, 0, 0, 0, 0, 0, 0, 0, 0, 4, 0, 0, 0, 0, 6, 0, 0, 0, 4, 0, 0, 0, 0, 0, 0, 0, 0, 0, 2, 0, 0, 6, 0, 0, 0, 0, 2, 0, 0, 5, 0, 0, 0, 0, 0, 2, 0, 0, 0, 0, 0, 0, 0, 0, 0, 0, 0, 8, 0, 0, 0, 4, 0, 3, 9, 0, 7, 9, 4, 0, 0, 0, 4, 0, 3, 8, 0, 0, 9, 0, 0, 0, 0, 0, 1, 3, 3, 0, 0, 0, 0, 4, 0, 0, 7, 0, 0, 0, 1, 7, 0, 0, 0, 0, 0, 0, 0, 3, 0, 10, 0, 0, 9, 0, 0, 10, 0, 3, 4, 9, 0, 0, 0, 0, 8, 8, 8, 7, 0, 7, 0, 0, 0, 0, 4, 0, 5, 0, 8, 0, 0, 0, 2, 0, 0, 9, 3, 0, 0, 0, 0, 0, 0, 0, 10, 0, 0, 0, 0, 0, 0, 0, 0, 10, 0, 0, 0, 0, 0, 5, 0, 10, 8, 9, 8, 5, 0, 0, 0, 0, 0, 5, 0, 0, 0, 0, 0, 0]);

suc = [
   {2, 3, 4},
   {35, 11, 21},
   {9, 13},
   {5, 6, 7},
   {50, 22, 30},
   {32},
   {8},
   {25, 10, 12},
   {23, 14, 15},
   {44, 37, 63},
   {80, 81},
   {16, 24},
   {26, 27, 29},
   {43},
   {40, 18},
   {17, 19, 41},
   {48, 62, 71},
   {33, 36, 47},
   {20, 28},
   {31},
   {56},
   {62},
   {57, 42},
   {35},
   {74},
   {72},
   {60, 38},
   {34, 51, 39},
   {49},
   {90},
   {33},
   {55},
   {38},
   {53},
   {52},
   {67, 45},
   {41},
   {67, 69},
   {46},
   {67},
   {83},
   {49},
   {82, 75},
   {65, 53},
   {84},
   {78},
   {64, 77},
   {53},
   {54},
   {59, 85},
   {59},
   {63},
   {69},
   {88},
   {61},
   {65},
   {58, 69},
   {87, 79},
   {90, 63},
   {76, 71},
   {73, 68},
   {78, 70},
   {65},
   {66},
   {66, 77},
   {75},
   {88},
   {84},
   {87},
   {91, 76},
   {84},
   {77},
   {83},
   {79},
   {78},
   {87},
   {88, 79},
   {86},
   {86},
   {82},
   {91},
   {83},
   {86},
   {85},
   {91},
   {89},
   {89, 90},
   {89},
   {92},
   {92},
   {92},
   {  } ];

deadline = array2d(1..92, 1..3, [1, 0, 0, 1, 2, 4, 7, 5, 4, 12, 0, 4, 18, 5, 5, 18, 1, 1, 20, 1, 3, 23, 5, 2, 25, 3, 1, 25, 5, 1, 25, 4, 4, 26, 5, 0, 26, 1, 2, 29, 1, 5, 30, 4, 2, 32, 1, 1, 32, 4, 2, 33, 3, 0, 38, 5, 0, 40, 1, 3, 41, 3, 3, 43, 4, 4, 49, 2, 0, 49, 0, 4, 49, 0, 2, 53, 2, 5, 56, 1, 5, 60, 1, 0, 60, 1, 5, 61, 4, 0, 62, 4, 2, 64, 0, 3, 65, 5, 5, 67, 3, 1, 67, 5, 1, 71, 1, 5, 75, 2, 1, 76, 2, 3, 78, 4, 0, 80, 4, 3, 83, 1, 4, 86, 1, 0, 87, 3, 1, 89, 1, 3, 91, 2, 4, 95, 0, 0, 102, 3, 4, 103, 4, 2, 104, 2, 1, 105, 2, 3, 106, 3, 4, 110, 2, 2, 111, 5, 4, 113, 5, 3, 113, 2, 4, 114, 5, 5, 115, 5, 4, 116, 4, 1, 118, 4, 1, 119, 5, 2, 121, 4, 0, 131, 1, 2, 133, 3, 5, 135, 4, 5, 137, 4, 5, 138, 1, 1, 141, 4, 2, 141, 5, 2, 142, 2, 4, 143, 0, 3, 148, 1, 4, 151, 1, 1, 152, 4, 4, 154, 0, 1, 157, 2, 1, 162, 5, 4, 170, 5, 5, 172, 0, 2, 175, 5, 3, 176, 3, 2, 177, 1, 0, 177, 3, 0, 178, 5, 1, 178, 4, 2, 183, 3, 5, 184, 5, 5, 185, 4, 3, 188, 1, 4, 191, 4, 2, 194, 1, 1, 196, 0, 4, 200, 2, 1]);
