n_res = 4;
rc = [ 41, 32, 43, 37 ];
n_tasks = 92;
d = [0, 2, 1, 7, 5, 7, 2, 8, 9, 10, 3, 8, 1, 4, 5, 2, 1, 6, 7, 2, 9, 7, 2, 10, 5, 6, 5, 7, 8, 5, 9, 2, 2, 5, 5, 1, 4, 6, 3, 1, 7, 5, 3, 4, 8, 3, 3, 3, 7, 10, 3, 5, 2, 4, 2, 2, 1, 7, 8, 3, 3, 3, 4, 4, 9, 7, 9, 5, 4, 9, 6, 8, 10, 9, 3, 4, 4, 5, 10, 8, 2, 1, 5, 8, 2, 10, 7, 3, 7, 10, 4, 0];
rr = array2d(1..4, 1..92, [0, 0, 3, 7, 6, 0, 0, 0, 0, 4, 4, 9, 0, 6, 9, 10, 3, 3, 0, 0, 0, 0, 8, 0, 9, 5, 5, 0, 0, 10, 0, 0, 10, 0, 9, 3, 0, 0, 4, 2, 0, 7, 1, 4, 9, 2, 0, 4, 9, 8, 0, 3, 0, 0, 4, 7, 1, 1, 0, 5, 10, 0, 9, 0, 0, 7, 0, 9, 7, 0, 6, 0, 0, 0, 0, 6, 6, 0, 0, 6, 0, 3, 1, 0, 0, 1, 9, 7, 0, 8, 0, 0, 0, 0, 0, 0, 0, 0, 0, 0, 2, 0, 0, 0, 6, 0, 8, 2, 7, 0, 0, 4, 0, 7, 7, 6, 0, 0, 5, 3, 0, 4, 9, 8, 0, 1, 0, 9, 9, 9, 0, 3, 1, 0, 8, 0, 0, 0, 2, 2, 0, 0, 6, 0, 0, 0, 10, 0, 8, 5, 6, 0, 0, 4, 0, 3, 7, 9, 6, 0, 0, 5, 8, 9, 9, 6, 0, 0, 3, 0, 2, 0, 9, 3, 3, 7, 0, 0, 0, 0, 10, 8, 0, 0, 0, 0, 0, 0, 0, 9, 8, 0, 0, 0, 6, 0, 0, 2, 0, 8, 0, 0, 9, 5, 7, 0, 5, 0, 0, 3, 6, 7, 2, 0, 6, 1, 7, 4, 0, 4, 6, 6, 0, 1, 0, 7, 0, 10, 0, 0, 0, 10, 6, 0, 0, 3, 0, 9, 0, 9, 10, 0, 0, 8, 0, 0, 2, 0, 0, 0, 2, 7, 4, 2, 0, 10, 0, 0, 7, 8, 1, 0, 7, 0, 9, 3, 0, 0, 6, 5, 2, 0, 0, 0, 4, 0, 0, 5, 9, 0, 4, 10, 7, 8, 0, 9, 0, 0, 0, 3, 0, 0, 0, 8, 0, 10, 0, 10, 0, 3, 0, 0, 0, 8, 4, 0, 3, 10, 3, 0, 9, 0, 0, 0, 0, 8, 0, 6, 0, 9, 0, 0, 3, 0, 5, 0, 0, 0, 3, 7, 0, 0, 0, 0, 0, 1, 5, 0, 0, 9, 0, 4, 0, 5, 0, 0, 0, 1, 0, 3, 0, 0, 2, 2, 0, 1, 0, 0, 1, 0, 0, 4, 0, 8, 0, 2, 0, 0]);

suc = [
   {2, 3, 4},
   {11, 5, 31},
   {57, 14, 15},
   {8, 19, 6},
   {16, 9, 7},
   {50, 29},
   {25},
   {30},
   {10, 53, 22},
   {34},
   {73, 12, 13},
   {47},
   {39},
   {26, 20, 21},
   {23},
   {40, 17, 18},
   {34, 27, 45},
   {24, 49},
   {44},
   {32, 41, 62},
   {48, 43, 36},
   {33, 42, 52},
   {66, 37},
   {57},
   {74, 60},
   {58, 28},
   {82},
   {35},
   {43},
   {81, 35},
   {88, 68, 70},
   {82},
   {55},
   {38},
   {84, 53},
   {67, 71},
   {46},
   {56, 64},
   {80},
   {90},
   {89},
   {54},
   {63},
   {65},
   {73},
   {72},
   {49},
   {71},
   {72, 51, 61},
   {52},
   {79},
   {68},
   {74, 90},
   {81, 83},
   {89, 69},
   {61},
   {63},
   {59},
   {66},
   {76},
   {63},
   {80, 75},
   {81},
   {65},
   {79},
   {71},
   {85},
   {75},
   {78},
   {75, 77},
   {73},
   {78},
   {80, 77},
   {88},
   {82},
   {91, 86},
   {87},
   {79},
   {84},
   {87},
   {86},
   {83, 84},
   {85},
   {87},
   {90},
   {88},
   {91},
   {89},
   {92},
   {92},
   {92},
   {  } ];

deadline = array2d(1..92, 1..3, [3, 4, 1, 12, 5, 2, 13, 5, 2, 14, 4, 2, 14, 4, 0, 16, 0, 4, 18, 0, 2, 20, 1, 2, 20, 3, 4, 28, 1, 0, 28, 3, 4, 28, 4, 2, 29, 5, 3, 29, 4, 2, 29, 1, 5, 30, 5, 1, 32, 1, 3, 32, 4, 3, 36, 5, 4, 38, 3, 4, 39, 2, 4, 40, 5, 1, 53, 5, 0, 59, 3, 2, 61, 4, 2, 65, 2, 2, 68, 3, 0, 70, 2, 2, 72, 2, 3, 74, 1, 1, 78, 3, 4, 78, 4, 2, 84, 1, 4, 84, 3, 1, 85, 3, 2, 88, 1, 3, 89, 4, 4, 89, 4, 4, 91, 2, 3, 94, 0, 3, 96, 1, 3, 97, 0, 2, 99, 0, 0, 104, 2, 1, 108, 0, 0, 108, 4, 0, 109, 3, 4, 116, 3, 3, 117, 4, 0, 118, 3, 4, 120, 1, 5, 124, 2, 3, 130, 4, 1, 132, 3, 2, 132, 5, 4, 133, 0, 2, 134, 1, 1, 136, 0, 4, 139, 3, 1, 142, 2, 1, 148, 1, 3, 152, 0, 2, 154, 2, 5, 155, 4, 0, 158, 2, 4, 158, 3, 5, 159, 0, 3, 161, 4, 4, 161, 5, 3, 167, 0, 2, 167, 1, 1, 170, 2, 0, 170, 0, 1, 174, 5, 3, 176, 0, 2, 179, 5, 3, 181, 0, 0, 181, 0, 0, 183, 3, 0, 183, 1, 0, 185, 2, 1, 187, 2, 3, 187, 2, 4, 187, 5, 5, 189, 2, 0, 190, 5, 5, 193, 3, 3, 194, 4, 1, 196, 1, 3, 196, 5, 0, 196, 1, 0, 197, 3, 4]);
