n_res = 4;
rc = [ 47, 61, 54, 51 ];
n_tasks = 92;
d = [0, 3, 5, 9, 10, 10, 8, 3, 1, 4, 3, 6, 4, 5, 3, 10, 8, 9, 1, 6, 9, 3, 9, 7, 4, 9, 2, 3, 4, 10, 4, 4, 4, 9, 6, 6, 2, 3, 6, 2, 8, 8, 1, 7, 7, 7, 7, 3, 4, 2, 8, 8, 1, 10, 9, 9, 1, 2, 2, 5, 9, 1, 8, 8, 6, 5, 8, 3, 3, 1, 1, 5, 2, 4, 3, 9, 7, 8, 10, 1, 10, 10, 2, 2, 3, 1, 10, 5, 8, 6, 2, 0];
rr = array2d(1..4, 1..92, [0, 1, 4, 9, 1, 3, 1, 9, 4, 6, 5, 3, 7, 3, 6, 10, 7, 4, 9, 10, 6, 4, 8, 10, 8, 2, 4, 9, 10, 5, 3, 1, 8, 3, 1, 4, 9, 4, 3, 2, 4, 1, 10, 1, 1, 4, 1, 3, 9, 5, 2, 2, 3, 5, 5, 6, 7, 1, 7, 1, 2, 5, 5, 10, 1, 8, 2, 10, 10, 9, 5, 6, 5, 1, 3, 1, 3, 7, 2, 1, 6, 6, 10, 5, 3, 6, 5, 5, 2, 1, 2, 0, 0, 8, 7, 7, 10, 10, 6, 2, 8, 1, 3, 5, 2, 10, 3, 1, 3, 9, 4, 6, 1, 2, 5, 2, 4, 4, 3, 4, 10, 9, 2, 6, 9, 6, 9, 7, 2, 10, 10, 5, 8, 10, 9, 1, 4, 9, 9, 1, 1, 7, 8, 1, 9, 5, 5, 3, 1, 7, 10, 3, 1, 10, 9, 1, 6, 6, 2, 2, 3, 7, 7, 10, 1, 5, 2, 9, 6, 1, 5, 10, 5, 2, 1, 7, 9, 9, 3, 5, 1, 6, 5, 0, 0, 1, 3, 2, 6, 8, 9, 6, 5, 6, 7, 4, 6, 3, 10, 4, 3, 10, 2, 9, 8, 8, 1, 7, 1, 3, 8, 7, 9, 4, 2, 1, 2, 9, 2, 5, 5, 5, 6, 3, 5, 7, 6, 9, 1, 7, 3, 5, 6, 4, 10, 3, 4, 8, 5, 9, 7, 2, 3, 6, 4, 9, 7, 6, 1, 4, 5, 6, 3, 6, 7, 3, 9, 10, 9, 1, 2, 6, 2, 3, 4, 6, 7, 7, 1, 1, 1, 7, 5, 7, 3, 0, 0, 7, 8, 4, 5, 4, 8, 4, 6, 4, 5, 7, 4, 6, 9, 1, 10, 3, 3, 2, 2, 5, 8, 1, 2, 4, 1, 3, 3, 8, 10, 7, 6, 1, 4, 4, 8, 1, 4, 8, 9, 4, 10, 1, 8, 4, 1, 6, 5, 7, 2, 4, 8, 10, 10, 7, 5, 2, 7, 10, 8, 8, 9, 4, 10, 10, 6, 5, 9, 8, 2, 1, 7, 10, 7, 9, 9, 10, 10, 10, 7, 5, 6, 6, 1, 7, 3, 9, 4, 4, 3, 0]);

suc = [
   {2, 3, 4},
   {8, 19, 13},
   {65, 10, 6},
   {9, 21, 5},
   {34, 12, 7},
   {25, 14, 47},
   {38, 37, 22},
   {32, 42, 50},
   {24, 11, 23},
   {48, 26, 84},
   {40, 52},
   {16},
   {64, 62, 15},
   {22},
   {17, 18},
   {60},
   {49, 20, 45},
   {57},
   {47},
   {56, 27, 39},
   {56, 28, 46},
   {43, 30, 63},
   {29, 78},
   {41, 35, 31},
   {26, 51},
   {69},
   {63},
   {40, 51, 68},
   {91},
   {60, 31},
   {33, 36, 46},
   {61, 71},
   {57, 44, 54},
   {43},
   {74, 85},
   {73, 58},
   {65, 43},
   {64, 46},
   {53},
   {69},
   {91},
   {56, 83},
   {74, 87},
   {58},
   {81, 66, 67},
   {66},
   {72},
   {82},
   {75, 59},
   {68},
   {60, 86, 55},
   {58, 71},
   {72, 70},
   {78},
   {77},
   {70},
   {67, 71},
   {64, 75},
   {79},
   {74},
   {66, 76, 63},
   {88},
   {82, 70},
   {78},
   {75, 67},
   {80, 85},
   {68},
   {72, 73, 69},
   {80},
   {90},
   {76, 79},
   {77, 86},
   {84, 77},
   {89},
   {81, 82, 76},
   {80, 84},
   {83, 79},
   {81},
   {88, 91},
   {83},
   {87},
   {85},
   {87},
   {90, 86},
   {90},
   {89},
   {88},
   {89},
   {92},
   {92},
   {92},
   {  } ];

deadline = array2d(1..92, 1..3, [2, 0, 1, 5, 1, 5, 9, 1, 3, 10, 4, 0, 11, 3, 1, 12, 0, 3, 12, 0, 1, 17, 4, 4, 18, 3, 0, 18, 2, 2, 21, 4, 4, 23, 4, 2, 24, 3, 3, 27, 5, 0, 31, 3, 0, 32, 4, 0, 33, 0, 4, 39, 0, 5, 42, 1, 1, 44, 2, 2, 44, 5, 0, 47, 4, 1, 49, 4, 4, 51, 0, 0, 56, 3, 3, 57, 5, 4, 59, 5, 0, 60, 1, 4, 60, 3, 2, 62, 3, 0, 70, 3, 2, 76, 2, 4, 77, 2, 4, 80, 5, 2, 82, 5, 1, 94, 4, 0, 97, 4, 2, 103, 2, 5, 108, 5, 1, 108, 4, 5, 112, 2, 5, 114, 4, 1, 115, 4, 0, 115, 2, 4, 118, 4, 1, 126, 0, 3, 126, 0, 5, 128, 2, 2, 131, 3, 5, 135, 1, 4, 137, 1, 3, 141, 2, 3, 141, 2, 1, 142, 4, 3, 145, 5, 3, 147, 3, 2, 152, 4, 1, 155, 2, 3, 156, 1, 1, 159, 5, 3, 160, 5, 4, 165, 1, 0, 171, 4, 0, 179, 0, 0, 186, 4, 1, 193, 0, 1, 194, 0, 2, 202, 2, 5, 203, 4, 1, 204, 1, 2, 207, 5, 4, 215, 4, 0, 221, 0, 1, 222, 1, 3, 224, 4, 3, 225, 3, 1, 225, 2, 4, 228, 1, 2, 235, 4, 5, 235, 3, 4, 240, 3, 2, 241, 5, 0, 242, 1, 0, 243, 2, 2, 243, 0, 2, 243, 0, 4, 244, 4, 3, 246, 5, 0, 254, 5, 3, 256, 4, 3, 258, 0, 2, 262, 2, 4]);
