n_res = 4;
rc = [ 22, 23, 21, 23 ];
n_tasks = 92;
d = [0, 9, 7, 8, 8, 8, 10, 3, 10, 10, 10, 8, 2, 10, 3, 1, 6, 9, 9, 1, 9, 7, 3, 9, 8, 2, 3, 10, 1, 9, 8, 1, 3, 3, 5, 5, 10, 2, 2, 9, 2, 7, 5, 1, 2, 3, 3, 3, 4, 1, 2, 3, 5, 2, 10, 9, 9, 10, 4, 1, 9, 5, 9, 4, 8, 4, 3, 1, 6, 7, 9, 2, 9, 1, 4, 7, 2, 7, 7, 7, 1, 4, 10, 6, 5, 9, 3, 6, 10, 9, 1, 0];
rr = array2d(1..4, 1..92, [0, 10, 4, 3, 8, 7, 5, 1, 2, 7, 4, 3, 7, 9, 1, 10, 3, 2, 9, 1, 8, 3, 2, 1, 4, 6, 10, 8, 10, 10, 5, 6, 7, 2, 3, 5, 6, 4, 7, 6, 3, 1, 4, 3, 6, 7, 7, 10, 8, 1, 8, 5, 5, 2, 6, 5, 1, 2, 6, 5, 3, 3, 4, 1, 2, 3, 10, 9, 5, 8, 9, 6, 3, 3, 5, 1, 10, 3, 4, 1, 4, 8, 10, 3, 3, 4, 6, 8, 6, 3, 4, 0, 0, 1, 2, 5, 4, 4, 8, 4, 8, 3, 9, 3, 8, 9, 10, 10, 10, 7, 5, 6, 1, 8, 9, 2, 4, 2, 10, 4, 7, 5, 6, 8, 2, 3, 8, 4, 3, 8, 4, 1, 4, 4, 7, 2, 10, 2, 1, 4, 1, 10, 3, 6, 1, 5, 2, 5, 7, 2, 6, 9, 5, 6, 10, 4, 3, 5, 6, 2, 8, 8, 8, 4, 4, 4, 1, 10, 6, 3, 6, 3, 9, 10, 2, 8, 1, 1, 2, 5, 4, 7, 4, 0, 0, 4, 3, 10, 6, 3, 9, 9, 7, 3, 3, 8, 9, 7, 5, 5, 10, 1, 9, 1, 2, 1, 7, 1, 9, 4, 8, 7, 6, 9, 5, 10, 7, 4, 10, 4, 3, 10, 2, 3, 2, 5, 8, 9, 4, 1, 9, 5, 7, 2, 4, 2, 1, 2, 10, 2, 10, 4, 10, 10, 1, 5, 8, 1, 7, 8, 4, 4, 10, 8, 8, 5, 9, 8, 1, 9, 1, 7, 8, 5, 2, 5, 4, 7, 6, 8, 6, 9, 2, 5, 7, 0, 0, 2, 9, 6, 3, 4, 2, 2, 6, 1, 7, 1, 6, 1, 4, 10, 7, 3, 1, 8, 6, 3, 3, 1, 4, 5, 7, 4, 5, 9, 6, 8, 2, 10, 7, 6, 4, 6, 3, 8, 2, 4, 6, 3, 7, 1, 10, 10, 2, 2, 10, 6, 3, 3, 3, 6, 4, 7, 7, 8, 9, 6, 9, 9, 3, 2, 9, 4, 6, 1, 3, 5, 7, 3, 6, 1, 7, 1, 9, 1, 1, 1, 3, 4, 8, 4, 5, 8, 9, 6, 3, 0]);

suc = [
   {2, 3, 4},
   {9, 12, 6},
   {65, 5, 15},
   {8, 42, 7},
   {24, 75, 67},
   {61, 45, 13},
   {10, 27, 14},
   {26, 31},
   {24, 18, 11},
   {58, 21, 31},
   {32, 28, 30},
   {64, 19, 47},
   {16, 65, 20},
   {48, 21, 39},
   {60},
   {17, 29, 22},
   {74, 53},
   {48, 61},
   {25, 59},
   {37},
   {34, 43},
   {36, 76, 23},
   {40, 55, 31},
   {60, 69, 55},
   {89, 73, 62},
   {33, 38, 47},
   {59, 34, 35},
   {88, 85, 45},
   {48, 44, 30},
   {72, 41, 53},
   {46},
   {52},
   {49, 37, 39},
   {41, 66, 75},
   {49, 57},
   {40, 52, 47},
   {66, 43},
   {58, 39},
   {64, 50, 63},
   {56, 62, 87},
   {56},
   {58, 68, 61},
   {44, 46, 52},
   {64, 50},
   {57, 54, 63},
   {72, 69, 78},
   {49, 54},
   {82, 60, 71},
   {62, 79},
   {67, 51, 53},
   {76, 55},
   {56, 68, 70},
   {59, 54, 71},
   {91},
   {73, 57, 68},
   {82},
   {86},
   {75, 67},
   {84},
   {66},
   {78, 70},
   {90, 63},
   {69},
   {73, 74},
   {70},
   {77, 79},
   {71},
   {72, 77, 79},
   {82},
   {89, 74},
   {83, 76},
   {80, 85},
   {80, 87},
   {80},
   {78},
   {77},
   {81, 84, 85},
   {81, 83},
   {83, 87},
   {81, 84},
   {88},
   {91},
   {86},
   {88},
   {86},
   {89, 90},
   {91},
   {90},
   {92},
   {92},
   {92},
   {  } ];

deadline = array2d(1..92, 1..3, [1, 5, 3, 1, 0, 0, 2, 2, 2, 2, 2, 0, 5, 1, 2, 9, 4, 2, 13, 5, 3, 15, 5, 5, 19, 1, 3, 19, 1, 2, 23, 4, 0, 23, 3, 5, 32, 1, 0, 34, 0, 3, 37, 0, 0, 39, 3, 5, 40, 0, 4, 42, 5, 3, 48, 0, 5, 49, 3, 1, 53, 1, 5, 54, 2, 1, 54, 5, 1, 57, 0, 0, 58, 1, 3, 61, 1, 1, 61, 2, 1, 64, 0, 2, 68, 1, 2, 72, 0, 4, 73, 5, 2, 76, 4, 5, 78, 4, 1, 78, 2, 4, 81, 4, 1, 84, 5, 3, 88, 1, 4, 89, 1, 5, 90, 4, 5, 92, 0, 0, 98, 4, 4, 100, 5, 1, 101, 2, 5, 106, 3, 1, 111, 2, 3, 117, 1, 5, 120, 0, 4, 123, 3, 5, 128, 2, 5, 129, 3, 0, 133, 4, 1, 135, 1, 2, 136, 1, 2, 142, 5, 3, 150, 3, 2, 151, 3, 5, 152, 2, 0, 155, 1, 4, 156, 2, 2, 158, 5, 2, 158, 2, 3, 161, 0, 5, 161, 0, 5, 162, 1, 5, 166, 4, 3, 166, 1, 5, 170, 2, 0, 174, 0, 4, 179, 4, 0, 181, 4, 4, 182, 5, 2, 185, 0, 3, 186, 1, 3, 187, 2, 0, 192, 0, 3, 194, 3, 2, 195, 1, 5, 196, 3, 4, 198, 5, 1, 199, 0, 4, 201, 0, 0, 204, 4, 3, 206, 4, 3, 207, 3, 1, 210, 2, 4, 212, 1, 3, 214, 3, 0, 216, 1, 4, 219, 0, 1, 220, 1, 4, 224, 0, 2, 225, 1, 5]);
