n_res = 4;
rc = [ 30, 21, 16, 24 ];
n_tasks = 92;
d = [0, 3, 7, 9, 7, 9, 8, 2, 9, 8, 7, 5, 3, 8, 4, 4, 3, 9, 9, 6, 10, 9, 4, 2, 7, 6, 1, 7, 6, 1, 10, 3, 6, 1, 6, 3, 4, 10, 2, 3, 3, 6, 1, 8, 10, 3, 8, 1, 4, 2, 3, 6, 7, 9, 5, 5, 9, 4, 6, 3, 8, 8, 7, 1, 1, 2, 6, 6, 4, 8, 8, 9, 10, 10, 6, 8, 3, 8, 4, 8, 2, 9, 8, 4, 10, 7, 7, 2, 3, 9, 3, 0];
rr = array2d(1..4, 1..92, [0, 0, 0, 8, 0, 0, 0, 3, 0, 0, 0, 0, 0, 0, 0, 9, 5, 10, 0, 5, 0, 0, 3, 0, 0, 0, 0, 9, 0, 0, 0, 9, 9, 2, 9, 8, 3, 0, 0, 0, 0, 0, 0, 0, 0, 0, 0, 0, 0, 0, 0, 0, 0, 0, 0, 0, 7, 0, 1, 0, 5, 1, 0, 0, 0, 0, 7, 0, 0, 0, 9, 0, 0, 0, 0, 6, 0, 0, 5, 0, 0, 0, 6, 0, 0, 3, 9, 0, 8, 0, 4, 0, 0, 0, 0, 0, 0, 0, 3, 0, 9, 0, 0, 0, 5, 0, 0, 0, 0, 0, 0, 0, 0, 0, 0, 0, 0, 0, 0, 0, 8, 4, 0, 0, 0, 0, 0, 0, 0, 0, 4, 0, 0, 0, 0, 0, 7, 0, 10, 0, 0, 0, 0, 0, 0, 0, 0, 5, 0, 0, 0, 0, 0, 0, 0, 0, 0, 6, 0, 0, 2, 7, 0, 0, 0, 0, 3, 0, 0, 0, 0, 0, 0, 5, 0, 3, 0, 0, 0, 0, 0, 0, 0, 0, 0, 0, 1, 0, 0, 7, 0, 0, 0, 2, 7, 8, 0, 0, 0, 0, 0, 0, 2, 0, 6, 0, 0, 1, 0, 5, 0, 0, 0, 0, 0, 0, 0, 0, 0, 0, 0, 0, 0, 3, 1, 10, 7, 3, 0, 6, 0, 0, 0, 10, 0, 8, 0, 0, 0, 0, 0, 0, 0, 0, 0, 0, 5, 0, 0, 0, 0, 0, 0, 0, 0, 9, 0, 0, 0, 0, 3, 0, 0, 0, 0, 0, 0, 0, 0, 0, 0, 9, 0, 0, 0, 0, 0, 4, 0, 0, 3, 0, 0, 0, 0, 0, 0, 0, 0, 3, 10, 0, 0, 0, 0, 0, 0, 7, 0, 0, 7, 0, 2, 0, 0, 0, 2, 0, 0, 0, 0, 0, 0, 5, 0, 0, 0, 0, 0, 0, 0, 0, 0, 2, 4, 0, 3, 0, 10, 7, 9, 0, 0, 8, 0, 6, 0, 0, 0, 2, 6, 0, 0, 6, 0, 0, 0, 0, 4, 6, 0, 0, 0, 4, 0, 8, 9, 0, 0, 0, 2, 0, 0, 0, 0, 2, 0, 0]);

suc = [
   {2, 3, 4},
   {24, 25, 19},
   {10, 5, 6},
   {65, 18, 26},
   {64, 49},
   {9, 11, 7},
   {8, 13, 14},
   {34, 22, 63},
   {74, 45},
   {12, 21, 44},
   {17, 27, 20},
   {89, 69},
   {16, 41, 15},
   {88, 30},
   {55, 38, 23},
   {40},
   {36, 53, 76},
   {57, 91, 44},
   {43, 77, 71},
   {73, 45, 39},
   {28, 37},
   {52, 29},
   {42, 62},
   {32, 35},
   {60, 54, 31},
   {33},
   {82},
   {83},
   {57, 42},
   {52},
   {75},
   {78},
   {44, 37},
   {35},
   {46},
   {82},
   {40, 59},
   {58},
   {40, 66, 84},
   {48},
   {56, 70, 62},
   {47},
   {82},
   {49, 58, 54},
   {59, 54, 71},
   {67, 51},
   {50, 74, 71},
   {56},
   {50},
   {72, 69},
   {61},
   {67},
   {75, 67, 70},
   {72, 81, 80},
   {66, 70},
   {77},
   {64, 88},
   {85},
   {85, 61, 63},
   {76, 85},
   {64, 66, 75},
   {72, 65},
   {69, 87},
   {79},
   {73, 68},
   {80, 68},
   {73},
   {79},
   {88},
   {81, 84},
   {89},
   {90, 77},
   {74, 78},
   {80, 91},
   {78},
   {81, 84},
   {79},
   {83},
   {86},
   {86},
   {83},
   {90},
   {86},
   {91},
   {87},
   {87},
   {89},
   {90},
   {92},
   {92},
   {92},
   {  } ];

deadline = array2d(1..92, 1..3, [1, 2, 0, 3, 5, 0, 5, 5, 2, 12, 3, 3, 15, 3, 1, 17, 2, 1, 20, 3, 1, 22, 4, 2, 22, 2, 2, 23, 5, 4, 27, 0, 4, 30, 4, 2, 32, 4, 4, 32, 4, 1, 34, 0, 4, 37, 1, 0, 43, 3, 4, 54, 2, 5, 54, 0, 5, 55, 3, 1, 60, 3, 5, 62, 4, 0, 63, 4, 1, 65, 4, 0, 67, 4, 1, 72, 2, 5, 78, 0, 3, 88, 2, 0, 93, 3, 4, 93, 1, 5, 97, 2, 1, 104, 2, 4, 104, 4, 5, 105, 5, 1, 105, 5, 4, 117, 3, 4, 117, 3, 5, 118, 5, 2, 119, 3, 4, 120, 2, 2, 120, 4, 5, 124, 4, 1, 126, 0, 5, 127, 3, 1, 132, 5, 3, 133, 5, 5, 134, 1, 0, 136, 0, 3, 137, 3, 2, 138, 3, 5, 141, 3, 4, 144, 5, 4, 144, 3, 0, 144, 3, 1, 146, 1, 2, 147, 2, 5, 150, 1, 1, 150, 3, 4, 154, 0, 2, 155, 4, 1, 160, 2, 4, 163, 3, 3, 166, 3, 1, 168, 3, 0, 174, 3, 4, 178, 4, 0, 178, 5, 1, 180, 2, 4, 180, 2, 5, 183, 0, 0, 187, 4, 3, 191, 0, 0, 193, 4, 2, 193, 1, 4, 194, 3, 1, 197, 0, 4, 200, 0, 5, 201, 4, 2, 205, 0, 3, 205, 2, 3, 212, 4, 3, 216, 0, 0, 219, 5, 1, 219, 5, 4, 221, 1, 0, 222, 0, 1, 222, 4, 2, 223, 5, 3, 223, 2, 4, 224, 3, 3, 224, 1, 0, 227, 5, 0]);
