n_res = 4;
rc = [ 66, 49, 64, 50 ];
n_tasks = 92;
d = [0, 9, 1, 7, 7, 2, 2, 8, 7, 4, 5, 3, 3, 8, 10, 3, 3, 8, 1, 7, 4, 9, 2, 10, 10, 1, 6, 8, 7, 1, 2, 5, 4, 9, 2, 6, 10, 8, 4, 5, 5, 6, 6, 6, 1, 8, 8, 10, 10, 5, 3, 9, 3, 1, 8, 5, 8, 1, 6, 2, 7, 7, 8, 3, 2, 7, 5, 6, 4, 8, 8, 7, 3, 5, 5, 4, 3, 6, 3, 10, 8, 10, 3, 5, 5, 5, 4, 5, 8, 4, 6, 0];
rr = array2d(1..4, 1..92, [0, 0, 4, 5, 8, 0, 2, 3, 6, 0, 0, 5, 10, 3, 9, 10, 1, 0, 0, 3, 5, 8, 10, 3, 5, 8, 5, 7, 4, 3, 0, 5, 0, 0, 0, 10, 2, 9, 7, 0, 7, 8, 0, 4, 7, 0, 10, 6, 5, 8, 2, 0, 9, 2, 0, 2, 3, 2, 8, 9, 10, 1, 1, 2, 6, 0, 8, 5, 0, 10, 8, 4, 0, 2, 3, 2, 0, 7, 5, 0, 1, 0, 10, 1, 10, 0, 0, 2, 2, 10, 10, 0, 0, 10, 10, 0, 1, 5, 0, 3, 10, 10, 5, 7, 7, 10, 10, 1, 0, 3, 3, 0, 3, 1, 7, 1, 2, 10, 5, 6, 0, 1, 7, 5, 2, 2, 0, 6, 0, 8, 2, 7, 0, 6, 10, 1, 4, 5, 2, 5, 7, 3, 2, 0, 5, 3, 5, 4, 0, 3, 0, 3, 9, 4, 6, 0, 5, 10, 0, 4, 4, 5, 7, 0, 0, 4, 6, 0, 7, 0, 6, 2, 3, 2, 0, 0, 3, 2, 6, 6, 9, 3, 1, 0, 0, 4, 0, 4, 7, 0, 6, 0, 9, 8, 0, 0, 4, 0, 4, 3, 3, 8, 1, 4, 2, 6, 9, 1, 8, 8, 5, 9, 10, 0, 6, 0, 10, 5, 6, 3, 8, 0, 9, 7, 6, 4, 7, 10, 9, 0, 0, 1, 0, 0, 0, 7, 7, 9, 2, 0, 9, 0, 10, 9, 8, 2, 5, 9, 0, 0, 2, 0, 7, 1, 1, 6, 1, 10, 2, 0, 3, 1, 9, 0, 5, 4, 3, 0, 5, 9, 0, 10, 1, 8, 6, 0, 0, 1, 0, 0, 0, 8, 4, 9, 3, 0, 9, 6, 6, 8, 0, 7, 0, 8, 3, 2, 0, 0, 0, 8, 0, 7, 7, 5, 1, 9, 6, 1, 10, 1, 0, 6, 8, 7, 3, 9, 8, 0, 5, 0, 6, 9, 2, 7, 9, 7, 9, 8, 0, 10, 0, 0, 4, 1, 0, 5, 10, 5, 2, 6, 1, 5, 10, 0, 10, 0, 7, 5, 2, 0, 5, 6, 2, 0, 4, 7, 10, 9, 0, 4, 7, 0, 6, 0, 9, 10, 4, 0]);

suc = [
   {2, 3, 4},
   {10, 11, 5},
   {9, 49, 33},
   {8, 6, 7},
   {66, 51},
   {21, 13, 22},
   {9, 86},
   {16, 12, 15},
   {41, 42, 62},
   {19, 29, 14},
   {48, 27, 47},
   {38},
   {57},
   {17, 18, 20},
   {24, 28, 69},
   {53},
   {25, 36},
   {63, 38, 23},
   {81, 66, 77},
   {80, 26, 35},
   {44, 45},
   {39},
   {49, 59, 70},
   {52, 30},
   {31},
   {36, 37},
   {50},
   {32, 34, 71},
   {83},
   {47},
   {72},
   {67, 70},
   {55, 79, 39},
   {36, 45, 52},
   {91, 63},
   {58, 67, 63},
   {56, 43, 71},
   {40},
   {51},
   {48, 50, 54},
   {65},
   {66, 76},
   {46},
   {58},
   {73},
   {72, 65, 61},
   {83},
   {75},
   {61, 71},
   {52},
   {76},
   {79, 55},
   {58, 74},
   {86},
   {89},
   {85, 77},
   {64, 75, 68},
   {60},
   {65, 74, 75},
   {78},
   {67, 68, 62},
   {78},
   {88},
   {80, 89, 70},
   {73, 69},
   {88},
   {73},
   {82, 69},
   {84, 78},
   {72},
   {74, 90},
   {81, 77},
   {76, 84},
   {86},
   {79},
   {82},
   {84},
   {89},
   {80},
   {81},
   {82, 83, 87},
   {91, 85},
   {85},
   {88, 87},
   {90},
   {87},
   {91},
   {90},
   {92},
   {92},
   {92},
   {  } ];

deadline = array2d(1..92, 1..3, [1, 0, 3, 1, 2, 1, 2, 5, 2, 3, 2, 4, 6, 2, 2, 7, 2, 4, 8, 5, 3, 9, 1, 5, 11, 3, 1, 14, 3, 1, 17, 3, 0, 26, 1, 4, 31, 1, 0, 31, 0, 4, 36, 2, 2, 36, 1, 0, 36, 3, 3, 38, 3, 1, 42, 5, 2, 43, 0, 5, 49, 1, 2, 54, 1, 3, 56, 5, 4, 68, 3, 0, 68, 3, 5, 70, 4, 5, 76, 1, 3, 78, 3, 5, 85, 0, 4, 85, 2, 3, 89, 4, 5, 90, 2, 4, 92, 5, 2, 99, 0, 0, 102, 5, 5, 106, 5, 5, 108, 4, 3, 109, 3, 5, 110, 4, 0, 114, 5, 5, 116, 5, 3, 124, 0, 2, 124, 1, 4, 125, 4, 1, 130, 1, 0, 131, 0, 3, 132, 1, 4, 132, 2, 2, 133, 5, 4, 137, 1, 4, 142, 0, 2, 144, 5, 3, 144, 4, 5, 145, 0, 3, 146, 3, 0, 148, 4, 5, 148, 4, 1, 151, 3, 3, 156, 3, 5, 157, 3, 0, 163, 0, 0, 166, 0, 5, 169, 2, 1, 171, 3, 4, 171, 4, 4, 172, 2, 2, 174, 1, 1, 175, 2, 4, 176, 5, 0, 179, 5, 0, 185, 0, 5, 187, 5, 3, 195, 4, 4, 196, 0, 4, 198, 5, 3, 199, 1, 1, 210, 5, 0, 211, 2, 4, 211, 3, 2, 218, 5, 5, 219, 1, 4, 219, 2, 2, 225, 1, 3, 228, 5, 0, 228, 1, 3, 230, 2, 3, 231, 5, 0, 233, 1, 4, 236, 3, 2, 238, 1, 5, 241, 2, 0, 241, 5, 3]);
