n_res = 4;
rc = [ 31, 40, 43, 28 ];
n_tasks = 92;
d = [0, 8, 10, 10, 5, 4, 3, 10, 7, 1, 7, 5, 1, 3, 1, 10, 2, 7, 8, 2, 7, 3, 9, 8, 3, 3, 10, 10, 3, 7, 6, 1, 2, 7, 3, 9, 9, 2, 3, 10, 1, 8, 8, 3, 2, 7, 9, 3, 8, 5, 1, 4, 5, 6, 8, 9, 2, 5, 7, 10, 7, 9, 3, 5, 8, 4, 6, 1, 10, 10, 5, 8, 8, 2, 1, 4, 6, 10, 2, 10, 5, 5, 1, 3, 3, 2, 7, 7, 9, 1, 8, 0];
rr = array2d(1..4, 1..92, [0, 0, 0, 0, 0, 5, 0, 0, 3, 6, 0, 0, 0, 10, 4, 0, 3, 0, 0, 2, 2, 6, 0, 1, 0, 4, 0, 0, 0, 4, 1, 0, 0, 0, 1, 8, 0, 0, 5, 4, 0, 0, 0, 10, 0, 4, 0, 2, 10, 2, 0, 7, 0, 9, 8, 10, 4, 0, 0, 0, 6, 0, 0, 10, 0, 0, 10, 0, 7, 2, 10, 5, 9, 0, 0, 0, 0, 7, 8, 8, 9, 7, 0, 0, 9, 0, 0, 0, 0, 2, 0, 0, 0, 2, 1, 7, 7, 0, 4, 0, 0, 5, 1, 1, 10, 10, 0, 10, 8, 0, 3, 0, 7, 3, 0, 8, 0, 6, 0, 5, 5, 5, 0, 5, 0, 3, 0, 0, 0, 8, 6, 0, 0, 7, 4, 0, 0, 10, 6, 0, 3, 5, 0, 0, 5, 6, 0, 0, 4, 0, 10, 2, 6, 7, 7, 0, 4, 0, 0, 6, 4, 0, 1, 8, 0, 0, 0, 5, 3, 0, 5, 2, 2, 0, 0, 0, 6, 0, 9, 0, 1, 4, 0, 0, 0, 0, 0, 0, 0, 8, 0, 0, 9, 8, 0, 0, 0, 10, 0, 0, 6, 8, 0, 9, 0, 9, 9, 4, 2, 0, 2, 4, 0, 10, 5, 6, 4, 3, 0, 4, 10, 9, 4, 1, 5, 8, 9, 1, 9, 0, 0, 0, 0, 1, 3, 0, 0, 2, 0, 4, 0, 9, 3, 0, 4, 0, 6, 3, 5, 1, 0, 7, 0, 7, 0, 0, 3, 0, 2, 0, 3, 0, 0, 6, 8, 0, 0, 3, 3, 3, 0, 9, 1, 0, 0, 0, 0, 0, 5, 8, 0, 0, 0, 7, 0, 0, 0, 0, 5, 0, 0, 2, 0, 5, 1, 0, 0, 10, 5, 0, 9, 0, 0, 0, 0, 0, 0, 0, 0, 8, 8, 0, 0, 3, 2, 0, 0, 0, 6, 7, 7, 0, 0, 3, 0, 0, 0, 1, 0, 1, 5, 0, 0, 3, 5, 0, 4, 0, 0, 0, 0, 3, 8, 9, 0, 0, 0, 0, 0, 3, 6, 0, 0, 8, 0, 0, 0, 0, 5, 10, 0, 10, 3, 0, 0, 2, 7, 0]);

suc = [
   {2, 3, 4},
   {9, 11, 7},
   {12, 5, 6},
   {8, 22},
   {33, 36, 53},
   {18, 14, 15},
   {16, 10, 77},
   {89},
   {24, 40, 13},
   {28, 39},
   {25, 19, 21},
   {56, 37, 46},
   {42, 35, 23},
   {17, 26, 82},
   {43, 27, 20},
   {67, 51},
   {32, 68, 30},
   {72, 89, 70},
   {74},
   {73, 83, 44},
   {33, 47},
   {26, 54, 47},
   {34, 79, 31},
   {45},
   {81},
   {57},
   {40, 58, 29},
   {34},
   {65, 39},
   {40, 78},
   {69, 45, 38},
   {43, 77},
   {49, 60, 57},
   {41},
   {50, 69, 55},
   {64},
   {48, 52, 63},
   {41, 50, 59},
   {50, 53},
   {76},
   {66},
   {89, 65, 53},
   {85, 78},
   {80, 71},
   {72},
   {47},
   {77},
   {59, 51},
   {79},
   {81},
   {85, 86},
   {65, 62},
   {70, 62},
   {81},
   {72, 57},
   {61, 70},
   {66},
   {88, 66, 71},
   {85},
   {61},
   {64, 62},
   {74, 67},
   {75, 79},
   {75, 68},
   {76},
   {91},
   {69},
   {78, 71},
   {80, 73},
   {87},
   {84},
   {82},
   {75},
   {83, 84},
   {82, 76},
   {88},
   {84},
   {88},
   {80, 83},
   {91},
   {87},
   {86},
   {90},
   {86},
   {90},
   {87},
   {91},
   {90},
   {92},
   {92},
   {92},
   {  } ];

deadline = array2d(1..92, 1..3, [9, 2, 2, 15, 1, 4, 17, 3, 1, 17, 1, 4, 21, 3, 3, 21, 1, 4, 23, 0, 2, 23, 5, 5, 24, 0, 0, 30, 2, 2, 39, 0, 1, 41, 0, 2, 42, 1, 4, 43, 4, 2, 44, 1, 0, 49, 5, 0, 51, 5, 3, 55, 0, 1, 63, 5, 0, 65, 1, 5, 65, 1, 0, 66, 5, 0, 66, 0, 0, 66, 3, 3, 67, 1, 0, 68, 4, 2, 71, 4, 4, 73, 1, 3, 74, 1, 5, 79, 0, 3, 81, 2, 0, 83, 4, 5, 84, 4, 0, 85, 4, 5, 92, 4, 1, 93, 1, 3, 94, 0, 5, 94, 1, 3, 95, 1, 0, 96, 2, 1, 100, 1, 1, 103, 0, 5, 104, 0, 1, 105, 4, 2, 109, 0, 3, 110, 4, 0, 112, 3, 4, 114, 0, 0, 114, 1, 3, 121, 2, 2, 122, 4, 2, 123, 1, 0, 125, 0, 3, 126, 0, 1, 128, 3, 4, 129, 5, 1, 131, 4, 0, 132, 0, 4, 134, 2, 1, 135, 3, 2, 136, 4, 5, 136, 2, 4, 139, 3, 5, 140, 3, 2, 143, 1, 0, 144, 4, 5, 144, 3, 5, 145, 0, 1, 149, 4, 2, 150, 5, 1, 150, 2, 0, 156, 2, 2, 157, 4, 1, 163, 5, 3, 168, 5, 3, 168, 5, 1, 169, 2, 3, 180, 2, 4, 181, 0, 5, 186, 2, 0, 195, 0, 1, 197, 3, 4, 203, 4, 4, 204, 1, 2, 205, 2, 1, 209, 1, 0, 215, 5, 5, 216, 3, 0, 218, 5, 0, 226, 5, 4, 228, 0, 0, 239, 3, 0]);
