n_res = 4;
rc = [ 60, 39, 53, 49 ];
n_tasks = 92;
d = [0, 5, 2, 6, 4, 2, 5, 2, 6, 7, 9, 1, 10, 9, 7, 2, 10, 5, 2, 6, 5, 8, 8, 5, 10, 6, 3, 7, 9, 2, 2, 3, 7, 5, 3, 8, 3, 4, 3, 2, 2, 4, 4, 5, 8, 8, 9, 9, 9, 9, 4, 5, 4, 5, 5, 1, 8, 2, 1, 1, 1, 10, 10, 9, 10, 8, 4, 7, 8, 4, 8, 6, 8, 10, 6, 1, 9, 3, 7, 3, 1, 9, 1, 2, 6, 2, 10, 1, 2, 2, 10, 0];
rr = array2d(1..4, 1..92, [0, 1, 3, 8, 1, 3, 0, 1, 4, 5, 0, 1, 7, 0, 0, 0, 10, 2, 8, 2, 8, 3, 0, 3, 10, 2, 0, 9, 0, 10, 6, 4, 3, 8, 4, 0, 4, 10, 0, 3, 3, 0, 0, 9, 7, 3, 2, 5, 10, 8, 10, 7, 8, 8, 3, 0, 8, 8, 1, 0, 0, 6, 7, 0, 9, 6, 0, 0, 8, 0, 1, 4, 6, 9, 6, 0, 8, 0, 6, 8, 6, 10, 0, 0, 4, 5, 9, 8, 10, 9, 0, 0, 0, 7, 7, 0, 3, 3, 3, 8, 0, 0, 5, 9, 0, 0, 7, 6, 0, 6, 3, 0, 3, 6, 3, 10, 5, 9, 6, 10, 10, 10, 10, 4, 8, 5, 0, 3, 5, 0, 8, 3, 8, 4, 8, 7, 0, 0, 3, 0, 2, 0, 5, 8, 0, 4, 0, 0, 8, 8, 3, 9, 1, 1, 2, 6, 2, 2, 2, 3, 1, 0, 5, 0, 4, 2, 2, 9, 4, 2, 1, 8, 10, 1, 1, 0, 7, 5, 0, 2, 2, 0, 3, 0, 0, 0, 3, 6, 0, 8, 0, 9, 4, 7, 9, 5, 0, 9, 3, 3, 8, 5, 3, 1, 0, 7, 10, 3, 0, 0, 7, 1, 2, 9, 0, 6, 0, 10, 5, 0, 10, 1, 9, 3, 5, 5, 2, 8, 9, 2, 0, 4, 0, 5, 0, 0, 3, 2, 4, 2, 0, 7, 0, 5, 7, 8, 0, 8, 6, 8, 9, 0, 8, 0, 1, 9, 2, 7, 4, 2, 3, 10, 4, 10, 5, 0, 5, 9, 5, 0, 10, 2, 9, 9, 10, 0, 0, 0, 0, 2, 6, 9, 5, 7, 9, 0, 1, 9, 2, 6, 8, 0, 3, 4, 6, 8, 3, 4, 0, 6, 8, 7, 5, 4, 7, 7, 9, 10, 0, 0, 9, 3, 0, 1, 6, 4, 10, 6, 1, 8, 2, 2, 8, 0, 0, 2, 0, 8, 0, 0, 9, 10, 6, 4, 3, 8, 0, 4, 5, 8, 9, 1, 2, 6, 0, 3, 6, 8, 0, 0, 6, 0, 6, 2, 0, 9, 7, 0, 0, 9, 5, 1, 2, 0, 10, 3, 0, 0]);

suc = [
   {2, 3, 4},
   {8, 9, 10},
   {16, 5, 15},
   {67, 7},
   {6, 79},
   {26, 11, 12},
   {20},
   {39},
   {52, 29},
   {17, 13, 14},
   {27},
   {73, 19},
   {54},
   {51, 28, 61},
   {36, 22, 23},
   {18, 30},
   {24, 21},
   {56, 34, 43},
   {42, 68},
   {48, 25},
   {22, 55},
   {57},
   {80},
   {41, 46, 49},
   {35, 28, 38},
   {47},
   {28},
   {65, 70},
   {33, 84, 49},
   {32, 35, 31},
   {59, 53},
   {82},
   {50, 37},
   {52},
   {74},
   {39},
   {72, 71},
   {40},
   {44, 86},
   {64, 53},
   {74, 60},
   {78},
   {74},
   {45, 63},
   {73},
   {87},
   {69},
   {66, 54},
   {58},
   {65},
   {75, 76},
   {91},
   {54},
   {80},
   {59, 63},
   {62},
   {82, 84},
   {65},
   {72},
   {69, 63},
   {82},
   {70},
   {77},
   {87},
   {90, 71},
   {84},
   {86},
   {81},
   {89},
   {77},
   {85},
   {76},
   {85},
   {85},
   {79},
   {79},
   {83},
   {91},
   {81},
   {83},
   {88},
   {88},
   {90},
   {88},
   {89},
   {91},
   {89},
   {90},
   {92},
   {92},
   {92},
   {  } ];

deadline = array2d(1..92, 1..3, [1, 2, 0, 1, 1, 1, 3, 3, 5, 4, 2, 1, 5, 3, 5, 12, 2, 0, 14, 5, 4, 16, 0, 4, 20, 4, 0, 25, 0, 3, 28, 4, 4, 29, 4, 4, 29, 1, 4, 33, 1, 5, 34, 5, 2, 34, 0, 2, 35, 3, 4, 35, 5, 0, 35, 0, 3, 37, 5, 4, 38, 3, 5, 40, 1, 4, 40, 1, 5, 43, 4, 0, 44, 3, 3, 46, 0, 0, 47, 4, 0, 47, 1, 4, 47, 4, 1, 47, 2, 5, 51, 4, 5, 53, 4, 5, 53, 5, 3, 53, 0, 1, 54, 2, 5, 54, 0, 2, 54, 4, 0, 55, 1, 1, 61, 3, 3, 64, 3, 3, 65, 2, 4, 66, 4, 1, 68, 5, 0, 71, 5, 2, 72, 1, 3, 74, 3, 5, 75, 5, 5, 75, 5, 3, 82, 3, 2, 83, 0, 5, 83, 4, 2, 90, 3, 0, 91, 5, 3, 91, 4, 5, 92, 4, 3, 94, 2, 1, 94, 0, 1, 95, 4, 3, 100, 5, 0, 100, 3, 4, 100, 1, 1, 104, 4, 0, 108, 4, 2, 114, 5, 3, 116, 0, 1, 118, 4, 2, 120, 1, 5, 123, 0, 2, 124, 0, 4, 124, 3, 0, 125, 4, 0, 126, 4, 1, 127, 1, 1, 127, 3, 1, 127, 5, 5, 128, 4, 3, 131, 1, 1, 132, 4, 2, 136, 5, 5, 137, 4, 3, 138, 3, 2, 139, 2, 5, 147, 2, 0, 151, 2, 4, 153, 4, 5, 154, 1, 5, 154, 4, 4, 155, 1, 2, 155, 1, 4, 158, 1, 5, 159, 5, 2, 160, 3, 3]);
