n_res = 4;
rc = [ 22, 14, 27, 34 ];
n_tasks = 92;
d = [0, 9, 9, 5, 7, 1, 8, 1, 2, 7, 4, 3, 7, 5, 6, 1, 6, 1, 9, 3, 5, 3, 6, 7, 6, 1, 7, 1, 4, 3, 8, 5, 8, 2, 6, 3, 3, 5, 8, 10, 9, 10, 1, 2, 1, 2, 2, 5, 7, 6, 1, 3, 6, 6, 7, 3, 2, 4, 1, 3, 3, 7, 6, 8, 9, 5, 4, 4, 9, 9, 2, 4, 5, 2, 6, 6, 4, 8, 1, 5, 6, 8, 4, 3, 5, 1, 10, 2, 2, 6, 7, 0];
rr = array2d(1..4, 1..92, [0, 0, 0, 0, 5, 7, 0, 0, 0, 0, 0, 0, 0, 0, 9, 0, 0, 7, 0, 0, 0, 6, 6, 0, 0, 0, 0, 0, 0, 0, 0, 0, 0, 0, 0, 0, 1, 6, 0, 0, 1, 0, 0, 0, 0, 0, 0, 0, 0, 0, 0, 0, 7, 5, 6, 0, 0, 0, 0, 0, 0, 0, 0, 9, 8, 0, 0, 0, 0, 0, 0, 0, 0, 0, 4, 0, 0, 0, 2, 0, 0, 1, 0, 0, 0, 0, 0, 0, 0, 3, 10, 0, 0, 9, 0, 0, 0, 0, 0, 0, 0, 0, 0, 0, 0, 0, 0, 4, 0, 0, 0, 0, 0, 0, 0, 0, 0, 0, 8, 6, 0, 0, 0, 0, 0, 0, 5, 0, 0, 0, 0, 0, 0, 0, 0, 0, 0, 6, 5, 0, 0, 0, 0, 7, 0, 0, 0, 0, 0, 0, 0, 0, 0, 0, 0, 0, 0, 2, 7, 0, 0, 9, 0, 0, 10, 0, 0, 0, 0, 1, 0, 0, 2, 0, 0, 0, 0, 3, 0, 0, 3, 0, 0, 0, 0, 0, 0, 0, 0, 0, 6, 1, 0, 0, 0, 0, 1, 9, 0, 0, 6, 0, 8, 0, 0, 0, 0, 0, 0, 0, 0, 0, 0, 7, 0, 0, 0, 6, 0, 9, 0, 0, 7, 0, 0, 0, 10, 9, 6, 0, 0, 8, 9, 0, 0, 0, 0, 0, 0, 7, 10, 9, 0, 0, 0, 2, 0, 0, 0, 0, 0, 0, 3, 0, 10, 5, 0, 5, 0, 0, 0, 0, 0, 6, 0, 0, 0, 0, 0, 0, 9, 0, 0, 0, 0, 0, 0, 0, 3, 5, 0, 0, 0, 0, 6, 2, 5, 6, 0, 0, 0, 0, 0, 0, 0, 10, 7, 0, 0, 10, 7, 5, 0, 0, 1, 0, 5, 8, 4, 0, 0, 0, 0, 0, 0, 10, 0, 5, 0, 0, 0, 0, 0, 0, 0, 10, 10, 0, 0, 0, 0, 0, 0, 0, 1, 4, 8, 0, 8, 0, 0, 0, 0, 5, 0, 0, 0, 0, 0, 0, 0, 1, 7, 0, 0, 0, 0, 0, 2, 9, 7, 0, 0, 10, 0, 0, 0, 0]);

suc = [
   {2, 3, 4},
   {33, 14, 7},
   {19, 20, 6},
   {51, 19, 5},
   {42, 27, 55},
   {24, 25, 18},
   {8, 51, 13},
   {9, 26, 21},
   {10, 11, 23},
   {16, 75, 22},
   {17, 12, 15},
   {16},
   {80, 44, 38},
   {89, 21, 23},
   {48, 49, 30},
   {34, 50, 60},
   {20, 71},
   {29, 87},
   {32, 39, 23},
   {48, 45, 47},
   {52, 47},
   {82, 43, 85},
   {64, 28},
   {84, 61, 71},
   {40},
   {41, 52},
   {33, 53, 37},
   {73, 68, 61},
   {63},
   {35, 53, 31},
   {74, 36, 52},
   {42, 37, 46},
   {50, 45, 54},
   {40, 56, 66},
   {67, 76, 37},
   {56, 41, 75},
   {65},
   {49, 79},
   {40, 41, 88},
   {76, 62},
   {42, 84, 62},
   {50, 70, 47},
   {49, 53, 54},
   {72, 46},
   {56, 46},
   {75, 59, 62},
   {91, 60},
   {57, 58, 68},
   {72, 58, 59},
   {85},
   {65, 57},
   {64, 66, 59},
   {73, 66, 83},
   {58},
   {64, 57, 67},
   {76, 61, 70},
   {74, 60, 69},
   {88, 77},
   {73},
   {82},
   {80},
   {70},
   {65, 67, 71},
   {68, 86},
   {80},
   {84, 69},
   {72},
   {77, 69, 78},
   {79},
   {81, 78},
   {83},
   {74},
   {87},
   {83, 77},
   {81},
   {81, 78},
   {91},
   {79},
   {87},
   {82},
   {85, 86},
   {90},
   {88},
   {86},
   {89},
   {91},
   {90},
   {89, 90},
   {92},
   {92},
   {92},
   {  } ];

deadline = array2d(1..92, 1..3, [3, 0, 4, 6, 1, 0, 6, 5, 5, 7, 0, 2, 10, 4, 1, 13, 5, 0, 13, 1, 0, 15, 0, 4, 17, 2, 1, 24, 3, 1, 26, 5, 0, 26, 2, 5, 29, 4, 1, 33, 1, 5, 35, 4, 5, 39, 1, 2, 42, 1, 5, 42, 4, 0, 43, 1, 0, 43, 4, 1, 46, 4, 0, 55, 2, 5, 56, 2, 3, 60, 2, 1, 60, 3, 2, 61, 3, 1, 62, 1, 4, 63, 2, 4, 63, 4, 1, 66, 3, 1, 77, 1, 5, 78, 4, 3, 81, 2, 1, 84, 2, 2, 84, 5, 3, 85, 1, 4, 93, 2, 2, 94, 3, 3, 94, 4, 2, 97, 3, 0, 101, 3, 0, 102, 5, 3, 104, 0, 0, 117, 5, 4, 119, 3, 4, 121, 3, 2, 121, 1, 5, 123, 2, 3, 125, 2, 0, 126, 1, 2, 130, 2, 3, 130, 3, 0, 130, 0, 5, 142, 2, 1, 143, 2, 1, 145, 5, 3, 153, 3, 5, 154, 3, 4, 154, 1, 2, 155, 0, 1, 160, 3, 5, 163, 4, 0, 164, 4, 2, 166, 3, 0, 167, 4, 2, 168, 0, 4, 171, 3, 0, 180, 5, 4, 181, 2, 5, 182, 2, 4, 187, 3, 5, 189, 1, 2, 189, 0, 4, 195, 4, 5, 195, 4, 0, 198, 4, 5, 198, 5, 1, 198, 1, 3, 201, 3, 2, 201, 1, 1, 206, 1, 1, 207, 3, 3, 208, 3, 0, 211, 4, 0, 221, 0, 4, 221, 3, 1, 223, 0, 2, 227, 1, 4, 228, 3, 3, 228, 2, 2, 232, 5, 2, 233, 3, 3]);
