n_res = 4;
rc = [ 20, 21, 19, 19 ];
n_tasks = 92;
d = [0, 9, 6, 5, 8, 6, 6, 7, 7, 9, 5, 4, 5, 8, 6, 1, 4, 7, 8, 10, 10, 3, 4, 9, 7, 5, 10, 7, 7, 4, 4, 3, 3, 3, 6, 6, 10, 9, 1, 4, 6, 1, 1, 3, 2, 6, 1, 3, 4, 6, 9, 4, 2, 10, 3, 9, 3, 3, 7, 2, 4, 1, 4, 4, 1, 8, 8, 3, 9, 2, 6, 10, 8, 8, 2, 9, 1, 8, 3, 8, 9, 7, 1, 9, 4, 4, 1, 7, 9, 6, 9, 0];
rr = array2d(1..4, 1..92, [0, 0, 0, 0, 2, 0, 0, 0, 5, 0, 0, 0, 0, 0, 8, 0, 0, 0, 5, 0, 0, 0, 0, 6, 0, 8, 1, 0, 2, 0, 0, 2, 0, 0, 0, 3, 8, 0, 8, 9, 6, 0, 0, 0, 0, 0, 0, 0, 0, 0, 0, 0, 0, 0, 0, 0, 0, 8, 0, 0, 0, 3, 0, 0, 0, 8, 9, 0, 0, 0, 0, 0, 0, 0, 0, 0, 0, 0, 0, 0, 0, 0, 4, 0, 9, 0, 1, 0, 0, 0, 0, 0, 0, 0, 4, 0, 0, 1, 10, 0, 0, 0, 4, 0, 8, 0, 0, 0, 8, 0, 0, 6, 0, 2, 0, 0, 5, 0, 0, 0, 0, 0, 0, 0, 0, 0, 0, 0, 0, 10, 0, 0, 0, 9, 4, 0, 0, 0, 3, 8, 0, 0, 0, 0, 0, 6, 0, 1, 0, 0, 0, 0, 4, 0, 0, 0, 0, 0, 0, 0, 8, 0, 0, 9, 0, 0, 0, 0, 0, 0, 7, 3, 7, 8, 0, 0, 0, 6, 0, 0, 0, 7, 10, 0, 0, 9, 0, 3, 0, 0, 0, 0, 0, 5, 0, 9, 0, 0, 0, 5, 0, 0, 0, 0, 0, 0, 0, 0, 0, 0, 0, 3, 0, 0, 10, 0, 0, 9, 10, 0, 0, 0, 0, 0, 0, 0, 0, 1, 0, 3, 0, 0, 0, 8, 3, 0, 7, 0, 2, 0, 0, 0, 9, 5, 0, 0, 9, 0, 7, 0, 0, 8, 0, 0, 6, 0, 4, 8, 5, 0, 0, 3, 0, 0, 0, 0, 0, 8, 0, 0, 0, 8, 1, 0, 0, 0, 0, 0, 0, 0, 0, 0, 0, 3, 0, 0, 0, 0, 0, 6, 0, 0, 0, 2, 0, 0, 5, 0, 8, 0, 0, 0, 0, 0, 0, 4, 0, 0, 5, 0, 0, 0, 0, 0, 0, 0, 0, 0, 0, 0, 7, 0, 0, 0, 9, 0, 0, 4, 0, 0, 0, 0, 9, 0, 0, 0, 0, 0, 0, 3, 0, 0, 0, 0, 0, 8, 0, 0, 0, 0, 0, 3, 10, 0, 0, 0, 0, 0, 0, 0, 0, 0, 0, 0, 0, 0, 0, 0]);

suc = [
   {2, 3, 4},
   {20, 6, 14},
   {19},
   {27, 5, 31},
   {50, 21},
   {8, 42, 7},
   {10, 55},
   {9, 11, 13},
   {16, 26, 43},
   {18, 59},
   {34, 12},
   {29, 79},
   {40, 30},
   {69, 54, 15},
   {74, 82},
   {17, 38},
   {32, 34, 52},
   {24, 25, 41},
   {33, 63, 23},
   {81, 36, 61},
   {29, 22, 30},
   {65},
   {49, 45},
   {67, 51, 47},
   {40, 35, 77},
   {32, 85},
   {28},
   {72},
   {58, 51},
   {44, 37},
   {78, 62},
   {56},
   {58, 76, 53},
   {75, 39},
   {68},
   {72, 42},
   {46},
   {64, 88},
   {89},
   {90},
   {62, 71},
   {64, 75},
   {86, 62},
   {56, 68},
   {66},
   {57, 87, 71},
   {48, 65, 71},
   {52, 85, 60},
   {58, 61},
   {56, 57, 73},
   {77, 76, 53},
   {77},
   {54},
   {68, 70},
   {57},
   {64},
   {65},
   {91},
   {80, 61},
   {81, 82},
   {66, 70},
   {79},
   {73, 66, 69},
   {74},
   {75},
   {88},
   {72, 79},
   {86},
   {86, 76, 70},
   {74},
   {80},
   {73, 84},
   {78},
   {91},
   {89},
   {82, 78},
   {83},
   {83, 85},
   {80, 81, 90},
   {84},
   {84},
   {83},
   {90},
   {88},
   {87},
   {87},
   {91},
   {89},
   {92},
   {92},
   {92},
   {  } ];

deadline = array2d(1..92, 1..3, [3, 4, 2, 5, 4, 3, 9, 2, 2, 10, 3, 3, 11, 3, 3, 15, 0, 1, 18, 0, 4, 23, 5, 5, 25, 5, 4, 25, 0, 1, 29, 2, 1, 35, 2, 2, 35, 1, 2, 38, 3, 2, 40, 4, 1, 41, 1, 4, 43, 1, 2, 44, 3, 4, 45, 1, 1, 46, 5, 2, 50, 3, 0, 52, 4, 0, 52, 4, 0, 56, 3, 4, 59, 5, 0, 66, 2, 0, 70, 4, 0, 71, 4, 5, 71, 5, 0, 75, 1, 4, 77, 3, 5, 77, 0, 2, 82, 2, 2, 85, 3, 1, 91, 3, 1, 93, 1, 2, 94, 3, 2, 96, 3, 0, 96, 3, 1, 99, 1, 2, 101, 3, 1, 101, 3, 4, 103, 0, 0, 107, 5, 2, 107, 0, 1, 108, 2, 2, 112, 0, 0, 113, 3, 3, 116, 1, 2, 120, 5, 1, 121, 3, 1, 123, 5, 3, 124, 5, 0, 128, 2, 3, 134, 5, 0, 140, 1, 2, 142, 3, 4, 144, 5, 2, 145, 4, 3, 147, 5, 0, 148, 2, 4, 149, 3, 1, 150, 3, 1, 150, 4, 0, 150, 3, 0, 158, 4, 2, 162, 2, 1, 162, 3, 5, 162, 1, 1, 167, 4, 5, 177, 2, 2, 178, 2, 4, 178, 5, 5, 180, 0, 5, 183, 2, 1, 190, 1, 3, 195, 0, 3, 196, 2, 3, 198, 5, 5, 202, 3, 2, 208, 1, 3, 209, 1, 0, 211, 2, 2, 211, 2, 3, 212, 2, 0, 215, 5, 4, 217, 3, 0, 224, 4, 0, 224, 5, 2, 231, 0, 0, 233, 0, 1, 234, 3, 2]);
