n_res = 4;
rc = [ 23, 18, 18, 22 ];
n_tasks = 92;
d = [0, 3, 2, 10, 9, 4, 10, 1, 3, 8, 6, 8, 3, 7, 9, 1, 8, 7, 5, 8, 2, 2, 6, 8, 3, 1, 3, 2, 5, 8, 3, 10, 1, 10, 9, 1, 6, 1, 10, 10, 5, 2, 8, 2, 7, 9, 6, 1, 5, 3, 2, 4, 4, 4, 8, 9, 9, 2, 1, 4, 1, 2, 6, 5, 10, 4, 2, 9, 3, 2, 1, 8, 6, 3, 9, 8, 8, 10, 3, 6, 2, 10, 9, 8, 2, 5, 5, 3, 1, 8, 6, 0];
rr = array2d(1..4, 1..92, [0, 0, 0, 4, 0, 0, 0, 0, 0, 0, 8, 5, 0, 8, 9, 0, 0, 0, 0, 0, 0, 0, 0, 4, 0, 0, 0, 0, 1, 0, 0, 0, 0, 0, 0, 0, 1, 0, 10, 0, 2, 0, 6, 0, 9, 0, 0, 0, 2, 7, 0, 3, 0, 6, 0, 0, 8, 0, 10, 0, 0, 0, 0, 0, 0, 0, 0, 10, 0, 0, 0, 0, 0, 0, 0, 10, 10, 0, 0, 0, 8, 0, 0, 0, 0, 0, 0, 1, 9, 0, 0, 0, 0, 0, 3, 0, 0, 9, 0, 0, 0, 0, 0, 0, 3, 0, 0, 0, 9, 3, 0, 0, 10, 2, 0, 0, 10, 0, 0, 0, 0, 0, 9, 0, 0, 10, 0, 0, 0, 0, 0, 0, 0, 0, 0, 0, 0, 0, 0, 0, 0, 0, 0, 0, 0, 0, 4, 0, 0, 0, 0, 5, 7, 1, 1, 0, 0, 0, 0, 0, 0, 0, 0, 6, 0, 0, 0, 0, 0, 0, 4, 8, 0, 0, 0, 6, 0, 2, 0, 0, 0, 0, 6, 0, 0, 8, 0, 0, 9, 0, 0, 1, 0, 9, 0, 0, 0, 0, 0, 5, 0, 0, 3, 0, 0, 0, 0, 0, 0, 9, 3, 8, 0, 2, 0, 0, 5, 0, 0, 0, 0, 0, 0, 0, 0, 0, 0, 8, 0, 2, 2, 0, 0, 0, 0, 0, 10, 0, 0, 7, 0, 0, 0, 0, 0, 0, 0, 5, 0, 0, 5, 0, 4, 8, 1, 0, 9, 0, 5, 0, 0, 6, 0, 0, 0, 0, 0, 0, 0, 0, 10, 0, 0, 10, 0, 0, 0, 0, 0, 0, 0, 0, 10, 0, 4, 0, 0, 0, 0, 0, 0, 0, 0, 0, 0, 5, 0, 0, 2, 0, 0, 0, 0, 0, 0, 0, 0, 4, 0, 0, 4, 8, 0, 6, 0, 7, 0, 3, 0, 0, 0, 0, 0, 6, 0, 0, 1, 0, 0, 0, 0, 0, 0, 3, 0, 0, 0, 0, 0, 0, 3, 8, 0, 0, 0, 0, 0, 0, 0, 2, 0, 0, 0, 0, 0, 0, 0, 1, 4, 0, 3, 0, 0, 0, 0, 0, 0, 0]);

suc = [
   {2, 3, 4},
   {14},
   {8, 44, 5},
   {10, 13, 62},
   {65, 6},
   {9, 20, 7},
   {48, 14},
   {21},
   {18, 11, 21},
   {16, 17, 32},
   {33, 12, 29},
   {28},
   {26, 35, 15},
   {25},
   {81},
   {24},
   {77},
   {19, 76, 23},
   {49, 38, 31},
   {58, 22},
   {27, 60, 54},
   {61},
   {66},
   {37, 30, 39},
   {32, 74},
   {40},
   {69},
   {36},
   {72, 53, 47},
   {42, 55},
   {64, 89, 34},
   {52},
   {55},
   {41},
   {37},
   {80, 43},
   {66},
   {88},
   {41, 69, 78},
   {51, 46},
   {50},
   {90, 45},
   {60},
   {66},
   {56, 81},
   {85, 77, 71},
   {49, 83},
   {61},
   {52, 77},
   {87},
   {88},
   {54},
   {83},
   {57},
   {79},
   {83, 68},
   {59, 70, 63},
   {68},
   {67},
   {85},
   {85},
   {69},
   {68},
   {70},
   {76},
   {84},
   {87},
   {73},
   {76},
   {73},
   {87},
   {91},
   {75},
   {91},
   {78},
   {79},
   {84},
   {80},
   {82},
   {91},
   {86},
   {90, 86},
   {84},
   {86},
   {89},
   {88},
   {90},
   {89},
   {92},
   {92},
   {92},
   {  } ];

deadline = array2d(1..92, 1..3, [1, 3, 0, 2, 3, 3, 6, 1, 0, 9, 5, 3, 9, 0, 0, 12, 1, 4, 12, 3, 3, 13, 4, 2, 14, 2, 1, 16, 1, 1, 19, 2, 2, 22, 0, 0, 22, 0, 4, 24, 2, 3, 31, 1, 0, 34, 4, 1, 34, 5, 2, 39, 5, 5, 40, 2, 2, 47, 3, 4, 52, 4, 4, 56, 4, 1, 66, 0, 4, 66, 1, 3, 69, 5, 1, 69, 0, 0, 72, 1, 0, 78, 3, 4, 79, 0, 2, 79, 5, 4, 80, 5, 1, 82, 1, 0, 82, 4, 2, 87, 4, 1, 87, 2, 2, 89, 3, 4, 92, 1, 4, 93, 5, 1, 95, 5, 0, 104, 3, 2, 106, 1, 5, 109, 3, 0, 111, 2, 1, 111, 4, 3, 116, 1, 1, 121, 5, 3, 122, 1, 5, 123, 1, 1, 123, 5, 2, 133, 2, 2, 138, 1, 0, 138, 5, 2, 141, 5, 4, 149, 1, 1, 150, 4, 1, 157, 5, 1, 158, 4, 3, 162, 3, 2, 163, 4, 2, 164, 0, 3, 164, 3, 1, 165, 5, 0, 169, 1, 2, 177, 3, 3, 181, 2, 1, 182, 3, 4, 183, 5, 3, 186, 0, 2, 188, 3, 4, 195, 2, 3, 198, 4, 2, 215, 5, 4, 218, 4, 1, 222, 1, 2, 222, 3, 2, 225, 4, 0, 229, 1, 5, 230, 4, 1, 236, 0, 4, 237, 5, 1, 238, 2, 5, 241, 1, 2, 242, 3, 0, 243, 5, 1, 253, 3, 5, 259, 5, 4, 260, 2, 5, 266, 0, 4, 275, 3, 1, 278, 5, 4, 280, 2, 4, 284, 3, 2]);
