n_res = 4;
rc = [ 50, 62, 58, 60 ];
n_tasks = 92;
d = [0, 1, 1, 2, 3, 8, 6, 6, 9, 1, 1, 9, 4, 2, 4, 5, 7, 4, 3, 9, 5, 4, 3, 2, 8, 4, 9, 8, 8, 2, 6, 3, 2, 2, 2, 1, 3, 5, 10, 2, 10, 4, 5, 6, 8, 7, 3, 9, 4, 6, 6, 1, 8, 6, 10, 6, 10, 3, 7, 2, 3, 9, 6, 1, 5, 2, 3, 5, 9, 9, 3, 7, 3, 9, 3, 1, 9, 9, 5, 2, 9, 7, 1, 10, 10, 4, 10, 4, 8, 2, 8, 0];
rr = array2d(1..4, 1..92, [0, 6, 8, 5, 3, 5, 10, 4, 3, 3, 3, 5, 1, 4, 8, 2, 7, 9, 4, 4, 1, 6, 7, 4, 10, 10, 8, 10, 2, 3, 1, 9, 7, 9, 10, 6, 2, 4, 1, 4, 1, 6, 7, 6, 10, 2, 7, 4, 1, 6, 1, 9, 10, 10, 10, 1, 8, 5, 3, 1, 2, 1, 3, 8, 3, 4, 7, 6, 5, 6, 4, 2, 3, 7, 6, 8, 5, 5, 5, 9, 9, 6, 6, 1, 8, 2, 10, 1, 10, 8, 7, 0, 0, 1, 2, 6, 8, 1, 4, 10, 3, 8, 4, 5, 8, 6, 8, 2, 9, 5, 3, 2, 4, 3, 4, 3, 5, 10, 2, 10, 8, 7, 4, 5, 5, 7, 10, 3, 1, 10, 7, 7, 4, 9, 6, 2, 9, 9, 1, 5, 4, 3, 1, 7, 8, 1, 8, 7, 1, 2, 4, 1, 9, 9, 2, 10, 4, 10, 8, 7, 10, 5, 6, 5, 4, 3, 2, 4, 9, 3, 10, 4, 6, 4, 1, 10, 10, 10, 7, 2, 8, 9, 5, 0, 0, 10, 10, 1, 3, 5, 7, 9, 8, 7, 7, 5, 9, 8, 3, 8, 8, 6, 4, 3, 9, 8, 9, 10, 1, 7, 4, 7, 3, 7, 10, 7, 10, 2, 10, 8, 8, 3, 2, 1, 5, 8, 1, 10, 10, 8, 6, 10, 3, 9, 7, 8, 8, 2, 2, 1, 6, 4, 8, 8, 6, 3, 7, 4, 7, 10, 3, 8, 2, 3, 4, 2, 8, 8, 9, 7, 6, 5, 8, 9, 1, 7, 4, 3, 8, 5, 4, 3, 7, 3, 6, 0, 0, 2, 3, 2, 3, 6, 8, 6, 7, 2, 9, 2, 5, 3, 5, 6, 4, 9, 2, 1, 5, 10, 5, 1, 7, 3, 9, 10, 8, 1, 7, 3, 5, 1, 7, 8, 1, 10, 9, 5, 7, 5, 9, 4, 1, 2, 8, 1, 4, 3, 10, 5, 3, 3, 7, 5, 1, 6, 3, 9, 2, 10, 3, 2, 9, 10, 2, 1, 1, 7, 4, 10, 1, 7, 8, 9, 5, 2, 7, 8, 7, 2, 6, 9, 9, 5, 10, 2, 2, 9, 5, 0]);

suc = [
   {2, 3, 4},
   {13, 12, 5},
   {25, 6, 14},
   {8, 11},
   {39},
   {9, 20, 7},
   {43, 31, 15},
   {10, 19, 30},
   {41, 37, 23},
   {32, 21, 14},
   {56, 17, 61},
   {71},
   {16, 24, 41},
   {24, 34, 28},
   {26, 67, 37},
   {18},
   {72, 66, 52},
   {73},
   {73, 21},
   {77, 53},
   {60, 29, 22},
   {65},
   {51, 36, 38},
   {84, 38},
   {32, 47},
   {27},
   {28},
   {63},
   {40, 65, 64},
   {51, 35, 59},
   {51, 76, 62},
   {33, 50, 45},
   {68, 63},
   {38},
   {41},
   {42, 46, 47},
   {42, 58, 39},
   {57, 69},
   {47},
   {44, 69},
   {91},
   {49, 79, 55},
   {48},
   {70},
   {70},
   {86},
   {72, 54},
   {65, 57, 82},
   {90},
   {69, 63},
   {67, 77},
   {81},
   {75},
   {59},
   {85},
   {64, 57, 70},
   {58},
   {89},
   {75},
   {64, 75, 67},
   {73},
   {80},
   {66},
   {81, 78},
   {80},
   {82},
   {88},
   {74, 87},
   {81},
   {72, 76},
   {74, 76},
   {91, 87},
   {74, 82, 78},
   {91},
   {83, 85, 79},
   {80, 77},
   {78},
   {83, 79},
   {84, 86},
   {84},
   {85},
   {83, 86},
   {88},
   {90},
   {88, 87},
   {89},
   {89},
   {90},
   {92},
   {92},
   {92},
   {  } ];

deadline = array2d(1..92, 1..3, [5, 1, 0, 5, 1, 5, 7, 3, 3, 8, 3, 3, 9, 4, 3, 9, 3, 1, 12, 1, 0, 12, 1, 1, 14, 3, 0, 17, 0, 0, 21, 2, 4, 24, 2, 2, 25, 3, 1, 28, 3, 3, 28, 0, 3, 30, 1, 2, 34, 4, 1, 35, 2, 4, 39, 0, 1, 41, 0, 5, 43, 0, 3, 44, 0, 2, 48, 4, 1, 51, 0, 2, 54, 0, 3, 54, 0, 3, 58, 5, 4, 61, 4, 2, 62, 3, 3, 65, 0, 0, 65, 0, 0, 65, 0, 4, 66, 1, 0, 70, 0, 4, 76, 4, 0, 79, 3, 2, 80, 2, 0, 80, 2, 5, 81, 2, 0, 84, 4, 1, 84, 4, 3, 84, 1, 5, 85, 4, 2, 85, 1, 3, 88, 4, 5, 91, 3, 1, 94, 2, 4, 95, 1, 0, 98, 2, 0, 101, 4, 3, 102, 5, 1, 102, 2, 1, 103, 3, 4, 104, 4, 4, 109, 5, 2, 114, 3, 1, 117, 3, 3, 120, 0, 0, 121, 1, 2, 121, 3, 5, 122, 0, 3, 125, 0, 3, 126, 0, 2, 132, 0, 2, 133, 4, 3, 134, 0, 0, 136, 3, 0, 136, 4, 4, 137, 0, 4, 137, 3, 0, 139, 4, 0, 141, 3, 0, 145, 5, 3, 145, 2, 2, 149, 0, 4, 152, 3, 3, 152, 2, 0, 156, 0, 0, 156, 2, 0, 157, 1, 1, 158, 4, 3, 161, 0, 4, 163, 0, 3, 166, 1, 0, 168, 1, 0, 176, 0, 2, 177, 3, 5, 177, 0, 5, 179, 2, 5, 179, 2, 2, 183, 1, 1, 192, 4, 0]);
