n_res = 4;
rc = [ 58, 64, 64, 70 ];
n_tasks = 92;
d = [0, 8, 8, 1, 8, 2, 5, 7, 2, 9, 3, 3, 4, 5, 6, 3, 5, 8, 7, 3, 6, 10, 9, 5, 8, 7, 2, 1, 2, 3, 1, 5, 7, 5, 7, 8, 3, 5, 4, 8, 6, 1, 7, 6, 1, 7, 6, 8, 3, 4, 6, 4, 5, 4, 1, 10, 8, 9, 7, 4, 3, 8, 8, 5, 6, 8, 2, 9, 4, 10, 7, 4, 10, 9, 4, 6, 10, 8, 6, 2, 2, 7, 7, 4, 3, 3, 5, 10, 3, 9, 6, 0];
rr = array2d(1..4, 1..92, [0, 1, 10, 4, 10, 3, 2, 2, 5, 2, 4, 10, 9, 4, 5, 4, 5, 2, 5, 7, 2, 4, 9, 3, 2, 6, 9, 9, 9, 7, 6, 1, 8, 10, 6, 5, 1, 7, 9, 5, 7, 9, 1, 9, 8, 10, 5, 4, 8, 5, 1, 9, 2, 4, 8, 8, 10, 3, 9, 6, 3, 1, 3, 2, 7, 8, 4, 5, 9, 3, 10, 5, 5, 4, 3, 2, 8, 5, 9, 6, 4, 7, 1, 3, 5, 7, 6, 4, 4, 9, 10, 0, 0, 8, 7, 7, 2, 9, 2, 6, 8, 9, 6, 9, 1, 6, 7, 7, 9, 4, 1, 10, 5, 4, 3, 6, 6, 10, 2, 1, 8, 3, 6, 6, 10, 5, 10, 3, 9, 1, 10, 3, 10, 1, 10, 10, 5, 3, 7, 5, 4, 1, 5, 3, 8, 8, 7, 6, 2, 5, 6, 1, 2, 2, 5, 4, 4, 10, 7, 6, 4, 10, 3, 10, 8, 9, 3, 2, 1, 3, 7, 2, 7, 4, 6, 6, 7, 10, 1, 2, 4, 3, 8, 0, 0, 7, 4, 2, 2, 1, 9, 6, 4, 8, 2, 8, 4, 6, 7, 6, 9, 10, 8, 4, 6, 4, 9, 3, 8, 10, 6, 5, 2, 7, 8, 10, 7, 10, 7, 8, 4, 4, 6, 6, 5, 7, 7, 7, 6, 3, 8, 9, 8, 7, 6, 10, 8, 8, 7, 6, 7, 7, 8, 10, 7, 8, 3, 4, 5, 3, 5, 6, 2, 5, 7, 10, 7, 3, 4, 1, 4, 7, 3, 6, 3, 10, 6, 6, 1, 10, 3, 1, 7, 10, 1, 0, 0, 1, 2, 3, 2, 9, 1, 4, 9, 10, 4, 2, 6, 1, 8, 4, 6, 7, 7, 1, 4, 10, 8, 10, 9, 9, 9, 9, 8, 8, 6, 4, 8, 9, 4, 10, 1, 10, 9, 3, 5, 5, 4, 6, 8, 7, 2, 7, 9, 8, 3, 8, 6, 9, 1, 5, 7, 4, 10, 7, 5, 6, 1, 2, 9, 6, 5, 7, 2, 10, 7, 6, 6, 6, 2, 10, 1, 1, 8, 2, 10, 2, 10, 6, 4, 2, 8, 2, 2, 8, 4, 0]);

suc = [
   {2, 3, 4},
   {65, 53, 15},
   {25, 12, 7},
   {8, 5, 6},
   {40},
   {9, 19, 46},
   {83},
   {22},
   {10, 11, 31},
   {16, 13, 14},
   {42, 38, 63},
   {24, 26, 29},
   {32, 41, 18},
   {17, 20, 33},
   {59, 21, 39},
   {76},
   {30},
   {48, 56, 28},
   {23},
   {63},
   {88, 35, 47},
   {41},
   {75, 53},
   {57, 61, 37},
   {34, 43},
   {72, 74, 27},
   {49, 39},
   {45, 39},
   {57, 54, 78},
   {67, 68, 37},
   {43, 36, 55},
   {89, 35, 53},
   {69},
   {61, 54},
   {60},
   {48, 78, 79},
   {52},
   {44},
   {57, 86, 47},
   {58, 66, 55},
   {77},
   {44, 70},
   {71},
   {64, 81, 52},
   {64},
   {66, 87},
   {85},
   {50, 51, 68},
   {56, 78, 79},
   {60, 54},
   {52, 71},
   {83},
   {72},
   {73, 58, 85},
   {60},
   {68, 62},
   {84, 62},
   {74},
   {64, 79},
   {71},
   {70},
   {90},
   {80, 65, 77},
   {87},
   {91},
   {72},
   {80},
   {88, 75, 70},
   {74, 86},
   {76, 87},
   {77},
   {80},
   {81, 75},
   {89},
   {76},
   {89},
   {84},
   {82},
   {81, 82, 86},
   {82},
   {83},
   {84},
   {90},
   {85},
   {91},
   {88},
   {91},
   {90},
   {92},
   {92},
   {92},
   {  } ];

deadline = array2d(1..92, 1..3, [1, 0, 4, 2, 2, 1, 2, 1, 3, 3, 3, 1, 11, 0, 2, 13, 5, 4, 15, 5, 1, 17, 1, 2, 20, 0, 3, 20, 0, 1, 21, 1, 1, 24, 0, 2, 28, 5, 1, 28, 5, 3, 32, 4, 0, 35, 1, 4, 38, 5, 5, 39, 0, 0, 39, 0, 0, 40, 0, 1, 41, 2, 1, 44, 5, 4, 46, 1, 4, 47, 1, 4, 47, 4, 3, 51, 0, 2, 55, 0, 2, 60, 4, 0, 62, 0, 3, 64, 5, 2, 69, 4, 1, 72, 5, 3, 74, 4, 1, 75, 2, 3, 75, 4, 2, 76, 3, 3, 78, 5, 2, 79, 5, 1, 80, 1, 3, 80, 0, 2, 81, 0, 1, 87, 4, 0, 88, 2, 5, 88, 5, 3, 89, 1, 5, 94, 2, 3, 96, 3, 1, 98, 0, 5, 104, 1, 1, 109, 3, 2, 110, 0, 5, 111, 5, 2, 115, 1, 5, 117, 0, 0, 119, 3, 4, 122, 3, 5, 122, 1, 0, 123, 1, 2, 127, 5, 5, 127, 0, 4, 128, 3, 0, 129, 4, 1, 130, 2, 0, 131, 2, 1, 131, 5, 1, 132, 5, 2, 133, 1, 1, 134, 1, 2, 139, 1, 2, 143, 5, 2, 144, 1, 4, 147, 5, 3, 148, 2, 5, 148, 5, 0, 151, 4, 4, 152, 1, 3, 152, 5, 0, 152, 4, 2, 153, 1, 3, 156, 4, 3, 157, 4, 5, 157, 5, 1, 159, 3, 0, 161, 5, 5, 162, 5, 0, 162, 3, 0, 167, 4, 1, 175, 2, 1, 178, 1, 2, 179, 5, 4, 180, 0, 0, 180, 4, 3]);
