n_res = 4;
rc = [ 27, 23, 37, 36 ];
n_tasks = 92;
d = [0, 6, 6, 2, 7, 3, 8, 2, 2, 9, 2, 1, 5, 1, 2, 7, 7, 4, 5, 3, 9, 4, 2, 4, 8, 4, 2, 7, 9, 3, 6, 10, 5, 9, 1, 1, 7, 2, 9, 6, 2, 7, 3, 6, 3, 5, 9, 10, 3, 2, 3, 10, 4, 1, 8, 2, 2, 1, 4, 1, 3, 3, 8, 10, 4, 6, 1, 7, 5, 8, 9, 7, 7, 4, 2, 10, 4, 3, 7, 5, 8, 10, 7, 5, 5, 4, 6, 10, 8, 4, 1, 0];
rr = array2d(1..4, 1..92, [0, 3, 0, 0, 2, 0, 6, 0, 0, 0, 0, 3, 4, 0, 3, 2, 0, 2, 4, 0, 1, 0, 3, 7, 0, 7, 9, 1, 5, 0, 3, 8, 0, 0, 4, 10, 0, 0, 2, 1, 2, 0, 0, 0, 1, 0, 0, 0, 9, 2, 4, 3, 1, 0, 6, 3, 1, 9, 10, 0, 9, 6, 0, 7, 9, 2, 10, 2, 0, 6, 1, 3, 4, 0, 0, 0, 8, 0, 0, 0, 0, 0, 9, 0, 0, 4, 0, 4, 0, 0, 9, 0, 0, 0, 2, 4, 8, 0, 0, 0, 1, 0, 10, 0, 0, 3, 5, 3, 5, 6, 5, 0, 0, 1, 9, 4, 5, 8, 10, 0, 6, 9, 0, 2, 0, 0, 5, 0, 0, 3, 0, 4, 0, 5, 0, 0, 1, 0, 5, 3, 10, 1, 0, 0, 7, 5, 2, 0, 0, 0, 0, 0, 0, 0, 3, 0, 0, 0, 0, 0, 0, 9, 10, 0, 0, 0, 0, 0, 1, 0, 0, 0, 0, 6, 0, 0, 6, 1, 0, 0, 0, 9, 3, 0, 0, 8, 7, 0, 0, 0, 2, 5, 0, 0, 0, 0, 0, 0, 0, 0, 8, 5, 10, 8, 0, 3, 0, 0, 10, 0, 0, 5, 0, 0, 9, 0, 0, 9, 0, 0, 7, 2, 0, 8, 1, 1, 1, 0, 2, 6, 9, 7, 0, 0, 0, 0, 8, 0, 0, 6, 0, 4, 1, 7, 6, 2, 0, 0, 0, 10, 8, 0, 2, 0, 0, 6, 10, 9, 2, 3, 0, 9, 0, 0, 3, 3, 0, 10, 8, 0, 0, 10, 6, 0, 7, 0, 0, 0, 0, 0, 3, 2, 0, 2, 5, 4, 6, 0, 4, 0, 0, 0, 0, 0, 0, 7, 0, 0, 0, 10, 2, 0, 0, 0, 10, 10, 2, 0, 1, 0, 4, 0, 0, 0, 3, 0, 0, 10, 10, 3, 10, 3, 6, 9, 0, 0, 3, 5, 2, 0, 4, 0, 0, 0, 0, 3, 8, 0, 0, 0, 4, 0, 0, 7, 0, 5, 0, 0, 0, 0, 2, 4, 0, 0, 5, 5, 0, 3, 2, 9, 1, 10, 3, 1, 0, 2, 0, 0]);

suc = [
   {2, 3, 4},
   {7},
   {8, 10, 11},
   {12, 5, 6},
   {56, 61, 14},
   {24, 15},
   {9, 19, 22},
   {44},
   {17, 13},
   {43, 37},
   {51},
   {20, 13, 60},
   {16, 25, 18},
   {27},
   {70},
   {34, 38, 39},
   {31, 36, 23},
   {48, 50, 62},
   {53, 21, 63},
   {41},
   {24, 84, 47},
   {75, 29},
   {26, 46},
   {64, 61},
   {69},
   {67, 28, 30},
   {72, 35},
   {52, 45, 54},
   {42, 83},
   {32},
   {74},
   {33},
   {78, 71},
   {89},
   {40, 49},
   {84},
   {70},
   {89},
   {52},
   {66},
   {90},
   {79},
   {65, 84},
   {62},
   {81},
   {59},
   {85},
   {56, 68},
   {64, 60},
   {82},
   {59},
   {73},
   {57},
   {55},
   {57},
   {65},
   {58},
   {81},
   {69},
   {66},
   {66, 71},
   {81, 77, 79},
   {78},
   {88},
   {71},
   {91, 76},
   {80},
   {76},
   {70},
   {74, 90},
   {74},
   {86},
   {85},
   {86},
   {83},
   {77},
   {87},
   {86},
   {85},
   {87},
   {82},
   {83},
   {91},
   {88},
   {91, 87},
   {88},
   {90},
   {89},
   {92},
   {92},
   {92},
   {  } ];

deadline = array2d(1..92, 1..3, [9, 3, 2, 9, 2, 5, 9, 2, 2, 11, 0, 3, 16, 1, 0, 17, 1, 2, 17, 5, 5, 22, 1, 1, 26, 1, 0, 27, 5, 1, 27, 5, 4, 30, 4, 1, 31, 5, 4, 37, 4, 0, 41, 3, 2, 47, 3, 2, 49, 4, 4, 50, 5, 1, 51, 5, 1, 52, 4, 4, 54, 0, 1, 55, 1, 2, 58, 5, 1, 59, 3, 5, 59, 1, 5, 62, 2, 0, 67, 0, 4, 72, 3, 5, 73, 5, 3, 75, 3, 2, 79, 4, 5, 81, 5, 2, 85, 5, 3, 88, 4, 2, 90, 2, 0, 91, 3, 3, 91, 0, 0, 93, 3, 3, 94, 1, 0, 94, 3, 4, 95, 0, 4, 95, 5, 1, 96, 3, 2, 98, 3, 3, 100, 3, 1, 101, 1, 0, 103, 1, 3, 104, 2, 3, 120, 3, 1, 122, 2, 1, 124, 0, 1, 125, 2, 2, 129, 0, 2, 130, 3, 0, 136, 2, 2, 137, 1, 1, 138, 2, 4, 138, 2, 1, 141, 5, 5, 142, 0, 2, 145, 0, 3, 147, 1, 2, 148, 1, 3, 149, 5, 0, 150, 3, 5, 150, 5, 3, 152, 0, 4, 153, 3, 2, 155, 1, 3, 156, 3, 4, 159, 4, 1, 161, 1, 1, 168, 0, 3, 168, 2, 1, 170, 2, 3, 170, 1, 2, 171, 3, 2, 173, 0, 1, 173, 0, 1, 177, 0, 0, 178, 0, 3, 179, 1, 0, 179, 2, 2, 181, 3, 0, 184, 5, 1, 189, 0, 4, 191, 1, 4, 191, 1, 4, 192, 0, 0, 193, 0, 2, 197, 0, 1, 201, 4, 3]);
