n_res = 4;
rc = [ 21, 30, 25, 38 ];
n_tasks = 92;
d = [0, 3, 3, 4, 3, 3, 5, 9, 8, 2, 1, 10, 4, 5, 10, 5, 4, 8, 10, 1, 4, 3, 7, 9, 4, 4, 8, 6, 2, 7, 1, 10, 4, 3, 4, 5, 2, 4, 10, 5, 2, 8, 8, 6, 1, 2, 10, 6, 10, 3, 3, 4, 3, 8, 10, 1, 4, 9, 8, 7, 3, 2, 5, 3, 8, 9, 5, 6, 1, 9, 8, 7, 7, 10, 8, 2, 6, 1, 4, 6, 3, 3, 10, 5, 9, 5, 5, 10, 5, 5, 2, 0];
rr = array2d(1..4, 1..92, [0, 0, 0, 0, 3, 0, 5, 4, 0, 0, 10, 3, 4, 5, 0, 8, 0, 0, 0, 0, 9, 0, 0, 0, 5, 2, 0, 0, 0, 0, 0, 0, 2, 6, 8, 0, 0, 10, 7, 0, 8, 0, 0, 2, 0, 5, 3, 0, 3, 0, 0, 8, 6, 0, 0, 0, 0, 0, 8, 7, 9, 3, 0, 2, 0, 0, 10, 0, 5, 0, 1, 0, 10, 0, 6, 0, 6, 0, 0, 0, 7, 0, 0, 0, 5, 7, 2, 0, 0, 0, 2, 0, 0, 1, 8, 0, 0, 8, 7, 0, 8, 2, 9, 0, 3, 0, 0, 0, 10, 1, 7, 0, 2, 2, 9, 5, 0, 0, 1, 1, 2, 10, 1, 0, 0, 7, 2, 7, 3, 0, 3, 3, 0, 0, 0, 0, 6, 0, 0, 7, 0, 8, 3, 0, 0, 8, 0, 0, 6, 0, 3, 0, 3, 1, 3, 0, 4, 0, 0, 9, 0, 0, 1, 1, 0, 1, 0, 5, 4, 6, 10, 10, 0, 6, 0, 1, 0, 8, 8, 2, 6, 0, 0, 0, 0, 0, 2, 8, 5, 0, 7, 0, 10, 0, 0, 0, 7, 0, 5, 2, 0, 4, 4, 7, 3, 0, 8, 0, 0, 3, 1, 0, 0, 0, 0, 6, 0, 0, 0, 0, 0, 0, 0, 0, 0, 6, 0, 0, 1, 5, 0, 0, 4, 0, 0, 0, 0, 6, 7, 4, 0, 0, 3, 9, 10, 3, 0, 0, 0, 5, 0, 4, 3, 7, 0, 2, 0, 1, 1, 10, 0, 4, 0, 2, 0, 0, 9, 2, 3, 6, 8, 9, 0, 0, 1, 0, 0, 7, 0, 7, 0, 10, 0, 7, 0, 4, 0, 6, 9, 10, 0, 0, 5, 4, 5, 2, 0, 7, 9, 0, 0, 2, 2, 0, 8, 0, 7, 2, 2, 0, 0, 10, 2, 0, 0, 10, 5, 0, 8, 10, 7, 0, 6, 0, 0, 3, 0, 0, 0, 3, 0, 9, 4, 3, 9, 2, 0, 3, 0, 0, 0, 1, 0, 8, 10, 0, 0, 0, 8, 0, 0, 3, 0, 0, 0, 0, 0, 1, 5, 7, 0, 0, 0, 8, 0, 3, 0, 0]);

suc = [
   {2, 3, 4},
   {31, 21, 7},
   {24, 20, 6},
   {81, 13, 5},
   {8, 9, 39},
   {16, 49, 85},
   {50, 12, 37},
   {10},
   {80, 53, 14},
   {57, 11, 15},
   {41, 29},
   {43, 19, 38},
   {32},
   {56, 67},
   {34, 35, 23},
   {17, 18, 44},
   {90, 47},
   {41, 27, 46},
   {58, 22},
   {36, 76, 68},
   {88},
   {60, 54, 47},
   {48, 42, 30},
   {25, 26, 45},
   {48, 28},
   {33, 71, 63},
   {51, 36},
   {33, 74, 37},
   {67},
   {32, 80, 70},
   {52, 70},
   {71},
   {57, 44},
   {40, 50, 59},
   {65, 84},
   {43, 60},
   {73, 52},
   {62},
   {58},
   {61},
   {51, 52},
   {69, 55},
   {47},
   {61, 55},
   {50, 51, 79},
   {61},
   {75, 53, 86},
   {80},
   {72, 91, 54},
   {56, 64, 87},
   {78},
   {66},
   {65},
   {64},
   {84},
   {66},
   {89},
   {73, 77},
   {77},
   {81, 78},
   {76},
   {66, 67},
   {65},
   {88},
   {79},
   {71},
   {83, 68, 70},
   {74, 77},
   {83, 85},
   {73, 76},
   {72},
   {82, 84},
   {85},
   {79},
   {81, 82, 83},
   {78},
   {86},
   {86},
   {82},
   {90},
   {91},
   {88},
   {87},
   {90},
   {89},
   {87},
   {91},
   {89},
   {92},
   {92},
   {92},
   {  } ];

deadline = array2d(1..92, 1..3, [1, 4, 4, 3, 0, 4, 5, 1, 2, 6, 3, 1, 9, 0, 4, 10, 2, 2, 10, 5, 3, 13, 0, 5, 14, 2, 3, 19, 4, 5, 23, 5, 5, 25, 5, 5, 26, 2, 2, 31, 1, 1, 35, 2, 3, 36, 1, 2, 37, 0, 1, 37, 5, 4, 41, 5, 5, 43, 1, 0, 44, 1, 3, 56, 5, 0, 58, 5, 2, 60, 0, 2, 60, 0, 5, 62, 0, 5, 62, 0, 3, 66, 2, 4, 67, 1, 1, 70, 2, 4, 71, 5, 0, 77, 5, 5, 84, 0, 2, 84, 4, 2, 85, 4, 1, 87, 0, 3, 90, 0, 5, 91, 5, 5, 92, 4, 0, 94, 3, 4, 94, 1, 2, 97, 3, 3, 97, 4, 3, 97, 2, 2, 98, 1, 5, 98, 4, 0, 98, 3, 4, 102, 5, 3, 111, 3, 4, 112, 5, 1, 114, 3, 1, 116, 1, 5, 120, 3, 1, 121, 1, 5, 122, 1, 0, 123, 4, 5, 124, 1, 4, 126, 5, 2, 129, 4, 5, 135, 5, 5, 140, 2, 1, 145, 3, 3, 145, 4, 2, 148, 3, 2, 150, 4, 2, 153, 4, 1, 157, 3, 4, 160, 0, 2, 164, 3, 0, 164, 1, 0, 164, 3, 5, 167, 3, 3, 169, 3, 5, 171, 0, 2, 171, 4, 5, 172, 0, 3, 176, 0, 1, 178, 3, 2, 182, 4, 5, 183, 0, 0, 187, 1, 3, 188, 1, 0, 191, 1, 1, 192, 2, 4, 193, 0, 5, 195, 1, 5, 201, 3, 5, 201, 0, 2, 201, 0, 1, 201, 5, 1, 202, 3, 5, 211, 3, 4]);
