n_res = 4;
rc = [ 21, 20, 24, 19 ];
n_tasks = 92;
d = [0, 9, 8, 1, 1, 9, 1, 2, 7, 8, 3, 7, 8, 9, 8, 9, 8, 2, 7, 6, 6, 2, 3, 8, 3, 2, 10, 8, 1, 7, 1, 8, 1, 3, 5, 6, 9, 5, 3, 4, 8, 6, 3, 6, 10, 4, 6, 2, 6, 3, 7, 6, 1, 6, 10, 6, 6, 2, 6, 3, 2, 7, 5, 9, 8, 4, 6, 7, 4, 4, 9, 1, 2, 1, 9, 3, 10, 4, 1, 10, 5, 4, 1, 10, 4, 8, 2, 5, 6, 7, 7, 0];
rr = array2d(1..4, 1..92, [0, 5, 1, 4, 5, 3, 1, 3, 9, 5, 8, 6, 6, 2, 10, 1, 8, 10, 10, 9, 4, 9, 8, 8, 5, 9, 7, 2, 8, 8, 4, 2, 7, 2, 7, 10, 2, 1, 7, 2, 9, 1, 7, 5, 4, 3, 8, 7, 1, 3, 8, 6, 6, 6, 3, 7, 3, 8, 8, 8, 10, 9, 4, 4, 6, 3, 8, 9, 3, 7, 3, 9, 10, 3, 7, 3, 3, 4, 5, 6, 5, 10, 1, 2, 7, 10, 6, 4, 8, 9, 6, 0, 0, 4, 5, 8, 1, 10, 3, 7, 3, 4, 7, 8, 8, 7, 4, 10, 3, 10, 9, 1, 3, 2, 10, 5, 7, 7, 8, 7, 3, 4, 10, 10, 10, 5, 3, 9, 1, 7, 10, 4, 9, 6, 4, 5, 8, 10, 4, 10, 10, 5, 6, 7, 10, 4, 6, 9, 3, 9, 2, 1, 5, 3, 8, 2, 2, 4, 10, 8, 7, 7, 1, 2, 4, 3, 3, 8, 2, 5, 6, 1, 9, 4, 1, 2, 3, 1, 3, 9, 9, 7, 10, 0, 0, 7, 5, 7, 10, 1, 9, 6, 8, 3, 10, 6, 5, 6, 7, 8, 10, 10, 5, 1, 7, 6, 8, 2, 9, 9, 5, 5, 6, 9, 10, 8, 7, 1, 9, 5, 8, 3, 8, 6, 3, 5, 10, 8, 6, 7, 3, 3, 8, 9, 2, 8, 10, 3, 5, 10, 6, 4, 7, 10, 7, 3, 9, 6, 1, 5, 9, 5, 9, 1, 7, 3, 3, 6, 10, 1, 3, 9, 2, 5, 8, 3, 4, 6, 5, 6, 6, 2, 2, 1, 5, 0, 0, 8, 10, 5, 10, 5, 6, 5, 1, 6, 2, 1, 5, 10, 3, 8, 2, 1, 3, 9, 6, 2, 1, 1, 1, 4, 9, 4, 4, 1, 9, 2, 9, 8, 5, 4, 8, 1, 10, 2, 1, 4, 6, 3, 8, 5, 6, 4, 10, 2, 5, 2, 4, 6, 9, 9, 3, 10, 5, 8, 10, 1, 1, 2, 6, 3, 5, 1, 3, 4, 4, 2, 2, 7, 7, 7, 8, 5, 3, 3, 10, 10, 6, 6, 1, 6, 10, 6, 9, 5, 7, 0]);

suc = [
   {2, 3, 4},
   {10, 44, 5},
   {33, 6, 23},
   {41, 44, 29},
   {9, 6, 7},
   {52},
   {8, 11, 20},
   {65, 21, 30},
   {38, 41, 14},
   {19, 12, 31},
   {64, 57, 62},
   {16, 17, 13},
   {32, 25, 23},
   {88, 15},
   {45},
   {50, 27, 70},
   {18, 42, 22},
   {57, 67},
   {67, 43, 29},
   {43, 52, 60},
   {66, 31},
   {24, 35, 69},
   {26, 35, 36},
   {32, 59, 53},
   {40, 28, 71},
   {48, 45, 78},
   {58, 37},
   {34, 42, 29},
   {51, 36},
   {55, 47},
   {58, 51, 54},
   {48, 43},
   {65, 44, 63},
   {46, 38, 39},
   {50, 58, 45},
   {62, 54, 55},
   {56, 81, 85},
   {76, 69, 47},
   {49, 67, 86},
   {60, 54, 76},
   {50, 78},
   {79},
   {63},
   {57, 68},
   {51},
   {72, 49, 53},
   {49, 59, 60},
   {64, 89, 83},
   {56, 73, 61},
   {64, 68, 71},
   {73, 52, 55},
   {56, 82},
   {75, 61},
   {73, 70, 79},
   {84},
   {87},
   {66},
   {74, 75, 82},
   {80, 61, 63},
   {72},
   {81, 90},
   {66, 75, 68},
   {77, 79},
   {65},
   {88},
   {84, 70},
   {69, 78},
   {85},
   {80},
   {77},
   {72},
   {74},
   {74, 77},
   {81, 83},
   {76, 86},
   {80},
   {82, 83},
   {91, 87},
   {86},
   {84, 85},
   {89},
   {87},
   {91},
   {90},
   {88},
   {91},
   {89},
   {90},
   {92},
   {92},
   {92},
   {  } ];

deadline = array2d(1..92, 1..3, [1, 3, 5, 2, 0, 2, 2, 0, 0, 4, 5, 3, 5, 5, 3, 7, 4, 5, 8, 3, 2, 10, 2, 3, 11, 2, 4, 16, 0, 4, 17, 0, 3, 23, 2, 2, 24, 2, 3, 24, 2, 0, 35, 5, 3, 38, 4, 5, 41, 3, 4, 42, 2, 1, 43, 0, 0, 43, 0, 2, 46, 3, 4, 49, 0, 5, 50, 3, 4, 55, 0, 4, 62, 5, 0, 73, 2, 5, 76, 0, 0, 77, 4, 5, 86, 4, 2, 91, 4, 3, 92, 1, 3, 92, 5, 3, 94, 4, 5, 97, 1, 3, 99, 4, 4, 100, 2, 5, 102, 4, 3, 104, 1, 2, 104, 4, 3, 106, 4, 3, 110, 2, 2, 111, 2, 1, 113, 3, 3, 119, 2, 0, 119, 5, 2, 120, 4, 0, 121, 4, 0, 121, 0, 2, 124, 5, 3, 128, 3, 2, 130, 5, 1, 133, 2, 0, 134, 3, 3, 137, 1, 2, 144, 1, 4, 144, 4, 5, 149, 0, 5, 149, 5, 2, 150, 1, 5, 152, 4, 1, 156, 0, 4, 158, 3, 5, 159, 4, 5, 160, 2, 1, 163, 5, 0, 163, 2, 1, 164, 5, 2, 167, 2, 0, 168, 5, 4, 169, 0, 5, 169, 5, 2, 170, 4, 4, 174, 5, 3, 175, 3, 3, 177, 0, 1, 177, 2, 4, 182, 0, 0, 183, 2, 0, 185, 4, 2, 189, 1, 0, 194, 0, 5, 201, 0, 1, 202, 3, 5, 205, 1, 3, 208, 5, 4, 212, 1, 4, 214, 4, 2, 214, 1, 4, 222, 4, 5, 226, 1, 4, 230, 1, 3, 232, 4, 1]);
