n_res = 4;
rc = [ 22, 22, 27, 23 ];
n_tasks = 92;
d = [0, 7, 10, 6, 5, 3, 7, 3, 6, 6, 1, 1, 7, 1, 2, 8, 8, 7, 8, 2, 8, 7, 4, 8, 9, 1, 5, 8, 4, 9, 2, 2, 8, 1, 4, 10, 3, 10, 2, 8, 4, 5, 9, 7, 6, 8, 1, 5, 10, 10, 4, 10, 3, 7, 2, 3, 2, 3, 9, 6, 4, 7, 7, 2, 1, 3, 6, 8, 1, 4, 4, 8, 8, 8, 3, 3, 2, 3, 1, 9, 7, 7, 10, 9, 2, 8, 8, 1, 1, 1, 3, 0];
rr = array2d(1..4, 1..92, [0, 0, 0, 0, 8, 0, 1, 0, 0, 0, 0, 0, 1, 0, 0, 0, 0, 0, 0, 0, 0, 0, 3, 0, 0, 0, 0, 0, 0, 0, 9, 0, 10, 0, 10, 0, 0, 0, 5, 0, 0, 0, 0, 7, 10, 1, 0, 0, 0, 0, 0, 5, 0, 0, 0, 0, 0, 0, 8, 0, 6, 0, 0, 0, 0, 9, 1, 0, 0, 10, 0, 0, 0, 0, 0, 0, 3, 0, 0, 0, 0, 0, 0, 0, 0, 0, 0, 4, 0, 0, 0, 0, 0, 0, 0, 5, 0, 0, 0, 0, 0, 0, 0, 0, 0, 0, 0, 0, 0, 0, 6, 8, 8, 0, 0, 5, 0, 9, 0, 0, 0, 0, 0, 0, 0, 0, 0, 0, 5, 2, 0, 0, 3, 0, 5, 0, 0, 0, 9, 5, 10, 0, 0, 0, 0, 0, 0, 0, 1, 3, 0, 0, 0, 3, 0, 0, 0, 0, 0, 3, 0, 0, 8, 0, 0, 1, 7, 10, 0, 2, 5, 6, 0, 0, 0, 6, 2, 0, 6, 0, 0, 5, 0, 0, 0, 9, 4, 0, 0, 0, 0, 0, 10, 0, 0, 8, 0, 0, 0, 3, 8, 0, 0, 0, 0, 0, 0, 0, 9, 0, 4, 0, 8, 8, 0, 6, 0, 0, 0, 0, 0, 0, 0, 3, 0, 6, 0, 0, 0, 0, 0, 0, 0, 1, 7, 0, 0, 9, 0, 0, 0, 0, 0, 4, 0, 0, 3, 5, 1, 0, 0, 0, 2, 0, 0, 1, 0, 0, 0, 0, 0, 0, 0, 0, 0, 7, 0, 0, 0, 10, 0, 0, 0, 0, 0, 0, 0, 0, 0, 0, 0, 9, 0, 9, 0, 5, 3, 0, 0, 6, 3, 0, 0, 5, 0, 0, 0, 7, 0, 0, 0, 0, 0, 10, 0, 0, 0, 0, 0, 9, 0, 1, 0, 0, 0, 0, 0, 0, 0, 0, 0, 0, 0, 0, 0, 0, 0, 0, 9, 0, 7, 10, 0, 0, 0, 0, 0, 0, 0, 0, 0, 0, 0, 0, 0, 0, 0, 0, 6, 0, 0, 0, 0, 0, 0, 0, 2, 0, 3, 0, 0, 0, 0, 0, 8, 0, 7, 0]);

suc = [
   {2, 3, 4},
   {8, 5, 7},
   {18, 11, 36},
   {77, 13},
   {38, 80, 6},
   {34},
   {33},
   {9, 10, 12},
   {74, 52, 37},
   {24, 17, 20},
   {19, 31},
   {15},
   {58, 21, 14},
   {67, 53, 29},
   {16, 35, 22},
   {26, 54, 63},
   {40, 73, 76},
   {49, 51},
   {32},
   {30},
   {25, 46, 63},
   {45, 23},
   {41, 46, 57},
   {28},
   {70, 47},
   {50, 27, 60},
   {55},
   {49, 71},
   {59},
   {56, 36, 39},
   {75, 43, 86},
   {60},
   {48, 81, 56},
   {40},
   {42, 69, 39},
   {59, 66, 43},
   {55},
   {42, 83, 63},
   {82},
   {57},
   {44, 62},
   {74, 85},
   {71},
   {85},
   {47},
   {66, 61},
   {48, 54},
   {88, 52, 61},
   {52},
   {65, 75, 51},
   {64, 71},
   {64, 89, 76},
   {70, 69, 62},
   {65},
   {57, 83},
   {59},
   {82},
   {88, 90, 79},
   {64, 79},
   {68},
   {76},
   {73, 66},
   {68},
   {91},
   {81, 67},
   {80},
   {69},
   {70},
   {73, 87},
   {78},
   {72, 74, 78},
   {84, 77},
   {79},
   {84},
   {85, 77, 78},
   {90},
   {81},
   {82},
   {91, 83},
   {84, 86},
   {87},
   {90},
   {86},
   {87},
   {89},
   {89},
   {88},
   {91},
   {92},
   {92},
   {92},
   {  } ];

deadline = array2d(1..92, 1..3, [1, 0, 2, 4, 2, 4, 5, 4, 2, 7, 4, 1, 10, 0, 1, 12, 4, 1, 12, 3, 3, 13, 0, 1, 15, 0, 4, 21, 5, 0, 22, 0, 5, 26, 2, 5, 27, 0, 5, 28, 0, 0, 29, 3, 3, 32, 2, 0, 37, 2, 1, 39, 3, 0, 42, 5, 0, 43, 4, 2, 46, 1, 2, 50, 2, 3, 52, 1, 4, 53, 3, 1, 53, 2, 2, 54, 4, 1, 56, 2, 5, 57, 2, 1, 60, 4, 2, 60, 3, 3, 62, 4, 4, 66, 4, 1, 66, 0, 2, 67, 4, 1, 69, 3, 0, 75, 1, 0, 79, 3, 5, 82, 1, 0, 89, 4, 3, 89, 1, 1, 91, 3, 4, 91, 3, 1, 94, 5, 2, 94, 4, 2, 97, 1, 3, 98, 4, 4, 99, 0, 5, 101, 2, 5, 101, 2, 4, 102, 5, 1, 104, 5, 1, 106, 2, 0, 117, 1, 2, 119, 4, 5, 119, 0, 5, 120, 1, 3, 121, 5, 5, 121, 5, 3, 122, 3, 5, 129, 5, 3, 134, 0, 5, 135, 4, 1, 136, 3, 4, 137, 2, 2, 138, 5, 1, 139, 3, 5, 140, 0, 2, 143, 4, 3, 144, 0, 2, 149, 2, 1, 151, 5, 4, 154, 1, 1, 156, 0, 3, 156, 5, 1, 158, 0, 3, 160, 0, 1, 161, 1, 3, 165, 0, 3, 166, 0, 0, 169, 0, 1, 170, 0, 5, 172, 3, 4, 172, 5, 2, 174, 3, 4, 178, 4, 4, 183, 0, 2, 184, 2, 0, 185, 2, 4, 187, 4, 2, 191, 4, 3, 193, 1, 0, 196, 5, 3]);
