n_res = 4;
rc = [ 50, 52, 42, 44 ];
n_tasks = 92;
d = [0, 8, 7, 3, 5, 1, 2, 8, 7, 1, 4, 1, 7, 8, 8, 8, 7, 9, 8, 9, 8, 2, 5, 9, 10, 5, 9, 4, 3, 8, 7, 3, 5, 6, 5, 10, 4, 10, 7, 8, 8, 3, 4, 4, 7, 2, 10, 4, 8, 5, 1, 3, 6, 10, 10, 1, 9, 2, 9, 6, 6, 8, 1, 9, 6, 1, 1, 7, 1, 4, 1, 3, 9, 1, 1, 9, 3, 7, 9, 9, 3, 8, 10, 7, 6, 2, 2, 9, 9, 3, 5, 0];
rr = array2d(1..4, 1..92, [0, 0, 6, 0, 2, 10, 4, 8, 6, 9, 5, 0, 9, 9, 5, 0, 9, 9, 6, 0, 10, 5, 0, 8, 9, 9, 10, 9, 5, 6, 0, 10, 9, 0, 0, 0, 0, 0, 4, 2, 5, 0, 7, 0, 10, 0, 5, 7, 2, 4, 6, 4, 0, 9, 4, 8, 8, 9, 5, 0, 1, 5, 3, 0, 4, 3, 5, 0, 10, 8, 3, 5, 0, 1, 7, 2, 5, 4, 6, 0, 8, 3, 0, 1, 2, 8, 3, 5, 1, 8, 6, 0, 0, 1, 0, 7, 10, 0, 9, 0, 8, 0, 0, 0, 6, 8, 3, 3, 10, 0, 4, 3, 0, 7, 10, 10, 9, 6, 7, 3, 10, 0, 1, 8, 9, 0, 9, 5, 3, 0, 5, 0, 0, 9, 0, 7, 6, 4, 6, 0, 0, 4, 8, 4, 3, 8, 10, 0, 0, 5, 5, 2, 6, 0, 0, 4, 0, 7, 7, 7, 10, 4, 9, 10, 3, 2, 1, 0, 3, 10, 2, 9, 7, 2, 8, 4, 8, 7, 9, 5, 8, 6, 8, 0, 0, 0, 4, 4, 0, 8, 4, 8, 1, 10, 7, 2, 0, 3, 7, 6, 1, 9, 5, 2, 7, 0, 2, 9, 0, 5, 0, 1, 9, 3, 0, 4, 8, 2, 6, 7, 10, 7, 0, 3, 9, 6, 0, 10, 1, 7, 9, 5, 1, 0, 0, 8, 7, 5, 8, 3, 4, 8, 3, 7, 5, 4, 2, 0, 0, 8, 10, 4, 6, 0, 0, 8, 5, 7, 0, 4, 0, 1, 3, 1, 8, 2, 0, 6, 6, 9, 0, 3, 0, 10, 0, 0, 0, 0, 8, 10, 10, 10, 1, 2, 10, 5, 4, 0, 4, 10, 0, 2, 6, 0, 8, 0, 0, 0, 6, 0, 9, 10, 0, 0, 0, 7, 10, 9, 5, 5, 1, 1, 8, 5, 6, 1, 7, 2, 1, 9, 0, 9, 3, 2, 0, 6, 9, 2, 5, 0, 0, 0, 5, 0, 7, 6, 5, 2, 8, 8, 10, 7, 9, 2, 10, 4, 2, 0, 0, 0, 5, 10, 5, 7, 9, 8, 0, 3, 4, 2, 1, 7, 3, 0, 0, 2, 0, 0]);

suc = [
   {2, 3, 4},
   {38, 9, 17},
   {38, 7},
   {5, 6, 23},
   {41, 10, 21},
   {8, 11, 69},
   {12, 13, 36},
   {52, 55},
   {33, 61, 45},
   {86},
   {16, 20, 37},
   {35, 30, 47},
   {27, 29, 14},
   {34, 15},
   {28},
   {17, 18, 19},
   {24, 44, 31},
   {33, 31},
   {40, 26, 27},
   {25, 59, 57},
   {50, 22, 47},
   {48, 51, 68},
   {32, 60, 85},
   {43, 28, 55},
   {32, 45, 62},
   {72, 44},
   {63},
   {40, 41, 65},
   {48, 89, 46},
   {65, 37, 39},
   {41, 87},
   {51, 54},
   {34, 53, 54},
   {64, 49, 62},
   {72},
   {40, 48, 58},
   {49, 74, 53},
   {73, 67},
   {42, 44, 69},
   {49, 46, 71},
   {57, 85, 46},
   {43, 53},
   {77, 78},
   {52, 45},
   {58, 76, 79},
   {90},
   {56, 58, 64},
   {91},
   {56, 57},
   {72, 51, 62},
   {77},
   {56, 66, 61},
   {70},
   {67, 71},
   {88, 66, 59},
   {81, 59},
   {88},
   {78, 63},
   {76, 63},
   {64, 61},
   {73, 68},
   {73, 65, 68},
   {83},
   {75, 67},
   {66, 90, 82},
   {81, 70},
   {82, 79},
   {74, 75},
   {74, 70, 71},
   {84, 78},
   {80},
   {81, 76, 77},
   {75, 86},
   {80},
   {79},
   {80, 83},
   {82},
   {83},
   {88},
   {84},
   {84},
   {87},
   {85, 86},
   {87},
   {89},
   {91},
   {89},
   {90, 91},
   {92},
   {92},
   {92},
   {  } ];

deadline = array2d(1..92, 1..3, [1, 2, 3, 3, 0, 4, 5, 2, 0, 6, 5, 2, 6, 0, 3, 19, 3, 5, 28, 2, 2, 29, 4, 0, 30, 5, 5, 32, 5, 4, 33, 3, 1, 33, 3, 2, 33, 1, 3, 35, 2, 5, 38, 4, 1, 43, 1, 2, 44, 3, 1, 45, 5, 1, 49, 1, 5, 50, 2, 2, 51, 5, 0, 51, 4, 5, 51, 2, 1, 52, 5, 2, 53, 5, 4, 54, 3, 4, 54, 3, 5, 59, 5, 4, 68, 4, 1, 71, 5, 2, 77, 3, 0, 78, 1, 4, 85, 1, 2, 88, 4, 3, 90, 3, 2, 94, 3, 0, 94, 1, 2, 98, 3, 3, 99, 0, 5, 100, 2, 3, 110, 2, 0, 115, 5, 3, 117, 0, 5, 118, 2, 3, 119, 4, 2, 120, 4, 1, 123, 0, 0, 129, 2, 3, 133, 3, 2, 133, 2, 1, 136, 1, 2, 141, 0, 0, 143, 5, 2, 144, 1, 3, 148, 2, 4, 152, 0, 3, 152, 0, 1, 154, 5, 2, 158, 4, 4, 159, 4, 2, 162, 1, 0, 166, 5, 0, 166, 0, 1, 170, 0, 5, 170, 5, 0, 173, 0, 4, 174, 0, 3, 174, 2, 4, 177, 1, 1, 178, 0, 5, 180, 1, 0, 181, 0, 3, 183, 4, 2, 183, 1, 2, 198, 0, 3, 201, 5, 4, 204, 0, 4, 207, 0, 5, 211, 4, 3, 215, 3, 4, 215, 0, 4, 218, 3, 5, 221, 0, 3, 222, 2, 4, 224, 4, 0, 225, 5, 5, 226, 3, 5, 230, 0, 5, 235, 5, 2, 238, 0, 5, 239, 1, 3, 245, 1, 1]);
