n_res = 4;
rc = [ 22, 23, 24, 22 ];
n_tasks = 92;
d = [0, 8, 3, 4, 1, 5, 6, 5, 10, 2, 8, 1, 1, 7, 2, 4, 8, 1, 9, 4, 1, 1, 6, 5, 4, 7, 5, 6, 6, 4, 2, 9, 5, 7, 8, 9, 2, 2, 9, 9, 7, 1, 3, 5, 6, 10, 1, 1, 4, 10, 5, 10, 7, 2, 6, 7, 3, 8, 8, 7, 5, 2, 2, 4, 8, 8, 9, 5, 2, 10, 6, 6, 5, 9, 9, 3, 9, 5, 2, 2, 8, 6, 4, 2, 2, 1, 3, 8, 8, 5, 10, 0];
rr = array2d(1..4, 1..92, [0, 0, 0, 0, 0, 0, 0, 0, 3, 0, 6, 8, 7, 0, 0, 0, 0, 2, 0, 5, 0, 7, 0, 0, 0, 0, 0, 0, 0, 0, 2, 0, 0, 0, 0, 0, 0, 0, 0, 0, 10, 0, 0, 0, 0, 0, 0, 0, 0, 5, 6, 0, 0, 0, 9, 0, 7, 0, 0, 0, 0, 0, 0, 4, 0, 4, 2, 9, 7, 0, 0, 0, 0, 0, 0, 0, 0, 6, 9, 0, 0, 0, 6, 0, 0, 0, 3, 0, 3, 10, 0, 0, 0, 0, 0, 6, 5, 6, 0, 0, 0, 0, 0, 0, 0, 0, 0, 0, 7, 0, 2, 0, 0, 0, 7, 6, 0, 0, 1, 0, 0, 0, 0, 0, 5, 0, 2, 3, 0, 2, 0, 8, 0, 0, 0, 10, 0, 0, 0, 2, 0, 0, 0, 4, 0, 7, 0, 4, 0, 0, 0, 5, 0, 0, 0, 0, 2, 0, 0, 0, 0, 10, 1, 0, 0, 0, 0, 6, 3, 0, 0, 0, 0, 1, 0, 0, 0, 0, 0, 0, 0, 0, 7, 0, 0, 0, 0, 0, 0, 0, 10, 1, 0, 0, 0, 0, 0, 10, 4, 0, 0, 0, 0, 0, 0, 0, 0, 0, 0, 3, 0, 0, 10, 3, 0, 0, 0, 0, 0, 0, 0, 0, 6, 0, 0, 0, 2, 0, 0, 10, 0, 0, 2, 0, 0, 0, 5, 0, 0, 0, 0, 6, 0, 0, 0, 7, 0, 0, 0, 0, 0, 0, 0, 0, 0, 5, 0, 8, 0, 0, 0, 0, 0, 0, 0, 0, 0, 5, 0, 7, 0, 0, 0, 0, 0, 0, 0, 8, 5, 0, 0, 0, 0, 0, 0, 7, 0, 0, 0, 0, 0, 9, 0, 0, 0, 0, 10, 0, 0, 0, 6, 0, 0, 1, 0, 0, 0, 10, 0, 5, 0, 0, 4, 0, 0, 0, 0, 4, 0, 0, 3, 0, 4, 0, 0, 0, 0, 0, 0, 0, 0, 0, 0, 0, 9, 0, 1, 0, 9, 0, 0, 0, 0, 0, 0, 0, 0, 0, 3, 0, 9, 0, 0, 0, 0, 5, 4, 0, 0, 0, 4, 0, 0, 10, 0, 0, 0, 0]);

suc = [
   {2, 3, 4},
   {11, 23, 7},
   {8, 5, 6},
   {9, 21, 49},
   {17, 10, 43},
   {17, 12},
   {17, 10, 13},
   {16, 25, 23},
   {33, 61, 41},
   {50, 19, 53},
   {45, 14, 15},
   {80, 26, 34},
   {60, 63, 31},
   {29, 54},
   {24, 18, 20},
   {24, 26, 22},
   {89, 77, 38},
   {25, 50, 28},
   {78, 30},
   {54, 38, 39},
   {72, 37},
   {27},
   {48, 42, 31},
   {74, 67, 52},
   {73},
   {29, 46, 47},
   {48, 34},
   {48, 57, 36},
   {91, 61},
   {32, 42, 58},
   {40, 33, 36},
   {49, 59, 85},
   {65, 45, 55},
   {56, 65, 35},
   {44},
   {72, 59, 69},
   {41, 68, 55},
   {74},
   {56, 65, 62},
   {84, 47},
   {75, 66, 43},
   {49, 60, 70},
   {57, 44, 45},
   {82, 53},
   {50, 53, 47},
   {88, 57, 55},
   {67},
   {51},
   {62},
   {80, 79},
   {64, 60, 68},
   {83, 75, 61},
   {64, 88, 79},
   {78, 84, 62},
   {73, 74},
   {67, 70, 63},
   {64, 59, 69},
   {73, 66, 75},
   {86},
   {72, 76},
   {66, 76},
   {63},
   {71},
   {77},
   {78, 68, 70},
   {79, 71},
   {69},
   {83, 87},
   {81},
   {71},
   {77},
   {81, 82},
   {89, 84},
   {76, 87},
   {80, 89},
   {90},
   {90},
   {81, 82},
   {85},
   {86},
   {85},
   {83},
   {88},
   {91},
   {86},
   {87},
   {90},
   {91},
   {92},
   {92},
   {92},
   {  } ];

deadline = array2d(1..92, 1..3, [5, 3, 1, 5, 1, 2, 6, 1, 3, 8, 3, 0, 13, 2, 3, 14, 2, 0, 16, 1, 5, 17, 2, 0, 20, 0, 3, 23, 3, 0, 26, 1, 5, 26, 5, 3, 27, 3, 4, 28, 2, 3, 30, 2, 0, 31, 5, 2, 33, 3, 2, 37, 4, 5, 37, 3, 0, 38, 5, 4, 39, 5, 0, 44, 2, 0, 46, 5, 1, 47, 0, 5, 48, 2, 0, 49, 0, 2, 49, 2, 5, 53, 2, 2, 53, 0, 0, 54, 1, 1, 54, 5, 5, 54, 1, 3, 55, 3, 1, 60, 5, 1, 65, 5, 5, 67, 1, 3, 68, 5, 0, 71, 2, 1, 76, 4, 2, 78, 4, 1, 82, 4, 3, 87, 0, 0, 87, 2, 0, 87, 0, 3, 88, 5, 5, 94, 2, 2, 95, 4, 2, 96, 1, 1, 97, 5, 5, 98, 0, 2, 101, 3, 2, 101, 4, 4, 106, 4, 0, 106, 3, 4, 107, 1, 4, 107, 4, 3, 108, 0, 0, 109, 0, 2, 111, 4, 5, 111, 0, 4, 111, 4, 0, 113, 3, 0, 114, 2, 2, 117, 1, 5, 118, 2, 5, 119, 1, 4, 122, 0, 3, 122, 1, 1, 126, 2, 2, 132, 2, 4, 133, 4, 1, 134, 0, 5, 136, 3, 1, 136, 0, 1, 143, 3, 2, 146, 5, 5, 146, 3, 2, 148, 4, 2, 149, 3, 0, 153, 2, 2, 155, 4, 3, 159, 3, 1, 162, 0, 4, 162, 1, 3, 163, 4, 0, 168, 3, 3, 168, 2, 2, 169, 4, 2, 170, 4, 3, 173, 0, 1, 177, 3, 1, 180, 3, 1]);
