n_res = 4;
rc = [ 15, 14, 10, 13 ];
n_tasks = 92;
d = [0, 2, 10, 6, 7, 5, 7, 6, 1, 7, 3, 7, 2, 3, 7, 3, 10, 5, 9, 4, 4, 6, 2, 10, 10, 1, 9, 7, 7, 5, 10, 3, 10, 6, 6, 1, 9, 7, 4, 2, 9, 5, 8, 1, 2, 3, 2, 4, 6, 4, 3, 1, 3, 3, 7, 7, 4, 6, 5, 3, 7, 8, 10, 8, 10, 3, 5, 10, 3, 4, 1, 5, 6, 9, 4, 1, 7, 7, 7, 8, 1, 1, 7, 5, 3, 9, 6, 7, 7, 8, 8, 0];
rr = array2d(1..4, 1..92, [0, 1, 0, 0, 0, 0, 5, 0, 0, 1, 0, 9, 0, 0, 5, 2, 0, 0, 3, 8, 0, 5, 0, 7, 0, 0, 0, 3, 0, 6, 0, 0, 0, 0, 4, 0, 0, 0, 0, 0, 6, 0, 10, 0, 0, 4, 0, 5, 1, 0, 0, 2, 0, 9, 3, 0, 0, 0, 0, 0, 0, 0, 0, 0, 0, 0, 0, 0, 6, 0, 0, 0, 1, 0, 0, 4, 0, 10, 1, 0, 0, 0, 0, 0, 0, 0, 3, 0, 0, 0, 0, 0, 0, 0, 1, 6, 0, 1, 0, 0, 9, 0, 6, 0, 0, 0, 0, 0, 0, 0, 0, 0, 0, 0, 8, 0, 0, 0, 2, 0, 3, 0, 0, 10, 9, 1, 0, 1, 0, 0, 0, 3, 0, 0, 0, 8, 0, 0, 9, 0, 0, 0, 0, 0, 8, 0, 0, 0, 5, 8, 1, 8, 0, 0, 4, 3, 9, 8, 0, 0, 0, 0, 2, 6, 0, 0, 0, 0, 0, 0, 0, 0, 0, 0, 0, 0, 3, 1, 0, 0, 0, 0, 2, 0, 0, 0, 0, 0, 0, 0, 0, 0, 0, 0, 0, 0, 0, 0, 0, 0, 6, 0, 0, 0, 7, 0, 0, 0, 4, 0, 0, 0, 0, 0, 2, 0, 0, 0, 0, 0, 0, 0, 0, 0, 0, 3, 0, 0, 3, 0, 0, 0, 0, 0, 0, 0, 0, 0, 0, 0, 0, 0, 0, 0, 4, 3, 0, 0, 0, 0, 0, 0, 0, 2, 0, 0, 0, 8, 0, 0, 0, 0, 0, 0, 0, 0, 5, 3, 0, 0, 0, 0, 6, 5, 0, 0, 0, 0, 0, 0, 4, 0, 0, 9, 0, 0, 0, 0, 1, 4, 0, 0, 0, 5, 0, 0, 0, 0, 0, 0, 0, 7, 0, 0, 0, 0, 0, 0, 0, 0, 0, 0, 5, 2, 10, 0, 0, 0, 0, 0, 0, 0, 0, 0, 0, 2, 2, 0, 0, 0, 0, 5, 0, 0, 0, 0, 0, 0, 0, 0, 0, 0, 2, 3, 0, 0, 0, 0, 0, 0, 3, 0, 10, 0, 0, 3, 6, 10, 0, 0, 0, 0, 0, 6, 0, 0, 0, 0]);

suc = [
   {2, 3, 4},
   {9, 19, 6},
   {10, 5, 7},
   {62, 38, 23},
   {16, 27, 45},
   {17, 11, 13},
   {8, 24, 54},
   {59, 12},
   {24, 65, 18},
   {26, 34, 46},
   {32, 66, 22},
   {60, 21},
   {37, 29, 14},
   {20, 36, 15},
   {34, 61},
   {18, 43},
   {32, 53, 39},
   {48, 56, 47},
   {41, 78, 31},
   {73, 50, 28},
   {83, 55},
   {33, 69, 71},
   {40, 25, 53},
   {48, 35, 86},
   {75, 26, 67},
   {32, 65},
   {48, 42, 80},
   {49, 76},
   {30},
   {49, 52, 38},
   {53},
   {72, 91, 70},
   {88, 43, 36},
   {58, 47},
   {44},
   {51, 77, 78},
   {41, 44, 38},
   {54},
   {56, 52},
   {42, 85},
   {64, 43, 45},
   {57, 52},
   {72, 49, 82},
   {50, 45, 55},
   {57, 68},
   {67, 51, 54},
   {84, 62},
   {69, 79, 71},
   {89, 74},
   {64, 67, 70},
   {72, 63},
   {81, 60},
   {58, 61, 55},
   {56, 60, 63},
   {64, 57, 73},
   {58, 66, 79},
   {81},
   {75, 68},
   {74, 61, 62},
   {88},
   {77, 70, 63},
   {73, 75},
   {80, 65, 76},
   {66},
   {83, 84},
   {68, 77},
   {69},
   {76},
   {78, 87},
   {79, 71},
   {89, 83},
   {74, 84},
   {88},
   {85},
   {80},
   {81},
   {82},
   {89},
   {90},
   {86},
   {82},
   {91, 87},
   {90},
   {85},
   {86},
   {87},
   {90},
   {91},
   {92},
   {92},
   {92},
   {  } ];

deadline = array2d(1..92, 1..3, [1, 2, 4, 2, 0, 5, 3, 2, 5, 4, 2, 5, 6, 1, 2, 6, 3, 2, 7, 1, 1, 8, 4, 2, 9, 5, 4, 13, 5, 2, 16, 3, 3, 16, 3, 1, 17, 0, 2, 17, 5, 4, 19, 0, 1, 20, 2, 0, 22, 0, 3, 23, 2, 0, 26, 2, 3, 26, 0, 5, 30, 0, 2, 40, 1, 3, 41, 0, 4, 42, 2, 0, 44, 3, 0, 48, 0, 2, 50, 2, 1, 55, 0, 5, 58, 0, 3, 59, 4, 5, 61, 1, 0, 62, 0, 2, 66, 4, 3, 66, 2, 5, 70, 2, 5, 70, 1, 2, 76, 4, 0, 78, 5, 0, 87, 0, 1, 99, 3, 0, 105, 2, 1, 107, 1, 4, 115, 4, 3, 119, 3, 0, 120, 1, 2, 121, 0, 3, 123, 0, 0, 123, 0, 4, 124, 1, 3, 125, 1, 1, 125, 0, 3, 126, 4, 2, 128, 5, 5, 132, 4, 4, 135, 3, 0, 136, 1, 2, 139, 1, 1, 139, 1, 1, 141, 0, 2, 142, 0, 5, 142, 1, 3, 145, 1, 1, 147, 1, 2, 148, 5, 5, 151, 3, 0, 151, 1, 1, 154, 0, 1, 156, 4, 3, 158, 4, 0, 158, 3, 3, 158, 2, 1, 162, 2, 3, 163, 2, 3, 164, 4, 5, 165, 3, 4, 166, 4, 2, 167, 1, 1, 168, 1, 5, 177, 1, 4, 188, 4, 3, 189, 2, 1, 194, 1, 0, 196, 2, 5, 203, 5, 5, 203, 1, 5, 203, 4, 4, 204, 4, 2, 209, 5, 2, 211, 4, 1, 211, 0, 3, 211, 1, 4, 215, 1, 2]);
