n_res = 4;
rc = [ 46, 54, 46, 54 ];
n_tasks = 92;
d = [0, 8, 4, 2, 8, 9, 2, 1, 1, 9, 9, 1, 9, 1, 8, 6, 10, 9, 3, 3, 1, 10, 6, 5, 9, 3, 2, 8, 1, 2, 1, 4, 2, 7, 5, 6, 6, 4, 7, 3, 8, 1, 10, 8, 3, 6, 1, 2, 3, 3, 2, 2, 4, 7, 6, 3, 2, 4, 5, 10, 2, 5, 10, 4, 2, 3, 2, 5, 6, 4, 2, 9, 10, 7, 5, 6, 5, 7, 10, 6, 6, 3, 8, 9, 5, 3, 6, 5, 5, 9, 10, 0];
rr = array2d(1..4, 1..92, [0, 3, 1, 8, 10, 2, 10, 3, 9, 6, 7, 6, 4, 2, 9, 6, 7, 1, 8, 2, 4, 8, 9, 3, 2, 6, 9, 7, 4, 5, 5, 2, 2, 1, 4, 8, 7, 4, 3, 8, 6, 2, 6, 1, 7, 8, 9, 10, 5, 8, 4, 10, 3, 1, 9, 3, 4, 7, 2, 2, 9, 5, 7, 4, 6, 7, 8, 4, 10, 5, 8, 6, 3, 4, 1, 3, 7, 4, 9, 8, 6, 4, 4, 4, 7, 7, 7, 1, 4, 4, 8, 0, 0, 4, 10, 2, 4, 9, 3, 10, 1, 9, 5, 7, 9, 5, 4, 2, 6, 9, 8, 10, 7, 4, 4, 8, 5, 7, 5, 6, 10, 1, 3, 9, 2, 4, 4, 1, 3, 7, 3, 6, 7, 9, 6, 4, 3, 1, 7, 8, 10, 8, 1, 4, 10, 6, 2, 8, 7, 6, 10, 6, 9, 6, 9, 1, 6, 2, 5, 7, 8, 10, 6, 2, 1, 10, 2, 2, 7, 3, 4, 3, 6, 5, 5, 7, 4, 6, 9, 7, 2, 1, 7, 0, 0, 8, 4, 2, 2, 4, 7, 9, 9, 2, 5, 7, 9, 7, 6, 4, 2, 4, 1, 7, 6, 4, 2, 8, 8, 9, 2, 6, 8, 4, 1, 1, 4, 5, 8, 10, 1, 3, 3, 9, 5, 7, 1, 3, 10, 1, 7, 7, 2, 5, 2, 7, 5, 9, 5, 1, 7, 5, 10, 1, 4, 3, 7, 7, 8, 1, 7, 3, 5, 10, 6, 2, 4, 4, 1, 7, 10, 7, 4, 2, 7, 7, 5, 2, 9, 6, 9, 7, 2, 10, 4, 0, 0, 2, 8, 2, 3, 9, 2, 7, 9, 3, 7, 1, 10, 4, 4, 2, 8, 4, 1, 10, 9, 1, 9, 3, 5, 3, 4, 9, 8, 6, 6, 5, 4, 4, 1, 10, 7, 2, 10, 8, 5, 5, 2, 8, 1, 1, 10, 8, 6, 8, 10, 10, 10, 5, 2, 9, 4, 9, 10, 6, 9, 9, 2, 5, 7, 3, 1, 3, 3, 8, 4, 8, 5, 1, 6, 8, 1, 8, 4, 6, 5, 8, 7, 6, 6, 2, 2, 8, 5, 3, 4, 0]);

suc = [
   {2, 3, 4},
   {45, 30, 7},
   {49, 84, 5},
   {38, 9, 6},
   {16, 17, 11},
   {18, 28, 13},
   {8, 43, 29},
   {10, 12, 14},
   {72, 47},
   {49, 67, 23},
   {33, 37, 15},
   {32, 60, 22},
   {26, 19, 36},
   {44},
   {24, 26, 32},
   {51, 42, 19},
   {20, 55, 23},
   {25, 42, 52},
   {25, 45, 63},
   {73, 21, 22},
   {27, 71, 31},
   {57, 68, 53},
   {34},
   {35, 68, 45},
   {65},
   {56, 59, 63},
   {32, 41, 42},
   {66},
   {53, 46},
   {46, 67, 38},
   {88, 81},
   {40, 81, 50},
   {34, 53, 39},
   {65, 58, 36},
   {72, 57, 36},
   {44, 47},
   {81, 91, 61},
   {56, 84, 61},
   {41, 51, 77},
   {48, 59, 61},
   {80, 60, 47},
   {54},
   {50, 90},
   {79},
   {56, 69, 55},
   {48, 58, 70},
   {48, 78, 54},
   {88},
   {57, 62, 55},
   {59, 51, 54},
   {64, 82},
   {64, 66, 83},
   {74, 62},
   {69},
   {73, 71},
   {58, 60, 62},
   {63},
   {73, 74},
   {64, 75},
   {78},
   {76, 77},
   {75, 70},
   {79},
   {67, 86},
   {66, 68, 70},
   {74, 85},
   {89},
   {80, 69},
   {75},
   {78, 71},
   {72, 80},
   {88, 76},
   {76},
   {77},
   {85},
   {87},
   {87},
   {90, 79},
   {82},
   {90},
   {82},
   {85, 86},
   {84},
   {91, 86},
   {87},
   {89},
   {89},
   {91},
   {92},
   {92},
   {92},
   {  } ];

deadline = array2d(1..92, 1..3, [1, 0, 0, 9, 3, 1, 17, 5, 4, 20, 3, 4, 20, 4, 0, 23, 3, 4, 24, 3, 5, 25, 5, 0, 27, 0, 1, 28, 0, 2, 32, 3, 3, 34, 5, 1, 34, 4, 2, 34, 4, 5, 35, 5, 2, 42, 5, 0, 42, 4, 4, 42, 3, 2, 44, 0, 1, 45, 2, 2, 46, 4, 4, 50, 5, 3, 53, 0, 0, 56, 5, 1, 56, 4, 2, 56, 5, 1, 56, 0, 4, 65, 4, 0, 65, 0, 4, 69, 5, 0, 69, 2, 4, 79, 1, 3, 80, 0, 5, 81, 2, 3, 84, 0, 0, 88, 2, 2, 90, 5, 2, 91, 4, 2, 94, 1, 5, 96, 1, 3, 103, 1, 1, 106, 3, 4, 108, 0, 5, 109, 4, 4, 112, 4, 2, 114, 0, 3, 114, 3, 1, 115, 5, 4, 119, 5, 2, 124, 5, 3, 128, 2, 0, 129, 4, 5, 129, 0, 4, 132, 2, 5, 134, 4, 2, 135, 5, 0, 135, 1, 2, 137, 2, 1, 138, 5, 3, 139, 1, 2, 140, 5, 5, 141, 0, 5, 142, 4, 5, 142, 3, 3, 147, 2, 4, 147, 5, 1, 148, 0, 1, 152, 5, 5, 154, 0, 3, 156, 5, 1, 158, 1, 3, 159, 4, 4, 168, 0, 0, 171, 2, 0, 172, 5, 0, 173, 3, 0, 182, 1, 3, 182, 1, 3, 188, 5, 0, 190, 1, 1, 193, 4, 4, 194, 5, 4, 194, 4, 0, 196, 3, 2, 199, 2, 2, 199, 1, 1, 199, 1, 1, 202, 4, 0, 203, 3, 1, 205, 0, 5, 215, 1, 1, 215, 2, 4]);
