n_res = 4;
rc = [ 18, 20, 18, 18 ];
n_tasks = 92;
d = [0, 5, 4, 7, 2, 9, 3, 4, 5, 8, 4, 3, 6, 3, 8, 8, 6, 7, 6, 7, 3, 5, 3, 3, 10, 8, 7, 5, 4, 2, 3, 6, 4, 9, 9, 3, 2, 5, 7, 7, 7, 8, 8, 9, 9, 9, 6, 5, 4, 1, 6, 8, 2, 9, 9, 7, 1, 5, 6, 7, 3, 6, 10, 10, 7, 1, 10, 9, 3, 10, 4, 1, 5, 8, 10, 4, 5, 4, 2, 10, 7, 10, 10, 1, 5, 9, 8, 8, 8, 6, 8, 0];
rr = array2d(1..4, 1..92, [0, 8, 0, 10, 3, 2, 4, 3, 7, 5, 3, 0, 7, 6, 4, 3, 0, 8, 10, 6, 8, 2, 8, 3, 6, 9, 8, 0, 4, 4, 4, 0, 2, 8, 2, 3, 2, 0, 5, 0, 7, 0, 2, 9, 10, 5, 5, 6, 3, 8, 0, 6, 6, 5, 10, 8, 9, 8, 6, 10, 1, 3, 0, 7, 10, 3, 9, 0, 1, 0, 3, 0, 3, 0, 3, 1, 10, 9, 0, 8, 5, 0, 1, 1, 0, 3, 1, 0, 3, 4, 5, 0, 0, 5, 8, 6, 8, 5, 4, 10, 3, 5, 5, 8, 10, 0, 0, 3, 6, 9, 5, 0, 0, 0, 0, 0, 7, 0, 4, 0, 5, 6, 0, 3, 4, 0, 6, 0, 6, 2, 5, 10, 0, 0, 0, 10, 6, 9, 3, 7, 9, 0, 4, 2, 5, 2, 1, 3, 7, 6, 5, 8, 0, 6, 2, 5, 9, 4, 9, 10, 0, 8, 0, 0, 4, 3, 2, 1, 6, 6, 1, 2, 5, 8, 3, 5, 0, 6, 10, 5, 0, 2, 5, 0, 0, 1, 6, 3, 8, 5, 9, 0, 10, 8, 2, 1, 7, 9, 9, 0, 1, 4, 1, 0, 1, 6, 7, 7, 7, 7, 6, 0, 0, 1, 7, 0, 2, 0, 0, 1, 0, 8, 3, 5, 8, 4, 4, 1, 10, 9, 0, 10, 9, 7, 8, 0, 5, 6, 8, 8, 2, 3, 10, 5, 9, 5, 0, 0, 8, 0, 0, 3, 0, 10, 8, 8, 9, 10, 1, 1, 0, 0, 1, 9, 1, 2, 10, 0, 5, 3, 4, 4, 0, 10, 0, 0, 0, 10, 0, 4, 3, 3, 1, 4, 1, 5, 3, 0, 4, 4, 0, 0, 6, 5, 8, 0, 2, 5, 0, 7, 7, 1, 1, 10, 6, 0, 2, 3, 0, 0, 6, 5, 2, 8, 0, 4, 0, 5, 9, 8, 1, 4, 8, 6, 9, 4, 0, 5, 0, 1, 0, 0, 0, 0, 0, 9, 0, 3, 8, 4, 0, 4, 0, 0, 0, 3, 1, 6, 1, 8, 5, 10, 5, 9, 9, 1, 8, 0, 0, 1, 5, 0, 9, 0, 3, 0, 9, 0]);

suc = [
   {2, 3, 4},
   {50, 19, 61},
   {13, 26, 5},
   {16, 12, 6},
   {8, 10, 7},
   {17, 11, 23},
   {65, 9, 15},
   {50, 21, 31},
   {73, 17, 14},
   {25, 52, 30},
   {24, 64, 51},
   {56, 63, 55},
   {22},
   {18, 58, 29},
   {32, 58},
   {73, 59},
   {32, 27, 28},
   {57, 27, 21},
   {27, 20, 31},
   {82, 29},
   {32, 67, 51},
   {49, 69},
   {40, 43, 38},
   {46, 44, 38},
   {41, 37, 70},
   {41, 36, 45},
   {74, 62, 71},
   {35, 69, 61},
   {42, 78},
   {53, 71, 47},
   {33, 34, 77},
   {34, 52},
   {48, 49, 68},
   {64, 60, 79},
   {40, 43, 46},
   {82, 46, 63},
   {75, 54, 79},
   {57, 53, 39},
   {56, 55},
   {68, 45},
   {42, 43, 44},
   {48, 84},
   {88, 53},
   {66, 60},
   {48, 80, 55},
   {50, 70},
   {83, 54},
   {81, 51},
   {72, 70, 54},
   {59, 52},
   {76},
   {89},
   {75, 63},
   {73, 60},
   {58, 59},
   {81, 65, 77},
   {66, 61},
   {77, 79},
   {76},
   {80},
   {72, 74, 67},
   {64, 66},
   {89, 74, 67},
   {76},
   {80, 83},
   {68, 69, 87},
   {83},
   {72},
   {90, 75},
   {87, 86, 71},
   {85},
   {78},
   {82},
   {78},
   {81},
   {85},
   {88},
   {85},
   {86},
   {84, 86},
   {91},
   {84, 87},
   {90},
   {88},
   {91},
   {89},
   {91},
   {90},
   {92},
   {92},
   {92},
   {  } ];

deadline = array2d(1..92, 1..3, [1, 2, 4, 2, 2, 4, 4, 3, 5, 5, 0, 5, 8, 0, 1, 11, 1, 4, 14, 2, 2, 18, 2, 4, 19, 1, 3, 20, 1, 2, 26, 3, 3, 28, 1, 1, 34, 0, 1, 35, 0, 0, 36, 2, 1, 41, 0, 4, 42, 0, 4, 43, 4, 2, 43, 0, 4, 45, 1, 4, 53, 1, 1, 55, 3, 3, 57, 3, 2, 58, 5, 4, 59, 3, 5, 60, 3, 1, 68, 5, 3, 73, 1, 5, 80, 4, 2, 81, 0, 5, 85, 1, 5, 89, 5, 3, 90, 1, 5, 91, 3, 3, 94, 1, 1, 95, 3, 1, 95, 1, 5, 98, 1, 4, 99, 1, 2, 99, 2, 5, 102, 4, 1, 103, 4, 1, 106, 4, 4, 107, 2, 4, 109, 4, 3, 115, 2, 5, 115, 1, 4, 116, 4, 0, 120, 4, 2, 121, 5, 5, 121, 0, 2, 122, 0, 3, 122, 2, 2, 123, 1, 2, 129, 2, 1, 131, 2, 3, 131, 2, 2, 135, 1, 0, 138, 1, 2, 138, 4, 3, 140, 0, 4, 141, 5, 2, 142, 4, 2, 144, 5, 4, 147, 2, 3, 148, 3, 2, 149, 2, 2, 152, 2, 3, 153, 4, 4, 156, 2, 2, 159, 1, 3, 160, 2, 0, 160, 5, 4, 162, 5, 0, 163, 1, 0, 172, 3, 4, 173, 5, 4, 174, 5, 1, 180, 3, 2, 184, 1, 5, 184, 1, 2, 185, 0, 4, 186, 4, 4, 188, 3, 2, 189, 4, 2, 191, 5, 0, 192, 4, 2, 193, 4, 0, 194, 5, 3, 203, 0, 4, 207, 4, 1, 212, 4, 5]);
