n_res = 4;
rc = [ 102, 80, 73, 76 ];
n_tasks = 92;
d = [0, 1, 4, 4, 4, 2, 3, 2, 7, 7, 8, 7, 6, 8, 9, 3, 5, 1, 4, 3, 1, 3, 3, 10, 10, 9, 10, 5, 7, 7, 1, 1, 4, 5, 10, 2, 8, 4, 9, 2, 1, 5, 1, 9, 6, 5, 1, 4, 10, 5, 1, 4, 4, 4, 9, 9, 4, 9, 5, 3, 8, 7, 7, 10, 7, 10, 2, 2, 4, 10, 1, 6, 4, 5, 5, 6, 6, 9, 4, 10, 5, 2, 1, 6, 1, 6, 8, 7, 2, 1, 3, 0];
rr = array2d(1..4, 1..92, [0, 0, 7, 1, 6, 6, 9, 2, 7, 9, 5, 2, 5, 4, 7, 2, 6, 0, 0, 7, 0, 0, 10, 5, 8, 1, 9, 9, 0, 0, 7, 6, 8, 0, 5, 2, 0, 0, 3, 2, 9, 0, 6, 9, 10, 9, 2, 10, 6, 10, 0, 9, 8, 2, 2, 3, 9, 3, 2, 0, 7, 2, 2, 0, 2, 0, 6, 9, 10, 0, 2, 0, 8, 10, 3, 0, 2, 8, 2, 9, 8, 5, 2, 0, 7, 0, 10, 2, 10, 7, 0, 0, 0, 4, 4, 1, 0, 10, 7, 0, 6, 7, 5, 1, 0, 0, 6, 4, 9, 0, 6, 5, 0, 6, 1, 0, 0, 5, 0, 8, 10, 3, 7, 0, 0, 3, 9, 10, 8, 9, 5, 8, 3, 10, 9, 2, 10, 0, 7, 4, 0, 2, 7, 6, 0, 0, 7, 3, 10, 1, 7, 4, 6, 0, 0, 9, 9, 0, 3, 10, 6, 2, 5, 0, 0, 0, 0, 8, 5, 6, 0, 6, 3, 6, 7, 9, 7, 9, 9, 0, 2, 2, 6, 0, 0, 0, 7, 0, 7, 4, 5, 5, 7, 10, 0, 3, 6, 0, 2, 2, 0, 4, 4, 9, 10, 9, 6, 0, 6, 0, 10, 0, 5, 7, 5, 9, 10, 7, 0, 0, 1, 1, 8, 8, 7, 8, 1, 0, 0, 1, 0, 7, 1, 4, 10, 0, 6, 8, 9, 7, 3, 5, 0, 5, 4, 6, 5, 0, 1, 4, 0, 8, 4, 7, 6, 1, 0, 9, 1, 0, 4, 6, 5, 0, 8, 3, 9, 4, 0, 0, 0, 1, 5, 9, 7, 0, 0, 7, 8, 0, 10, 6, 5, 1, 6, 4, 3, 0, 0, 0, 1, 5, 5, 0, 1, 6, 3, 0, 1, 2, 0, 9, 2, 1, 6, 10, 3, 6, 4, 2, 9, 1, 2, 6, 4, 1, 3, 0, 0, 4, 1, 0, 2, 9, 6, 5, 10, 1, 3, 10, 0, 9, 7, 3, 2, 0, 7, 0, 1, 0, 4, 1, 0, 7, 7, 10, 6, 8, 3, 3, 8, 0, 6, 2, 1, 0, 7, 0, 2, 10, 10, 0, 2, 0, 5, 6, 0, 0]);

suc = [
   {2, 3, 4},
   {10, 5, 6},
   {12},
   {19, 11, 7},
   {21, 20, 13},
   {8, 9, 22},
   {16, 34, 15},
   {17, 27},
   {56, 25, 14},
   {31},
   {48, 29, 30},
   {51},
   {43, 28, 36},
   {30},
   {35},
   {53},
   {18, 39},
   {26},
   {74, 61},
   {24, 23},
   {41, 86},
   {78},
   {57, 67, 69},
   {75, 44},
   {40, 90},
   {64},
   {82, 47},
   {38},
   {33, 49, 41},
   {32},
   {80, 76},
   {77, 45},
   {40},
   {84, 37, 63},
   {89, 46},
   {91},
   {42, 55},
   {56},
   {52},
   {69, 45},
   {60},
   {52},
   {50},
   {85},
   {74},
   {52},
   {55},
   {54, 55},
   {65},
   {72, 51},
   {54},
   {70},
   {58, 66},
   {76},
   {86},
   {59},
   {73, 71},
   {68},
   {62},
   {87},
   {89},
   {70},
   {64, 66, 79},
   {89},
   {67, 85},
   {72},
   {68},
   {80, 73},
   {80, 70},
   {74},
   {83},
   {85},
   {84},
   {81},
   {81},
   {86},
   {90},
   {82},
   {81},
   {82},
   {88},
   {88, 84},
   {88},
   {87},
   {87},
   {90},
   {91},
   {91},
   {92},
   {92},
   {92},
   {  } ];

deadline = array2d(1..92, 1..3, [1, 3, 5, 3, 2, 5, 6, 2, 3, 11, 0, 5, 11, 0, 1, 12, 5, 2, 13, 5, 2, 15, 4, 4, 16, 0, 1, 17, 1, 1, 19, 4, 5, 23, 0, 0, 27, 1, 0, 28, 1, 0, 29, 5, 4, 29, 2, 4, 30, 1, 5, 32, 2, 2, 34, 1, 2, 35, 2, 4, 39, 2, 2, 40, 2, 0, 42, 3, 1, 45, 2, 0, 46, 2, 2, 50, 3, 0, 50, 5, 4, 58, 3, 0, 60, 2, 4, 62, 3, 2, 63, 3, 5, 65, 3, 4, 66, 1, 2, 67, 1, 1, 67, 3, 1, 68, 1, 4, 71, 1, 1, 72, 2, 4, 78, 3, 0, 78, 0, 0, 86, 1, 4, 88, 4, 2, 91, 5, 5, 97, 4, 3, 99, 4, 5, 102, 5, 1, 103, 2, 1, 106, 3, 4, 111, 4, 0, 112, 0, 3, 113, 1, 1, 113, 4, 0, 114, 5, 3, 114, 5, 1, 116, 5, 4, 117, 2, 4, 118, 2, 1, 118, 1, 5, 119, 3, 1, 124, 4, 3, 125, 5, 0, 125, 3, 1, 135, 5, 4, 136, 1, 5, 138, 3, 3, 140, 0, 1, 142, 4, 2, 145, 0, 0, 147, 4, 1, 148, 4, 0, 148, 5, 4, 150, 3, 4, 152, 5, 1, 153, 0, 1, 154, 5, 0, 155, 0, 2, 155, 3, 5, 156, 5, 0, 156, 1, 3, 156, 1, 2, 157, 4, 5, 157, 2, 3, 157, 3, 1, 158, 3, 1, 158, 0, 0, 160, 0, 3, 165, 2, 0, 166, 2, 4, 170, 4, 4, 171, 1, 2, 176, 3, 0, 176, 3, 0]);
