n_res = 4;
rc = [ 87, 64, 86, 79 ];
n_tasks = 92;
d = [0, 3, 8, 10, 2, 6, 9, 8, 9, 2, 9, 9, 4, 1, 5, 2, 9, 1, 2, 2, 3, 2, 1, 5, 8, 8, 5, 1, 2, 5, 6, 4, 5, 2, 4, 10, 7, 5, 3, 8, 6, 7, 1, 8, 10, 7, 1, 9, 1, 3, 1, 1, 5, 8, 3, 1, 3, 8, 1, 5, 10, 6, 8, 4, 6, 8, 4, 2, 3, 8, 6, 9, 9, 7, 6, 4, 10, 9, 1, 4, 5, 8, 1, 6, 9, 3, 9, 7, 5, 9, 4, 0];
rr = array2d(1..4, 1..92, [0, 5, 3, 5, 10, 8, 4, 3, 9, 9, 1, 9, 7, 2, 4, 7, 10, 9, 9, 7, 5, 8, 1, 7, 10, 4, 3, 4, 7, 3, 10, 6, 8, 1, 5, 3, 7, 7, 2, 7, 10, 4, 3, 5, 7, 9, 3, 6, 2, 10, 6, 6, 1, 10, 7, 2, 10, 3, 5, 5, 6, 2, 2, 6, 6, 6, 3, 9, 10, 6, 9, 5, 6, 7, 3, 6, 8, 3, 7, 10, 6, 10, 5, 6, 8, 8, 2, 9, 2, 10, 4, 0, 0, 7, 8, 6, 10, 7, 6, 3, 3, 6, 6, 5, 5, 3, 2, 7, 9, 1, 8, 1, 3, 6, 1, 9, 2, 1, 2, 8, 1, 9, 4, 3, 3, 8, 5, 4, 3, 9, 8, 3, 8, 2, 10, 4, 1, 2, 3, 8, 6, 5, 7, 5, 6, 3, 9, 10, 8, 3, 6, 5, 3, 4, 5, 7, 1, 7, 3, 4, 6, 6, 5, 3, 10, 10, 10, 4, 5, 4, 5, 5, 6, 10, 10, 10, 9, 8, 4, 2, 5, 3, 3, 0, 0, 4, 4, 4, 4, 9, 8, 6, 10, 1, 2, 2, 9, 7, 5, 1, 10, 4, 2, 4, 9, 7, 6, 3, 4, 8, 4, 7, 1, 7, 5, 4, 7, 9, 9, 3, 9, 5, 10, 1, 6, 9, 2, 10, 3, 10, 1, 10, 6, 1, 2, 9, 9, 5, 10, 4, 6, 2, 4, 5, 2, 8, 9, 6, 3, 3, 10, 9, 6, 10, 6, 1, 4, 7, 10, 9, 2, 7, 7, 6, 2, 10, 9, 10, 5, 2, 5, 3, 6, 4, 6, 0, 0, 2, 8, 5, 3, 6, 10, 4, 6, 2, 10, 6, 2, 8, 4, 9, 4, 9, 10, 8, 6, 10, 6, 2, 4, 10, 1, 5, 8, 5, 6, 10, 2, 3, 2, 4, 1, 3, 1, 6, 5, 3, 10, 8, 10, 8, 10, 2, 8, 10, 2, 5, 7, 5, 7, 2, 2, 4, 4, 8, 6, 4, 9, 8, 5, 1, 6, 2, 3, 7, 2, 5, 4, 2, 8, 1, 1, 5, 3, 3, 7, 1, 1, 8, 7, 3, 1, 1, 6, 7, 9, 0]);

suc = [
   {2, 3, 4},
   {17, 5, 33},
   {68, 6},
   {27, 29, 47},
   {8, 11, 12},
   {9, 10, 7},
   {21},
   {18, 42, 39},
   {24, 28, 22},
   {43, 75, 19},
   {16, 13, 14},
   {20, 23, 15},
   {34},
   {41, 19, 30},
   {38},
   {48, 25, 35},
   {40, 49, 89},
   {31},
   {26, 42},
   {53, 38},
   {58, 62},
   {50, 85},
   {57, 31},
   {29},
   {32, 36},
   {56, 37, 86},
   {87},
   {67, 55},
   {72, 73, 30},
   {64},
   {41},
   {52, 77, 76},
   {80},
   {84},
   {45},
   {65, 44, 77},
   {72, 50, 54},
   {88},
   {43, 44, 46},
   {48, 69},
   {64, 70},
   {54},
   {47},
   {53, 63},
   {47},
   {48, 51},
   {76, 70},
   {81, 60, 61},
   {51, 71},
   {66, 74, 63},
   {65, 59, 55},
   {73, 58, 69},
   {69},
   {91},
   {58, 76},
   {66, 78},
   {72, 90, 63},
   {81, 78},
   {83, 87},
   {65, 70},
   {74, 83},
   {64, 75},
   {80},
   {71},
   {73},
   {80},
   {75},
   {84},
   {82, 79},
   {82, 71},
   {79},
   {84},
   {74},
   {90, 78},
   {77, 79},
   {81},
   {88},
   {82},
   {83},
   {89},
   {85, 86},
   {87},
   {85, 86},
   {88},
   {91},
   {90},
   {91},
   {89},
   {92},
   {92},
   {92},
   {  } ];

deadline = array2d(1..92, 1..3, [1, 0, 2, 2, 3, 4, 6, 4, 4, 6, 2, 2, 9, 4, 5, 12, 5, 2, 12, 5, 1, 13, 2, 5, 14, 2, 3, 19, 3, 4, 26, 1, 1, 31, 4, 2, 37, 5, 5, 38, 2, 1, 41, 1, 0, 44, 3, 4, 45, 1, 3, 48, 1, 4, 49, 0, 2, 49, 3, 3, 53, 5, 0, 55, 3, 1, 67, 4, 2, 70, 3, 5, 74, 4, 0, 75, 4, 2, 76, 4, 2, 77, 5, 0, 78, 1, 5, 80, 2, 0, 84, 4, 2, 91, 3, 0, 91, 5, 4, 93, 3, 5, 96, 4, 1, 98, 1, 1, 98, 4, 0, 98, 2, 4, 99, 3, 1, 100, 2, 5, 101, 3, 3, 101, 4, 2, 102, 5, 1, 103, 0, 2, 104, 1, 1, 105, 1, 2, 105, 3, 5, 107, 0, 0, 109, 4, 0, 112, 5, 0, 121, 0, 5, 121, 0, 2, 122, 0, 2, 123, 3, 0, 123, 5, 3, 124, 3, 2, 125, 4, 4, 127, 2, 3, 131, 3, 1, 133, 5, 4, 134, 3, 2, 135, 0, 5, 138, 1, 5, 142, 0, 5, 150, 1, 0, 151, 1, 3, 158, 1, 0, 160, 1, 1, 163, 4, 1, 171, 2, 5, 176, 3, 0, 177, 0, 2, 181, 5, 0, 183, 4, 2, 184, 3, 4, 189, 4, 0, 194, 5, 4, 198, 0, 0, 199, 3, 3, 210, 5, 3, 212, 4, 0, 213, 1, 3, 214, 0, 2, 215, 4, 4, 215, 2, 4, 217, 0, 1, 218, 0, 0, 219, 3, 1, 220, 3, 2, 221, 4, 1, 221, 2, 3, 222, 3, 0]);
