n_res = 4;
rc = [ 27, 22, 24, 30 ];
n_tasks = 92;
d = [0, 2, 8, 1, 10, 4, 3, 6, 9, 7, 5, 8, 5, 8, 10, 5, 8, 9, 10, 8, 1, 6, 4, 5, 7, 3, 8, 4, 8, 6, 3, 6, 7, 7, 3, 1, 2, 2, 9, 2, 1, 4, 9, 4, 8, 7, 6, 8, 7, 9, 3, 9, 3, 6, 7, 9, 2, 7, 3, 4, 9, 7, 3, 10, 1, 8, 1, 9, 7, 4, 4, 6, 10, 10, 10, 3, 5, 9, 8, 3, 7, 2, 8, 3, 3, 2, 1, 7, 3, 3, 2, 0];
rr = array2d(1..4, 1..92, [0, 0, 0, 0, 5, 0, 0, 6, 0, 0, 0, 10, 4, 0, 0, 0, 3, 0, 0, 0, 0, 0, 0, 0, 0, 3, 0, 0, 0, 0, 0, 4, 0, 0, 1, 0, 0, 0, 0, 0, 0, 3, 0, 0, 0, 0, 7, 0, 0, 0, 8, 0, 0, 3, 0, 4, 0, 0, 0, 0, 0, 0, 0, 0, 8, 9, 0, 1, 5, 0, 9, 0, 0, 6, 0, 0, 9, 0, 10, 6, 0, 0, 0, 0, 0, 0, 0, 0, 0, 0, 6, 0, 0, 0, 8, 8, 0, 10, 3, 0, 0, 0, 3, 0, 0, 0, 10, 4, 0, 0, 0, 4, 0, 8, 0, 2, 3, 0, 0, 0, 2, 0, 0, 0, 0, 0, 0, 0, 0, 0, 0, 10, 0, 0, 0, 5, 6, 4, 0, 0, 0, 0, 0, 0, 0, 0, 0, 0, 0, 0, 0, 0, 8, 0, 0, 4, 0, 0, 4, 0, 0, 0, 0, 0, 0, 0, 0, 0, 0, 0, 0, 0, 8, 10, 7, 0, 2, 0, 3, 4, 0, 0, 0, 0, 0, 10, 0, 0, 0, 0, 0, 0, 6, 0, 0, 0, 0, 7, 0, 0, 0, 8, 4, 0, 0, 0, 0, 0, 0, 0, 0, 0, 0, 8, 0, 0, 10, 0, 0, 6, 7, 0, 0, 0, 9, 0, 3, 0, 0, 0, 0, 0, 0, 4, 0, 0, 7, 0, 2, 0, 0, 1, 6, 0, 0, 0, 0, 0, 0, 0, 0, 0, 0, 4, 0, 0, 0, 0, 0, 9, 0, 0, 0, 0, 0, 0, 0, 9, 0, 7, 0, 0, 2, 0, 0, 0, 0, 0, 0, 0, 0, 0, 0, 0, 0, 5, 0, 0, 0, 0, 0, 0, 0, 0, 0, 0, 5, 0, 10, 0, 0, 0, 1, 7, 0, 0, 2, 0, 0, 1, 0, 0, 0, 1, 4, 0, 0, 0, 0, 0, 0, 0, 0, 1, 4, 0, 0, 10, 0, 0, 0, 0, 10, 0, 0, 1, 0, 7, 6, 0, 0, 0, 0, 0, 0, 0, 0, 10, 9, 0, 10, 0, 0, 7, 0, 0, 0, 0, 0, 0, 0, 0, 0, 0, 0, 3, 0, 0]);

suc = [
   {2, 3, 4},
   {12, 6},
   {32, 19, 13},
   {10, 53, 5},
   {46, 7},
   {16, 25, 37},
   {8, 44, 15},
   {48, 9, 18},
   {17, 11, 30},
   {24, 26},
   {49, 22},
   {28, 21, 14},
   {18},
   {71},
   {20, 69},
   {62},
   {34, 43, 38},
   {79},
   {27, 39, 23},
   {52, 31},
   {35},
   {91, 61, 29},
   {59},
   {73},
   {35},
   {40, 51, 39},
   {89},
   {88},
   {33},
   {47},
   {81, 86},
   {36},
   {83},
   {50, 78},
   {41, 42, 67},
   {69},
   {66, 68},
   {84},
   {45, 47},
   {70},
   {48, 89, 83},
   {77},
   {71},
   {54},
   {57, 59, 63},
   {60, 79},
   {65},
   {82},
   {56, 58, 67},
   {56},
   {70},
   {66},
   {64, 76},
   {55},
   {73, 58},
   {86, 79},
   {75},
   {64},
   {85},
   {91},
   {87},
   {87},
   {84},
   {80},
   {82},
   {76},
   {80, 73},
   {71},
   {74},
   {72},
   {75},
   {75},
   {81},
   {90},
   {78},
   {85},
   {85},
   {81},
   {83},
   {86},
   {84},
   {88},
   {88},
   {89},
   {91},
   {87},
   {90},
   {90},
   {92},
   {92},
   {92},
   {  } ];

deadline = array2d(1..92, 1..3, [3, 4, 0, 3, 3, 4, 4, 4, 1, 5, 2, 5, 7, 5, 4, 7, 1, 4, 11, 5, 1, 17, 4, 3, 20, 4, 3, 21, 0, 0, 27, 5, 5, 27, 5, 1, 29, 0, 5, 31, 5, 5, 32, 2, 0, 33, 0, 1, 38, 2, 3, 40, 3, 3, 41, 2, 0, 46, 1, 0, 47, 3, 4, 47, 5, 4, 49, 0, 1, 50, 3, 5, 52, 1, 3, 52, 2, 2, 57, 3, 0, 58, 0, 2, 62, 1, 5, 67, 4, 2, 68, 4, 3, 68, 4, 2, 75, 4, 5, 76, 4, 3, 79, 3, 4, 80, 3, 3, 80, 1, 4, 80, 5, 2, 82, 1, 1, 84, 3, 3, 84, 1, 1, 88, 2, 0, 93, 5, 2, 95, 1, 5, 97, 0, 3, 98, 1, 0, 102, 0, 3, 106, 4, 4, 110, 4, 2, 112, 1, 5, 117, 3, 2, 121, 4, 1, 124, 5, 0, 126, 1, 5, 130, 5, 0, 131, 5, 1, 131, 1, 1, 134, 1, 5, 135, 2, 3, 135, 4, 3, 136, 0, 2, 141, 0, 2, 143, 1, 5, 144, 3, 5, 144, 3, 0, 146, 5, 3, 150, 3, 3, 156, 4, 3, 160, 3, 0, 171, 4, 1, 172, 1, 0, 181, 0, 3, 182, 1, 2, 183, 0, 5, 188, 0, 0, 191, 2, 1, 193, 0, 5, 195, 2, 3, 198, 0, 0, 200, 4, 0, 202, 4, 5, 205, 4, 2, 205, 2, 0, 206, 4, 4, 210, 3, 0, 210, 5, 2, 212, 3, 4, 212, 4, 5, 213, 0, 5, 215, 0, 5, 219, 3, 5, 220, 1, 2]);
