n_res = 4;
rc = [ 53, 58, 56, 62 ];
n_tasks = 92;
d = [0, 4, 7, 7, 8, 4, 9, 9, 10, 7, 3, 8, 2, 3, 5, 8, 9, 8, 1, 2, 8, 9, 3, 4, 5, 5, 2, 10, 5, 8, 5, 7, 6, 3, 7, 9, 4, 8, 5, 6, 5, 7, 6, 5, 3, 2, 2, 9, 1, 9, 2, 6, 2, 3, 2, 4, 5, 10, 5, 3, 10, 3, 3, 6, 2, 9, 4, 7, 8, 2, 6, 1, 4, 6, 4, 6, 10, 9, 3, 6, 6, 10, 4, 1, 7, 6, 2, 2, 2, 3, 4, 0];
rr = array2d(1..4, 1..92, [0, 8, 10, 5, 3, 2, 9, 4, 6, 4, 3, 4, 2, 6, 7, 4, 3, 9, 4, 8, 4, 8, 3, 9, 9, 10, 3, 8, 2, 10, 2, 4, 5, 5, 1, 1, 4, 4, 2, 3, 2, 7, 8, 8, 4, 4, 5, 8, 3, 6, 7, 10, 7, 6, 10, 4, 10, 2, 6, 7, 5, 1, 1, 7, 7, 7, 5, 3, 8, 3, 4, 3, 7, 10, 7, 3, 2, 6, 9, 2, 3, 10, 10, 2, 5, 3, 7, 2, 7, 2, 3, 0, 0, 8, 4, 7, 1, 8, 8, 10, 2, 8, 6, 5, 1, 9, 4, 1, 9, 2, 4, 2, 5, 1, 3, 2, 6, 9, 6, 1, 8, 4, 5, 8, 8, 6, 5, 5, 3, 3, 4, 1, 3, 8, 7, 3, 3, 6, 7, 1, 5, 4, 8, 5, 10, 9, 7, 7, 7, 2, 5, 6, 1, 10, 1, 7, 4, 5, 10, 1, 9, 1, 10, 1, 6, 1, 6, 1, 5, 10, 3, 5, 3, 7, 9, 1, 8, 9, 7, 4, 10, 5, 7, 0, 0, 2, 2, 2, 3, 3, 5, 1, 6, 6, 5, 10, 6, 1, 7, 9, 3, 5, 7, 9, 3, 8, 3, 10, 6, 1, 4, 1, 2, 8, 1, 9, 5, 2, 6, 3, 6, 7, 4, 10, 1, 10, 3, 5, 3, 7, 7, 6, 3, 4, 8, 2, 8, 2, 1, 1, 2, 9, 10, 8, 10, 6, 6, 7, 4, 3, 9, 5, 4, 5, 8, 3, 6, 4, 5, 9, 6, 4, 6, 7, 3, 5, 3, 6, 10, 5, 4, 4, 8, 10, 1, 0, 0, 5, 10, 4, 10, 4, 8, 9, 7, 1, 2, 10, 2, 5, 1, 9, 4, 4, 9, 1, 7, 3, 5, 9, 10, 3, 8, 9, 2, 6, 5, 10, 6, 5, 3, 4, 3, 3, 1, 9, 10, 1, 3, 8, 4, 5, 9, 8, 5, 6, 2, 9, 6, 3, 6, 2, 4, 10, 1, 7, 2, 9, 7, 10, 9, 3, 10, 9, 8, 3, 4, 10, 7, 1, 2, 5, 9, 3, 7, 8, 5, 8, 1, 10, 10, 2, 6, 2, 2, 9, 9, 0]);

suc = [
   {2, 3, 4},
   {18, 5, 7},
   {15},
   {16, 10, 31},
   {8, 84, 6},
   {24},
   {9, 34, 12},
   {11, 69, 13},
   {75, 37},
   {35, 27, 23},
   {40, 52, 14},
   {45},
   {21, 47},
   {32, 49, 26},
   {63},
   {17, 20, 25},
   {19, 22},
   {28, 29},
   {64, 69},
   {64},
   {50},
   {32, 56, 53},
   {70},
   {41, 67, 62},
   {46},
   {43, 30},
   {42},
   {80},
   {81, 76},
   {36, 39},
   {33},
   {67, 44, 71},
   {40},
   {81},
   {59},
   {72, 38},
   {73},
   {51, 53},
   {60},
   {78},
   {73, 82},
   {54},
   {57},
   {72, 74},
   {48, 60, 77},
   {85},
   {65},
   {90},
   {56, 91},
   {66, 55},
   {54},
   {66},
   {61},
   {82},
   {58, 83, 60},
   {68},
   {88, 77},
   {64, 73},
   {62},
   {86},
   {91},
   {68},
   {70},
   {68},
   {83},
   {89},
   {74},
   {80},
   {78},
   {77},
   {79},
   {91},
   {90},
   {85},
   {78},
   {80},
   {87, 79},
   {79},
   {90},
   {85},
   {86},
   {88},
   {87},
   {86},
   {87},
   {88},
   {89},
   {89},
   {92},
   {92},
   {92},
   {  } ];

deadline = array2d(1..92, 1..3, [2, 4, 3, 2, 5, 4, 4, 5, 2, 11, 1, 2, 13, 0, 3, 13, 3, 3, 18, 3, 3, 18, 2, 0, 21, 0, 4, 22, 5, 1, 28, 2, 3, 29, 4, 5, 29, 1, 3, 32, 0, 4, 36, 5, 2, 43, 2, 3, 43, 2, 0, 44, 1, 1, 49, 0, 0, 50, 3, 4, 50, 0, 5, 53, 2, 0, 53, 4, 5, 53, 1, 5, 54, 2, 5, 54, 3, 3, 58, 5, 4, 59, 4, 3, 61, 1, 4, 62, 5, 4, 63, 4, 1, 63, 0, 4, 69, 3, 0, 69, 5, 5, 69, 5, 3, 69, 4, 1, 74, 4, 1, 74, 3, 0, 76, 0, 1, 77, 3, 1, 85, 5, 4, 89, 3, 1, 92, 0, 1, 93, 4, 5, 98, 2, 3, 100, 4, 1, 101, 0, 2, 101, 3, 1, 104, 0, 3, 116, 0, 2, 118, 2, 1, 121, 5, 5, 126, 4, 2, 128, 0, 1, 131, 3, 5, 133, 4, 3, 137, 0, 0, 138, 3, 1, 142, 4, 2, 144, 0, 3, 145, 4, 3, 147, 2, 4, 147, 3, 1, 148, 1, 2, 150, 4, 1, 150, 2, 5, 156, 0, 3, 156, 3, 3, 158, 0, 1, 158, 1, 5, 159, 0, 5, 160, 4, 5, 163, 5, 3, 169, 1, 2, 172, 3, 4, 175, 4, 3, 176, 2, 0, 176, 1, 1, 178, 3, 1, 178, 2, 3, 179, 2, 4, 183, 0, 3, 188, 0, 3, 189, 0, 2, 192, 4, 3, 192, 3, 1, 194, 0, 2, 194, 2, 4, 195, 3, 4, 197, 4, 0, 203, 3, 1, 204, 3, 2]);
