n_res = 4;
rc = [ 11, 13, 15, 14 ];
n_tasks = 92;
d = [0, 9, 6, 7, 1, 9, 1, 1, 3, 3, 10, 9, 7, 6, 2, 1, 6, 4, 8, 6, 1, 1, 4, 7, 8, 1, 5, 5, 4, 10, 8, 10, 7, 3, 7, 4, 3, 4, 1, 6, 9, 1, 3, 4, 3, 6, 9, 3, 3, 1, 9, 2, 9, 9, 4, 2, 5, 2, 8, 2, 7, 5, 1, 3, 4, 1, 8, 5, 10, 7, 1, 3, 7, 8, 3, 7, 7, 1, 7, 1, 8, 9, 8, 9, 5, 4, 4, 8, 2, 8, 7, 0];
rr = array2d(1..4, 1..92, [0, 0, 0, 2, 0, 0, 0, 0, 0, 10, 0, 0, 0, 0, 3, 0, 0, 0, 0, 0, 10, 4, 0, 0, 6, 6, 7, 0, 0, 0, 0, 0, 0, 0, 0, 0, 0, 0, 0, 0, 0, 0, 0, 0, 10, 0, 0, 0, 0, 0, 0, 0, 0, 2, 0, 0, 0, 0, 0, 1, 5, 1, 5, 0, 0, 0, 0, 0, 0, 1, 8, 0, 0, 8, 0, 0, 0, 1, 0, 9, 0, 0, 0, 0, 0, 0, 0, 0, 0, 0, 0, 0, 0, 0, 5, 0, 6, 0, 0, 0, 0, 0, 0, 0, 0, 0, 0, 8, 0, 6, 0, 0, 0, 0, 0, 0, 0, 0, 0, 3, 8, 0, 9, 0, 0, 0, 0, 0, 0, 5, 0, 0, 4, 5, 1, 0, 0, 0, 5, 0, 0, 6, 0, 0, 0, 0, 0, 6, 0, 0, 0, 0, 0, 0, 0, 0, 0, 0, 0, 0, 0, 0, 0, 0, 0, 0, 9, 0, 9, 0, 5, 0, 0, 0, 2, 0, 0, 0, 0, 0, 0, 0, 0, 0, 0, 0, 0, 0, 0, 8, 10, 0, 0, 0, 0, 0, 8, 0, 0, 0, 0, 0, 10, 0, 0, 0, 6, 0, 0, 0, 0, 0, 0, 4, 0, 2, 0, 0, 0, 0, 10, 0, 8, 7, 0, 0, 0, 6, 0, 0, 0, 0, 3, 0, 0, 0, 5, 0, 5, 0, 6, 0, 0, 0, 0, 0, 0, 0, 0, 0, 0, 0, 7, 0, 0, 2, 7, 0, 0, 10, 0, 0, 0, 0, 0, 1, 0, 0, 0, 5, 2, 2, 0, 7, 10, 0, 0, 6, 0, 0, 0, 0, 0, 3, 2, 0, 7, 10, 0, 4, 0, 0, 3, 0, 0, 2, 0, 0, 0, 5, 0, 0, 0, 0, 0, 0, 0, 0, 9, 10, 10, 3, 0, 0, 0, 0, 0, 0, 0, 0, 0, 3, 0, 5, 0, 0, 1, 8, 0, 0, 0, 0, 0, 4, 2, 0, 0, 0, 0, 7, 4, 1, 9, 6, 0, 0, 0, 0, 0, 0, 0, 0, 0, 0, 0, 0, 5, 0, 0, 6, 3, 0, 0, 0, 9, 0, 0, 0]);

suc = [
   {2, 3, 4},
   {21, 28, 5},
   {9, 10, 7},
   {37, 29, 54},
   {11, 6, 14},
   {40, 68},
   {8, 29},
   {32, 12, 38},
   {48},
   {64, 42, 75},
   {16, 35, 13},
   {26, 19, 79},
   {17, 61, 63},
   {15},
   {27, 30, 23},
   {20, 69},
   {24, 18, 22},
   {36, 45, 52},
   {24},
   {25},
   {58, 62},
   {66, 71},
   {74},
   {64, 55, 31},
   {73},
   {34, 39},
   {88, 55},
   {64, 78},
   {67},
   {72},
   {43, 46, 71},
   {73, 33, 58},
   {41, 57},
   {49, 44, 60},
   {61},
   {82, 51, 44},
   {83},
   {67, 59, 60},
   {89},
   {53, 63},
   {49, 44},
   {56},
   {50, 51, 47},
   {91},
   {53},
   {86},
   {58},
   {57, 69, 61},
   {82, 55},
   {60},
   {83, 68},
   {66, 83, 71},
   {78, 54},
   {80},
   {65, 91},
   {59, 76},
   {80, 65, 74},
   {77, 70},
   {84, 79},
   {86},
   {67},
   {73},
   {66, 70},
   {65, 77},
   {84},
   {69},
   {72, 80, 76},
   {75},
   {82, 75},
   {74},
   {72},
   {85},
   {77, 79},
   {89, 76},
   {78},
   {84, 85},
   {85},
   {81, 86},
   {81},
   {81, 87},
   {89},
   {87},
   {90},
   {90},
   {87},
   {88, 91},
   {88},
   {90},
   {92},
   {92},
   {92},
   {  } ];

deadline = array2d(1..92, 1..3, [1, 4, 1, 2, 0, 1, 4, 2, 0, 6, 0, 2, 8, 5, 1, 11, 0, 2, 15, 4, 0, 15, 5, 2, 17, 0, 0, 19, 3, 5, 20, 1, 1, 23, 0, 2, 26, 0, 1, 26, 2, 2, 27, 0, 2, 27, 5, 3, 31, 3, 5, 32, 1, 1, 36, 3, 0, 39, 4, 3, 42, 2, 3, 44, 2, 3, 49, 3, 3, 49, 0, 5, 62, 3, 5, 73, 3, 2, 74, 0, 2, 75, 1, 4, 77, 3, 1, 83, 3, 3, 83, 1, 0, 86, 3, 3, 88, 4, 4, 89, 5, 2, 89, 5, 4, 91, 0, 3, 93, 1, 3, 98, 2, 2, 98, 5, 5, 99, 1, 2, 99, 1, 2, 100, 1, 2, 107, 2, 3, 114, 4, 5, 117, 1, 5, 117, 5, 1, 118, 2, 1, 123, 4, 4, 124, 2, 0, 124, 0, 5, 135, 5, 5, 137, 3, 5, 141, 4, 1, 142, 2, 4, 143, 5, 3, 145, 0, 1, 150, 1, 0, 150, 3, 2, 155, 0, 3, 160, 2, 5, 161, 1, 5, 164, 0, 3, 173, 5, 0, 176, 5, 0, 180, 5, 5, 182, 4, 5, 184, 4, 0, 186, 0, 2, 189, 3, 5, 190, 3, 0, 198, 5, 3, 201, 4, 3, 203, 5, 4, 207, 3, 5, 213, 2, 5, 213, 0, 4, 214, 0, 3, 215, 1, 0, 219, 4, 4, 219, 2, 1, 219, 2, 0, 219, 0, 1, 231, 1, 2, 250, 0, 2, 250, 2, 2, 255, 5, 2, 255, 0, 1, 259, 4, 3, 261, 0, 4, 263, 0, 1, 266, 3, 0, 268, 3, 1]);
