n_res = 4;
rc = [ 26, 25, 26, 25 ];
n_tasks = 92;
d = [0, 7, 6, 7, 5, 5, 4, 6, 2, 5, 4, 3, 2, 2, 3, 5, 2, 4, 9, 1, 2, 8, 1, 3, 6, 1, 2, 9, 8, 3, 3, 10, 8, 7, 2, 8, 5, 6, 6, 9, 6, 3, 10, 10, 10, 2, 5, 4, 6, 9, 4, 8, 4, 2, 9, 9, 7, 6, 9, 5, 5, 8, 9, 10, 9, 8, 8, 9, 7, 9, 10, 3, 3, 7, 5, 9, 3, 4, 3, 8, 8, 4, 10, 8, 1, 4, 1, 9, 6, 1, 7, 0];
rr = array2d(1..4, 1..92, [0, 1, 4, 5, 4, 5, 1, 6, 6, 10, 3, 1, 10, 5, 1, 8, 6, 3, 10, 8, 9, 5, 4, 10, 9, 3, 1, 7, 6, 2, 3, 10, 10, 6, 3, 6, 6, 3, 7, 9, 1, 6, 1, 2, 4, 7, 2, 1, 1, 10, 3, 4, 6, 9, 3, 2, 4, 4, 5, 7, 8, 9, 8, 5, 7, 7, 8, 7, 9, 5, 6, 9, 7, 4, 7, 9, 2, 3, 1, 4, 6, 7, 10, 4, 1, 1, 9, 3, 5, 10, 4, 0, 0, 1, 3, 7, 8, 7, 5, 4, 4, 1, 4, 2, 5, 2, 8, 7, 4, 5, 9, 2, 8, 2, 8, 10, 1, 6, 6, 10, 4, 6, 5, 4, 1, 1, 1, 5, 7, 4, 7, 6, 3, 2, 10, 4, 10, 5, 2, 9, 4, 2, 4, 8, 4, 3, 2, 8, 8, 1, 2, 4, 8, 5, 4, 1, 3, 2, 2, 10, 10, 2, 3, 5, 10, 9, 8, 6, 1, 3, 6, 5, 7, 1, 8, 7, 5, 7, 3, 7, 5, 2, 5, 0, 0, 5, 4, 6, 2, 10, 5, 4, 7, 6, 1, 10, 5, 8, 4, 3, 3, 1, 9, 1, 6, 4, 5, 1, 7, 1, 7, 1, 4, 10, 3, 6, 9, 1, 10, 10, 10, 5, 4, 6, 6, 9, 4, 3, 7, 5, 1, 10, 2, 8, 8, 8, 9, 3, 5, 5, 10, 7, 1, 1, 7, 8, 3, 7, 8, 9, 8, 2, 8, 5, 3, 10, 10, 2, 6, 9, 6, 10, 2, 5, 10, 5, 5, 5, 9, 2, 5, 2, 4, 9, 3, 0, 0, 1, 7, 7, 9, 6, 1, 5, 1, 3, 5, 10, 5, 10, 4, 7, 6, 1, 7, 4, 10, 3, 6, 9, 6, 6, 8, 2, 3, 3, 5, 7, 1, 4, 6, 6, 6, 5, 5, 7, 9, 1, 9, 6, 5, 5, 3, 4, 7, 5, 2, 1, 7, 4, 1, 8, 6, 3, 7, 8, 7, 10, 10, 4, 1, 2, 3, 8, 4, 8, 2, 2, 3, 2, 5, 6, 4, 6, 7, 2, 10, 9, 7, 6, 10, 8, 7, 2, 2, 8, 10, 0]);

suc = [
   {2, 3, 4},
   {8, 5, 7},
   {33, 11, 46},
   {56, 19, 79},
   {18, 28, 6},
   {24, 13},
   {9, 10, 21},
   {17, 50, 76},
   {35, 12, 37},
   {16, 14, 15},
   {24, 41},
   {88, 20, 54},
   {57},
   {32, 38},
   {58, 75, 22},
   {62, 31},
   {30, 23},
   {79},
   {31},
   {41, 45, 47},
   {89, 50, 91},
   {25, 34, 29},
   {26, 51},
   {54},
   {46},
   {40, 27, 63},
   {65, 71},
   {78},
   {42, 59},
   {59},
   {67},
   {80, 69, 45},
   {52, 38, 39},
   {40, 44, 77},
   {36},
   {42, 84, 55},
   {48, 49, 43},
   {82, 53},
   {72, 55},
   {57, 60},
   {49, 61},
   {48, 85},
   {70},
   {69, 54},
   {68},
   {66},
   {51, 76},
   {51, 52, 69},
   {81},
   {64, 60},
   {71, 62, 63},
   {61},
   {74, 61},
   {80, 74},
   {86},
   {72, 73, 80},
   {73, 74},
   {66, 60, 70},
   {64, 67, 63},
   {85},
   {77},
   {87},
   {78},
   {66, 68},
   {68},
   {83, 85, 71},
   {88},
   {79},
   {81, 82},
   {73},
   {77},
   {76},
   {84, 78},
   {87},
   {81},
   {84},
   {90},
   {91},
   {86},
   {87},
   {83},
   {88, 83},
   {86},
   {89},
   {90},
   {90},
   {89},
   {91},
   {92},
   {92},
   {92},
   {  } ];

deadline = array2d(1..92, 1..3, [7, 5, 4, 10, 5, 5, 10, 1, 0, 10, 4, 4, 16, 5, 0, 18, 5, 1, 18, 0, 4, 20, 1, 0, 22, 5, 3, 23, 5, 0, 25, 5, 3, 25, 1, 5, 26, 2, 5, 28, 0, 0, 28, 1, 1, 30, 2, 2, 30, 5, 4, 30, 2, 2, 31, 4, 2, 32, 1, 2, 38, 2, 0, 43, 3, 5, 44, 0, 0, 45, 4, 1, 48, 3, 3, 50, 5, 2, 50, 0, 2, 51, 4, 5, 53, 4, 4, 54, 3, 5, 55, 0, 5, 55, 4, 4, 65, 1, 1, 67, 0, 4, 69, 4, 0, 70, 5, 1, 71, 0, 1, 75, 5, 3, 82, 0, 4, 85, 2, 3, 87, 0, 3, 93, 3, 4, 94, 3, 2, 94, 0, 2, 95, 5, 4, 96, 2, 0, 100, 2, 5, 102, 4, 4, 107, 2, 0, 108, 3, 4, 110, 4, 4, 111, 5, 5, 112, 5, 3, 112, 2, 2, 115, 2, 5, 115, 3, 5, 116, 2, 5, 117, 0, 3, 118, 1, 1, 120, 4, 1, 121, 0, 5, 121, 5, 3, 126, 3, 1, 127, 3, 3, 130, 3, 3, 134, 2, 2, 134, 1, 5, 136, 2, 3, 137, 4, 5, 139, 1, 2, 141, 5, 2, 150, 0, 4, 150, 2, 3, 150, 5, 4, 155, 2, 5, 156, 1, 1, 158, 1, 4, 160, 2, 3, 161, 4, 2, 164, 5, 4, 166, 4, 2, 167, 3, 3, 167, 3, 1, 168, 1, 5, 169, 3, 5, 170, 2, 0, 171, 1, 1, 179, 5, 5, 180, 0, 4, 180, 4, 3, 191, 2, 2, 192, 2, 1]);
