n_res = 4;
rc = [ 65, 61, 62, 68 ];
n_tasks = 92;
d = [0, 5, 4, 5, 10, 3, 10, 4, 6, 3, 8, 5, 6, 3, 5, 10, 7, 10, 2, 9, 2, 2, 4, 5, 6, 9, 1, 10, 7, 9, 6, 9, 5, 1, 2, 4, 9, 1, 7, 9, 9, 5, 2, 4, 10, 8, 1, 9, 1, 6, 6, 7, 4, 2, 1, 1, 6, 5, 7, 5, 10, 10, 7, 3, 2, 5, 2, 10, 10, 7, 1, 4, 9, 4, 6, 3, 2, 3, 5, 10, 10, 1, 4, 4, 8, 10, 6, 9, 6, 5, 2, 0];
rr = array2d(1..4, 1..92, [0, 10, 4, 2, 8, 10, 10, 3, 4, 8, 4, 6, 10, 4, 10, 8, 3, 2, 6, 2, 3, 8, 7, 6, 3, 2, 7, 7, 4, 8, 10, 1, 8, 8, 3, 10, 9, 5, 1, 7, 4, 7, 4, 2, 1, 9, 8, 3, 4, 4, 10, 7, 10, 8, 9, 8, 3, 5, 7, 8, 7, 8, 3, 10, 10, 10, 3, 4, 1, 4, 5, 10, 5, 9, 8, 8, 9, 2, 6, 2, 3, 2, 4, 6, 9, 1, 9, 5, 4, 6, 8, 0, 0, 9, 6, 7, 7, 3, 10, 5, 9, 6, 2, 7, 10, 10, 4, 1, 2, 2, 1, 8, 3, 10, 6, 10, 3, 3, 4, 4, 7, 8, 5, 8, 1, 3, 5, 2, 9, 8, 7, 10, 8, 8, 10, 1, 6, 4, 10, 1, 10, 7, 3, 7, 6, 4, 4, 8, 8, 10, 3, 5, 2, 9, 4, 5, 7, 6, 2, 3, 5, 6, 10, 4, 6, 10, 6, 5, 6, 3, 3, 9, 10, 7, 7, 2, 10, 10, 8, 1, 2, 5, 8, 0, 0, 7, 9, 8, 7, 9, 9, 1, 2, 10, 10, 1, 1, 9, 5, 10, 4, 9, 3, 10, 6, 10, 1, 1, 9, 4, 6, 9, 1, 5, 2, 1, 10, 8, 10, 2, 7, 10, 7, 8, 9, 1, 9, 1, 3, 5, 3, 9, 3, 9, 5, 4, 3, 4, 7, 1, 9, 2, 10, 3, 4, 7, 7, 2, 7, 4, 1, 9, 2, 10, 3, 4, 1, 1, 9, 1, 2, 3, 8, 2, 7, 9, 7, 5, 2, 3, 6, 6, 5, 10, 8, 0, 0, 3, 4, 2, 2, 10, 4, 8, 8, 9, 2, 7, 9, 5, 10, 8, 6, 3, 6, 2, 3, 10, 6, 1, 10, 1, 10, 3, 4, 7, 9, 10, 2, 9, 10, 5, 6, 5, 9, 5, 6, 9, 9, 6, 4, 8, 4, 9, 7, 9, 10, 8, 10, 6, 6, 3, 6, 2, 9, 3, 9, 6, 6, 5, 5, 5, 6, 4, 7, 5, 8, 4, 5, 4, 10, 6, 4, 9, 7, 3, 2, 7, 1, 8, 2, 10, 9, 8, 2, 7, 5, 0]);

suc = [
   {2, 3, 4},
   {27, 14, 15},
   {41, 35, 5},
   {44, 6, 7},
   {24, 17, 21},
   {8, 16, 11},
   {10},
   {9, 13, 25},
   {12, 37, 36},
   {19, 46, 55},
   {40, 20, 31},
   {64, 38, 47},
   {45, 22},
   {26, 30},
   {78},
   {18, 42, 23},
   {89, 75},
   {39},
   {32, 34, 58},
   {56},
   {54},
   {70},
   {33, 50, 28},
   {52},
   {43, 52},
   {74, 51},
   {60, 29},
   {29},
   {67},
   {40},
   {77},
   {48},
   {89},
   {61},
   {49},
   {75, 79},
   {62},
   {56},
   {53, 62},
   {88, 68},
   {57, 67, 87},
   {53},
   {72},
   {91},
   {46},
   {53},
   {91},
   {50},
   {60},
   {76},
   {62},
   {54},
   {61},
   {83},
   {73},
   {69},
   {65, 59, 63},
   {81},
   {66, 71},
   {85},
   {80},
   {72, 73, 76},
   {78},
   {70},
   {79},
   {74, 84},
   {72},
   {90},
   {83, 84},
   {85, 71},
   {81},
   {88},
   {88},
   {80},
   {82},
   {82},
   {78},
   {83},
   {80},
   {81},
   {86},
   {85},
   {86},
   {90},
   {87},
   {89},
   {90},
   {91},
   {92},
   {92},
   {92},
   {  } ];

deadline = array2d(1..92, 1..3, [3, 1, 1, 5, 2, 3, 7, 3, 1, 8, 3, 3, 9, 1, 2, 12, 5, 5, 17, 5, 3, 18, 3, 4, 20, 5, 3, 22, 1, 1, 24, 1, 1, 24, 4, 4, 25, 4, 0, 26, 2, 0, 27, 1, 2, 30, 5, 4, 30, 2, 5, 31, 0, 1, 32, 1, 3, 36, 5, 3, 37, 0, 3, 39, 1, 4, 41, 2, 3, 44, 3, 1, 44, 1, 3, 49, 4, 4, 49, 3, 4, 50, 4, 0, 56, 5, 2, 58, 1, 1, 60, 2, 4, 60, 4, 3, 61, 4, 4, 62, 0, 4, 63, 2, 5, 65, 5, 2, 66, 3, 5, 68, 3, 1, 72, 3, 4, 78, 5, 1, 85, 1, 3, 86, 4, 4, 94, 1, 3, 95, 1, 5, 96, 4, 1, 96, 5, 5, 99, 4, 0, 102, 3, 5, 103, 5, 0, 106, 3, 4, 108, 5, 3, 110, 3, 5, 116, 4, 1, 119, 0, 0, 119, 5, 5, 119, 4, 4, 124, 5, 3, 127, 0, 1, 127, 1, 3, 127, 3, 3, 134, 3, 3, 137, 1, 4, 138, 4, 3, 142, 0, 5, 142, 4, 1, 145, 0, 1, 146, 1, 1, 146, 0, 2, 152, 3, 5, 161, 0, 4, 162, 1, 4, 163, 4, 2, 165, 3, 5, 169, 2, 0, 175, 2, 2, 178, 1, 1, 181, 1, 5, 182, 0, 2, 182, 5, 1, 183, 0, 1, 184, 1, 1, 188, 4, 2, 189, 1, 2, 202, 2, 5, 203, 5, 3, 207, 0, 2, 208, 5, 5, 208, 4, 2, 209, 3, 5, 210, 2, 3, 210, 3, 1, 215, 4, 2]);
