n_res = 4;
rc = [ 25, 23, 28, 24 ];
n_tasks = 92;
d = [0, 8, 2, 1, 5, 5, 2, 8, 3, 7, 4, 3, 9, 1, 9, 6, 5, 8, 7, 10, 4, 6, 2, 3, 1, 6, 3, 10, 10, 10, 6, 10, 4, 1, 2, 4, 6, 4, 9, 9, 3, 7, 10, 4, 10, 6, 3, 5, 9, 8, 9, 4, 1, 6, 9, 6, 10, 8, 1, 5, 3, 3, 1, 4, 3, 5, 4, 6, 8, 8, 6, 9, 9, 1, 4, 10, 5, 5, 6, 10, 10, 6, 2, 1, 7, 7, 1, 4, 4, 4, 2, 0];
rr = array2d(1..4, 1..92, [0, 6, 7, 6, 2, 8, 10, 1, 2, 5, 10, 5, 10, 3, 3, 4, 4, 6, 7, 7, 5, 7, 1, 10, 7, 4, 8, 7, 2, 8, 1, 3, 7, 10, 3, 9, 6, 9, 2, 1, 8, 3, 5, 9, 7, 10, 8, 6, 3, 6, 5, 3, 8, 9, 3, 10, 5, 10, 9, 10, 1, 6, 5, 7, 9, 6, 1, 1, 9, 8, 2, 2, 2, 2, 3, 1, 5, 8, 5, 8, 4, 5, 7, 2, 6, 7, 3, 1, 9, 9, 10, 0, 0, 4, 3, 4, 3, 8, 4, 1, 5, 10, 10, 2, 8, 1, 2, 6, 1, 6, 8, 3, 5, 7, 10, 5, 1, 5, 7, 6, 2, 4, 7, 10, 8, 3, 8, 1, 2, 1, 8, 4, 4, 4, 9, 7, 8, 2, 6, 4, 7, 9, 1, 1, 7, 9, 9, 5, 6, 7, 8, 8, 10, 8, 3, 9, 5, 9, 1, 8, 2, 1, 4, 8, 6, 3, 4, 3, 9, 9, 9, 3, 3, 5, 1, 6, 7, 2, 9, 5, 3, 2, 5, 0, 0, 3, 3, 3, 9, 2, 9, 9, 5, 6, 10, 3, 9, 5, 1, 1, 6, 4, 5, 8, 8, 8, 1, 5, 10, 4, 5, 9, 8, 2, 3, 6, 1, 9, 4, 4, 8, 8, 4, 7, 7, 6, 2, 5, 2, 1, 2, 1, 10, 4, 6, 1, 4, 9, 1, 8, 7, 1, 6, 6, 4, 8, 1, 7, 2, 3, 9, 10, 4, 1, 8, 2, 2, 7, 2, 9, 10, 7, 5, 8, 2, 6, 1, 5, 3, 5, 7, 10, 2, 7, 2, 0, 0, 10, 4, 8, 9, 6, 1, 7, 6, 7, 10, 10, 1, 4, 3, 10, 7, 6, 2, 7, 4, 1, 9, 10, 10, 2, 2, 2, 2, 1, 4, 8, 7, 5, 2, 1, 5, 10, 1, 10, 7, 3, 6, 7, 10, 1, 4, 9, 1, 2, 3, 4, 10, 4, 8, 5, 4, 7, 10, 3, 7, 8, 9, 9, 2, 3, 5, 1, 2, 2, 8, 3, 3, 5, 7, 8, 9, 1, 2, 8, 7, 2, 6, 9, 2, 3, 9, 6, 9, 4, 6, 0]);

suc = [
   {2, 3, 4},
   {10, 5, 71},
   {32, 76, 6},
   {11, 12, 37},
   {8, 46, 7},
   {16, 9, 11},
   {25, 27, 15},
   {40},
   {18, 20, 21},
   {52},
   {17, 13, 14},
   {33, 19},
   {61},
   {58, 51, 31},
   {41, 67, 70},
   {28, 29, 22},
   {43, 36, 62},
   {65, 42, 35},
   {57, 34, 82},
   {65, 30},
   {24, 62},
   {33, 84, 23},
   {52, 45},
   {81, 26, 75},
   {58},
   {41, 60, 39},
   {88, 38, 31},
   {83, 54, 87},
   {72},
   {91, 36},
   {43, 44, 61},
   {58},
   {90},
   {73, 60, 63},
   {48, 66, 47},
   {49},
   {50, 52},
   {77},
   {42},
   {73, 74, 44},
   {48, 84},
   {56, 74, 80},
   {48, 57, 80},
   {70},
   {59, 46},
   {89, 63},
   {63},
   {73},
   {56},
   {53},
   {64, 59, 55},
   {75},
   {68},
   {60, 55},
   {56, 82},
   {69},
   {72},
   {77, 61},
   {66},
   {64},
   {64, 75},
   {86},
   {88},
   {86},
   {66, 79},
   {70},
   {76},
   {88, 83, 76},
   {79},
   {81, 85},
   {78},
   {81, 74},
   {85},
   {78},
   {80, 82},
   {77},
   {78},
   {87, 79},
   {84, 85},
   {87},
   {83},
   {90},
   {86},
   {90},
   {89},
   {89},
   {91},
   {91},
   {92},
   {92},
   {92},
   {  } ];

deadline = array2d(1..92, 1..3, [8, 5, 4, 10, 5, 1, 10, 3, 0, 12, 4, 1, 13, 0, 1, 14, 2, 3, 15, 3, 4, 16, 0, 0, 20, 3, 2, 20, 2, 1, 25, 1, 3, 25, 3, 3, 27, 2, 2, 27, 0, 1, 29, 4, 5, 30, 1, 4, 30, 3, 3, 33, 0, 2, 35, 2, 0, 36, 2, 3, 36, 5, 4, 36, 2, 2, 39, 3, 1, 40, 3, 1, 41, 4, 4, 43, 0, 0, 49, 5, 5, 49, 1, 5, 51, 5, 3, 51, 4, 4, 55, 0, 0, 57, 4, 2, 57, 4, 3, 59, 1, 0, 60, 1, 0, 64, 5, 5, 64, 5, 4, 65, 3, 0, 66, 2, 5, 67, 0, 0, 71, 0, 0, 77, 1, 5, 79, 1, 4, 80, 5, 5, 80, 3, 0, 82, 4, 5, 83, 5, 2, 88, 3, 1, 89, 2, 0, 95, 5, 1, 96, 3, 4, 97, 5, 5, 99, 5, 0, 104, 3, 2, 106, 3, 3, 111, 5, 5, 113, 3, 3, 114, 3, 1, 115, 4, 5, 124, 3, 4, 124, 5, 5, 125, 2, 4, 125, 4, 2, 126, 3, 5, 129, 2, 2, 130, 1, 1, 131, 4, 5, 132, 0, 2, 133, 3, 1, 135, 1, 2, 138, 1, 0, 140, 3, 5, 143, 0, 0, 152, 1, 4, 155, 3, 2, 156, 4, 4, 165, 1, 1, 165, 2, 3, 166, 4, 4, 167, 2, 3, 170, 4, 5, 171, 2, 0, 176, 3, 4, 178, 1, 5, 178, 1, 0, 180, 2, 3, 180, 1, 2, 181, 5, 1, 182, 1, 5, 183, 3, 5, 189, 5, 1, 190, 5, 2]);
