n_res = 4;
rc = [ 37, 41, 37, 35 ];
n_tasks = 92;
d = [0, 4, 10, 2, 5, 8, 9, 3, 5, 6, 5, 1, 8, 10, 6, 2, 6, 6, 10, 1, 4, 6, 10, 10, 10, 9, 3, 5, 1, 9, 6, 7, 5, 6, 7, 10, 2, 9, 10, 4, 3, 2, 9, 1, 1, 3, 4, 9, 1, 4, 9, 8, 7, 2, 9, 2, 8, 1, 1, 6, 2, 9, 10, 3, 1, 8, 10, 9, 5, 2, 8, 7, 3, 5, 3, 7, 2, 5, 6, 4, 2, 4, 3, 2, 8, 6, 7, 1, 2, 4, 1, 0];
rr = array2d(1..4, 1..92, [0, 6, 9, 6, 5, 5, 7, 9, 6, 8, 8, 7, 2, 2, 5, 7, 6, 4, 6, 4, 6, 5, 6, 5, 10, 4, 5, 5, 4, 9, 9, 5, 8, 8, 1, 5, 3, 6, 10, 7, 7, 2, 4, 3, 8, 1, 8, 1, 1, 9, 3, 3, 8, 2, 6, 10, 4, 2, 4, 4, 4, 6, 7, 6, 1, 6, 1, 4, 1, 10, 3, 4, 4, 1, 6, 10, 9, 10, 2, 3, 6, 2, 4, 2, 4, 8, 2, 7, 2, 1, 1, 0, 0, 8, 9, 6, 3, 4, 8, 1, 4, 2, 8, 7, 9, 8, 6, 6, 7, 8, 9, 8, 7, 8, 9, 7, 1, 1, 2, 4, 9, 8, 6, 4, 2, 9, 2, 5, 2, 2, 5, 5, 5, 8, 5, 8, 4, 5, 4, 7, 6, 1, 10, 9, 4, 3, 6, 6, 4, 6, 8, 6, 8, 6, 7, 3, 5, 6, 10, 4, 2, 1, 5, 9, 7, 3, 9, 2, 7, 4, 10, 7, 1, 7, 4, 9, 8, 7, 5, 7, 10, 6, 2, 0, 0, 6, 6, 3, 6, 3, 8, 3, 10, 1, 10, 5, 5, 5, 7, 2, 1, 9, 4, 1, 8, 3, 10, 9, 1, 6, 6, 5, 1, 2, 6, 4, 1, 1, 6, 7, 3, 10, 4, 10, 5, 6, 1, 9, 3, 4, 4, 5, 3, 4, 8, 10, 3, 7, 3, 8, 10, 1, 8, 10, 10, 1, 2, 5, 3, 7, 5, 1, 8, 3, 7, 8, 3, 4, 9, 9, 7, 3, 6, 8, 1, 7, 4, 5, 9, 5, 9, 8, 7, 5, 5, 0, 0, 2, 1, 5, 9, 9, 8, 7, 8, 2, 9, 2, 6, 2, 7, 1, 10, 6, 9, 4, 8, 7, 4, 4, 4, 8, 5, 6, 6, 2, 2, 3, 8, 2, 10, 3, 5, 8, 2, 8, 7, 5, 3, 1, 3, 7, 4, 6, 10, 9, 2, 6, 1, 6, 10, 3, 2, 2, 7, 4, 6, 4, 10, 7, 3, 4, 10, 1, 2, 7, 4, 8, 7, 7, 6, 1, 10, 5, 7, 2, 1, 4, 2, 1, 9, 1, 7, 6, 5, 8, 10, 0]);

suc = [
   {2, 3, 4},
   {9, 12, 5},
   {8, 17, 6},
   {76},
   {41, 29},
   {26, 21, 7},
   {16, 11, 14},
   {47},
   {33, 10, 23},
   {18, 20, 13},
   {25, 35, 28},
   {36, 15},
   {14},
   {51},
   {70, 69, 38},
   {41, 37, 30},
   {18, 44, 30},
   {24, 66, 19},
   {82, 22},
   {42, 61, 39},
   {46},
   {27, 60},
   {43},
   {50, 68, 39},
   {81, 34},
   {52},
   {83},
   {31},
   {32, 48, 54},
   {90, 63},
   {53, 60, 37},
   {56, 67},
   {74, 55},
   {40, 76},
   {68, 38},
   {75, 61},
   {58, 51, 39},
   {89, 41},
   {71, 55},
   {68, 45, 62},
   {54},
   {86},
   {46, 63},
   {59},
   {73, 77},
   {67},
   {48, 49, 76},
   {65, 52, 53},
   {66},
   {51, 55},
   {69},
   {56, 87},
   {56},
   {57, 75, 63},
   {72},
   {77},
   {64},
   {67, 84},
   {80, 77, 69},
   {74, 75, 70},
   {78},
   {87},
   {66},
   {65, 74},
   {78},
   {85, 79},
   {88},
   {72},
   {71},
   {80, 79},
   {73, 82},
   {89, 73},
   {86},
   {78},
   {83},
   {82, 85},
   {84, 86},
   {81, 79},
   {91},
   {81},
   {83, 85},
   {91, 84},
   {87},
   {89},
   {88},
   {88, 90},
   {90},
   {91},
   {92},
   {92},
   {92},
   {  } ];

deadline = array2d(1..92, 1..3, [1, 1, 5, 1, 4, 4, 9, 4, 4, 16, 2, 3, 16, 5, 3, 17, 2, 3, 17, 0, 2, 20, 3, 0, 22, 2, 2, 23, 4, 4, 29, 5, 2, 31, 4, 4, 33, 4, 3, 36, 5, 3, 38, 5, 3, 41, 3, 2, 43, 1, 4, 46, 5, 1, 50, 2, 1, 52, 4, 2, 53, 0, 1, 55, 3, 1, 55, 2, 3, 56, 4, 5, 57, 1, 2, 58, 3, 1, 60, 5, 0, 63, 5, 4, 64, 5, 2, 67, 3, 4, 67, 0, 3, 78, 5, 2, 79, 0, 5, 89, 2, 2, 92, 5, 2, 92, 5, 0, 95, 4, 1, 95, 2, 1, 97, 5, 2, 98, 0, 0, 99, 5, 4, 99, 4, 3, 102, 1, 1, 103, 0, 2, 105, 3, 0, 105, 4, 5, 107, 2, 4, 108, 3, 2, 117, 3, 2, 121, 1, 2, 121, 5, 4, 125, 0, 2, 131, 5, 2, 146, 3, 4, 148, 4, 3, 150, 1, 4, 151, 3, 3, 152, 3, 0, 153, 2, 2, 157, 1, 5, 161, 5, 4, 162, 4, 3, 163, 3, 0, 164, 5, 2, 170, 0, 3, 170, 1, 4, 173, 3, 2, 174, 3, 1, 175, 3, 0, 179, 0, 3, 182, 0, 2, 182, 1, 1, 184, 1, 3, 188, 3, 4, 188, 2, 3, 193, 5, 2, 195, 4, 1, 200, 2, 2, 201, 5, 5, 202, 5, 2, 202, 3, 1, 202, 5, 2, 203, 2, 0, 204, 0, 1, 206, 3, 5, 209, 2, 0, 212, 3, 1, 212, 1, 3, 222, 4, 4, 223, 5, 1, 223, 3, 0, 224, 2, 3]);
