n_res = 4;
rc = [ 24, 14, 36, 18 ];
n_tasks = 92;
d = [0, 10, 2, 3, 10, 3, 7, 7, 5, 9, 2, 8, 2, 9, 7, 10, 7, 1, 10, 3, 6, 7, 7, 9, 10, 8, 8, 7, 4, 4, 2, 10, 2, 3, 2, 6, 6, 6, 9, 5, 5, 7, 2, 6, 5, 5, 7, 10, 1, 10, 5, 5, 3, 5, 4, 10, 10, 6, 4, 5, 7, 4, 8, 5, 4, 3, 10, 8, 3, 2, 9, 5, 8, 5, 6, 9, 10, 5, 4, 3, 6, 6, 4, 2, 7, 8, 3, 4, 2, 1, 2, 0];
rr = array2d(1..4, 1..92, [0, 0, 5, 0, 0, 0, 0, 0, 0, 0, 0, 4, 0, 0, 0, 0, 6, 9, 7, 0, 0, 0, 4, 0, 4, 0, 0, 0, 0, 0, 0, 0, 0, 0, 0, 0, 0, 0, 0, 2, 3, 0, 0, 0, 0, 10, 0, 0, 0, 0, 9, 9, 0, 6, 0, 0, 0, 0, 0, 0, 0, 0, 0, 0, 0, 10, 4, 0, 9, 0, 0, 0, 0, 0, 0, 0, 9, 0, 0, 0, 0, 8, 0, 0, 0, 0, 0, 0, 0, 10, 1, 0, 0, 2, 0, 1, 0, 0, 0, 0, 0, 0, 0, 0, 0, 0, 5, 0, 0, 0, 0, 0, 0, 0, 0, 0, 0, 0, 8, 3, 0, 0, 2, 0, 6, 0, 0, 3, 2, 0, 5, 0, 0, 0, 0, 2, 0, 0, 0, 0, 0, 0, 0, 0, 0, 0, 0, 1, 0, 1, 8, 5, 0, 4, 0, 0, 0, 0, 0, 0, 0, 3, 2, 0, 2, 0, 0, 10, 0, 4, 8, 6, 0, 0, 1, 0, 2, 0, 0, 0, 9, 0, 0, 0, 0, 0, 0, 0, 9, 4, 0, 7, 7, 7, 0, 0, 8, 0, 0, 1, 0, 0, 0, 0, 0, 0, 0, 5, 0, 2, 0, 0, 0, 0, 0, 0, 0, 0, 9, 0, 0, 1, 0, 0, 0, 0, 0, 0, 3, 0, 2, 0, 0, 0, 0, 0, 7, 0, 8, 0, 9, 0, 0, 0, 9, 0, 0, 7, 0, 0, 0, 9, 0, 0, 0, 3, 0, 8, 5, 0, 0, 0, 0, 0, 1, 0, 0, 0, 0, 0, 1, 4, 0, 0, 0, 0, 0, 0, 0, 0, 0, 0, 1, 0, 0, 0, 6, 0, 0, 4, 0, 0, 0, 0, 0, 4, 1, 3, 0, 0, 0, 0, 0, 0, 10, 4, 0, 1, 0, 1, 0, 0, 0, 0, 0, 0, 0, 7, 6, 0, 0, 0, 0, 1, 5, 10, 0, 0, 0, 0, 0, 0, 0, 0, 0, 0, 0, 0, 1, 0, 4, 0, 0, 0, 0, 0, 0, 0, 0, 0, 0, 0, 0, 0, 0, 0, 0, 0, 0, 7, 0, 4, 0, 0, 0, 0, 0, 0]);

suc = [
   {2, 3, 4},
   {9, 10, 7},
   {8, 27},
   {28, 5, 6},
   {67, 53},
   {32, 42, 23},
   {24, 33, 14},
   {76},
   {21, 11, 13},
   {56, 12, 20},
   {58, 19, 63},
   {68, 22},
   {17, 25, 15},
   {18, 29},
   {16, 70, 30},
   {75, 35, 23},
   {73},
   {40, 34, 35},
   {46},
   {45, 47},
   {26, 59},
   {36, 30},
   {65, 43},
   {64},
   {56, 57, 38},
   {30},
   {41, 52, 37},
   {74, 44},
   {55, 31},
   {66, 91},
   {53, 62, 39},
   {50},
   {84},
   {54},
   {57, 58, 38},
   {45},
   {43},
   {48},
   {67, 51, 61},
   {89, 58},
   {49, 79},
   {60},
   {73, 45},
   {87, 47},
   {50},
   {70, 54},
   {85},
   {60},
   {89, 51},
   {72, 87},
   {74},
   {59, 69},
   {56, 73},
   {74},
   {65, 69, 71},
   {64, 81},
   {83, 60, 68},
   {72, 86},
   {67, 68, 62},
   {89},
   {78},
   {63},
   {65, 77, 71},
   {66, 84},
   {79},
   {80, 82, 79},
   {84, 70},
   {87},
   {78},
   {83, 85},
   {75, 76, 86},
   {76, 77, 78},
   {88},
   {91, 75},
   {81},
   {80},
   {80, 82},
   {81},
   {86},
   {85},
   {82},
   {83},
   {88},
   {88},
   {90},
   {90},
   {91},
   {90},
   {92},
   {92},
   {92},
   {  } ];

deadline = array2d(1..92, 1..3, [5, 4, 2, 11, 5, 1, 15, 5, 3, 17, 3, 5, 19, 4, 3, 19, 3, 1, 25, 3, 0, 25, 2, 0, 34, 3, 1, 35, 1, 3, 40, 3, 2, 47, 0, 5, 47, 5, 0, 47, 0, 0, 50, 4, 5, 54, 4, 1, 57, 0, 5, 61, 0, 2, 61, 5, 1, 62, 5, 2, 63, 5, 3, 65, 5, 3, 69, 2, 4, 69, 3, 1, 70, 4, 2, 75, 5, 2, 81, 1, 1, 91, 5, 2, 91, 1, 0, 91, 5, 2, 98, 1, 2, 99, 4, 5, 99, 1, 0, 101, 5, 1, 103, 1, 3, 105, 3, 2, 105, 1, 3, 106, 5, 1, 112, 1, 5, 112, 1, 1, 113, 4, 4, 116, 4, 4, 121, 4, 5, 122, 1, 0, 128, 3, 0, 129, 2, 1, 131, 1, 4, 132, 5, 1, 135, 2, 1, 135, 2, 2, 144, 2, 1, 144, 2, 0, 145, 1, 3, 145, 2, 4, 146, 2, 2, 147, 2, 3, 152, 1, 2, 155, 1, 2, 155, 2, 5, 158, 2, 5, 158, 2, 2, 161, 1, 5, 162, 0, 3, 167, 1, 2, 167, 4, 2, 171, 0, 3, 173, 0, 2, 178, 5, 4, 182, 3, 0, 183, 1, 5, 183, 1, 1, 188, 4, 0, 191, 4, 3, 191, 4, 3, 191, 5, 0, 193, 3, 5, 194, 1, 4, 197, 2, 5, 200, 4, 2, 200, 5, 5, 202, 3, 2, 202, 1, 2, 204, 1, 1, 204, 0, 1, 208, 4, 5, 209, 5, 4, 210, 1, 1, 210, 0, 0, 213, 1, 0, 214, 0, 4, 216, 4, 3, 219, 5, 0]);
