n_res = 4;
rc = [ 47, 51, 54, 44 ];
n_tasks = 92;
d = [0, 3, 5, 10, 1, 8, 8, 7, 6, 7, 9, 10, 6, 10, 8, 2, 8, 6, 10, 8, 2, 2, 10, 6, 4, 8, 3, 1, 4, 5, 5, 3, 10, 1, 4, 8, 6, 2, 6, 1, 3, 5, 10, 8, 9, 8, 4, 2, 10, 10, 7, 3, 1, 7, 7, 4, 6, 1, 7, 6, 6, 4, 8, 7, 1, 6, 4, 4, 1, 5, 4, 8, 8, 7, 8, 7, 2, 4, 1, 6, 6, 1, 6, 8, 8, 4, 1, 3, 4, 2, 10, 0];
rr = array2d(1..4, 1..92, [0, 0, 6, 5, 9, 2, 2, 0, 3, 3, 2, 1, 0, 6, 6, 4, 9, 10, 4, 2, 3, 2, 0, 6, 9, 9, 1, 9, 3, 0, 0, 6, 6, 1, 0, 3, 0, 0, 1, 2, 0, 0, 3, 0, 7, 6, 2, 0, 8, 3, 2, 8, 2, 10, 1, 2, 8, 0, 3, 2, 0, 7, 0, 2, 1, 0, 3, 8, 7, 4, 10, 8, 0, 1, 2, 7, 3, 8, 2, 5, 1, 4, 6, 6, 3, 7, 0, 0, 3, 0, 8, 0, 0, 0, 1, 1, 6, 1, 0, 4, 8, 0, 7, 1, 1, 9, 3, 3, 8, 0, 5, 7, 7, 2, 7, 5, 7, 1, 0, 1, 7, 7, 4, 1, 6, 0, 0, 7, 2, 3, 0, 0, 0, 0, 0, 4, 8, 10, 7, 0, 8, 1, 0, 0, 3, 0, 0, 0, 10, 2, 4, 0, 1, 0, 7, 2, 0, 5, 0, 10, 9, 0, 0, 8, 0, 8, 4, 0, 0, 5, 2, 0, 5, 8, 10, 10, 3, 5, 4, 8, 4, 4, 6, 0, 0, 0, 0, 8, 0, 5, 6, 4, 5, 3, 0, 0, 8, 0, 1, 7, 5, 6, 3, 9, 5, 0, 2, 2, 0, 0, 5, 7, 3, 1, 8, 0, 0, 1, 3, 10, 2, 0, 1, 0, 2, 10, 2, 9, 10, 10, 0, 7, 0, 4, 5, 3, 2, 5, 10, 7, 0, 0, 3, 4, 5, 7, 2, 1, 0, 7, 3, 8, 2, 7, 3, 3, 0, 10, 8, 4, 6, 6, 3, 0, 6, 10, 3, 0, 5, 9, 2, 0, 4, 0, 5, 0, 0, 3, 1, 6, 7, 8, 0, 5, 2, 1, 4, 7, 7, 1, 6, 5, 8, 2, 0, 0, 0, 0, 4, 1, 1, 6, 4, 9, 6, 8, 0, 10, 2, 7, 6, 7, 0, 7, 2, 9, 3, 3, 9, 9, 6, 0, 2, 3, 0, 9, 1, 0, 1, 2, 8, 0, 9, 9, 4, 9, 0, 6, 9, 0, 6, 3, 4, 5, 2, 0, 3, 0, 3, 2, 5, 8, 4, 1, 10, 8, 0, 2, 7, 9, 2, 9, 5, 7, 10, 0, 8, 0]);

suc = [
   {2, 3, 4},
   {10, 5, 7},
   {16, 17, 88},
   {70, 42, 22},
   {8, 13, 6},
   {56, 43, 14},
   {9, 35},
   {11, 12, 29},
   {36, 45, 55},
   {34, 35, 77},
   {51, 15},
   {23},
   {20, 61, 86},
   {32, 25, 46},
   {18, 19, 47},
   {81, 58, 68},
   {24, 66, 38},
   {26, 28, 21},
   {89, 25, 21},
   {72},
   {33},
   {64, 27, 31},
   {69, 39},
   {72},
   {91, 37},
   {49, 82, 35},
   {73, 65, 30},
   {61, 86},
   {83, 46},
   {60, 62},
   {80, 39},
   {54, 55},
   {50, 44},
   {60, 61},
   {63},
   {57},
   {41, 49},
   {62},
   {40, 58},
   {48, 90, 72},
   {68},
   {67},
   {59, 52, 54},
   {75, 71},
   {85},
   {77},
   {82},
   {60},
   {71},
   {67, 53},
   {69, 79},
   {64},
   {73, 62},
   {66, 78},
   {58, 66},
   {57, 59, 86},
   {75},
   {78},
   {70, 79},
   {88, 74},
   {74, 83, 63},
   {71, 63},
   {80},
   {65, 67},
   {85, 84, 69},
   {75},
   {74, 68, 77},
   {76},
   {76, 78},
   {81},
   {76},
   {73},
   {79},
   {82},
   {80},
   {87},
   {84, 85},
   {89},
   {83},
   {87},
   {84},
   {91},
   {91},
   {90},
   {87},
   {88},
   {90},
   {89},
   {92},
   {92},
   {92},
   {  } ];

deadline = array2d(1..92, 1..3, [5, 1, 5, 8, 1, 0, 11, 5, 0, 12, 4, 4, 14, 3, 1, 15, 1, 5, 27, 4, 5, 27, 3, 2, 32, 0, 3, 33, 3, 4, 41, 0, 3, 42, 0, 5, 45, 5, 0, 47, 5, 5, 47, 5, 2, 48, 2, 0, 49, 3, 5, 50, 2, 0, 52, 2, 4, 52, 3, 4, 52, 1, 3, 56, 2, 2, 59, 4, 2, 62, 2, 5, 70, 1, 1, 73, 5, 5, 74, 4, 5, 79, 5, 1, 82, 2, 3, 84, 3, 4, 89, 0, 3, 90, 5, 3, 90, 0, 5, 94, 4, 5, 96, 2, 4, 97, 1, 1, 98, 4, 1, 99, 4, 1, 102, 0, 4, 103, 5, 5, 108, 2, 3, 111, 4, 2, 111, 5, 2, 111, 5, 5, 116, 5, 5, 119, 4, 4, 122, 2, 5, 126, 0, 2, 128, 5, 0, 129, 0, 3, 130, 1, 5, 133, 2, 0, 138, 2, 3, 142, 3, 2, 143, 2, 2, 143, 4, 3, 143, 3, 1, 144, 4, 4, 146, 2, 2, 152, 2, 5, 153, 5, 2, 153, 5, 3, 153, 3, 0, 156, 3, 0, 156, 0, 3, 159, 0, 3, 163, 1, 0, 164, 5, 5, 164, 0, 1, 165, 3, 2, 167, 5, 5, 174, 3, 3, 177, 1, 3, 177, 2, 1, 186, 1, 0, 187, 5, 0, 188, 3, 0, 189, 0, 3, 191, 3, 5, 196, 3, 3, 199, 5, 2, 201, 3, 4, 201, 5, 1, 203, 5, 0, 203, 1, 5, 205, 1, 0, 207, 5, 1, 207, 2, 0, 211, 3, 3, 213, 4, 1, 213, 0, 4, 215, 0, 5]);
