n_res = 4;
rc = [ 20, 16, 16, 19 ];
n_tasks = 92;
d = [0, 7, 2, 9, 3, 6, 6, 2, 2, 7, 10, 2, 9, 7, 1, 4, 2, 1, 4, 9, 6, 7, 7, 9, 10, 1, 10, 10, 2, 10, 3, 2, 1, 4, 6, 2, 3, 7, 6, 2, 8, 10, 1, 8, 5, 3, 1, 8, 6, 2, 1, 9, 4, 7, 4, 10, 6, 5, 6, 9, 7, 5, 7, 5, 2, 5, 10, 10, 4, 6, 10, 8, 5, 2, 9, 4, 10, 9, 10, 4, 1, 3, 6, 7, 5, 10, 3, 3, 8, 1, 6, 0];
rr = array2d(1..4, 1..92, [0, 1, 0, 3, 0, 0, 3, 4, 5, 0, 0, 0, 2, 9, 0, 10, 0, 9, 0, 10, 5, 2, 0, 6, 9, 0, 5, 8, 9, 8, 0, 0, 0, 0, 6, 2, 0, 8, 3, 0, 0, 1, 2, 4, 6, 0, 1, 8, 0, 8, 9, 0, 7, 0, 0, 0, 0, 0, 0, 2, 1, 0, 4, 1, 8, 0, 10, 0, 7, 0, 7, 0, 0, 3, 0, 0, 0, 7, 0, 0, 9, 0, 7, 4, 0, 2, 1, 0, 5, 0, 0, 0, 0, 6, 0, 0, 3, 0, 2, 0, 0, 0, 0, 0, 3, 0, 0, 6, 0, 0, 4, 0, 6, 2, 10, 7, 0, 6, 0, 0, 0, 0, 0, 0, 0, 10, 4, 0, 0, 0, 5, 4, 0, 7, 0, 7, 0, 0, 0, 10, 9, 7, 0, 0, 9, 8, 0, 0, 6, 0, 8, 0, 0, 0, 0, 0, 0, 0, 8, 0, 9, 1, 0, 1, 7, 1, 6, 0, 0, 0, 7, 9, 0, 0, 6, 0, 7, 7, 0, 0, 7, 8, 0, 0, 0, 7, 0, 0, 0, 1, 0, 0, 10, 0, 5, 4, 7, 6, 7, 2, 8, 0, 0, 0, 0, 0, 0, 6, 9, 3, 4, 0, 0, 0, 8, 8, 8, 0, 0, 0, 8, 10, 0, 8, 3, 0, 0, 5, 0, 3, 2, 0, 0, 1, 0, 0, 6, 5, 0, 10, 6, 0, 2, 0, 7, 0, 0, 1, 3, 2, 0, 0, 0, 10, 0, 0, 7, 0, 7, 9, 6, 6, 1, 0, 5, 0, 8, 10, 0, 6, 9, 0, 0, 10, 6, 0, 0, 0, 9, 3, 0, 10, 0, 4, 0, 6, 0, 5, 2, 0, 0, 0, 0, 5, 0, 6, 0, 0, 7, 0, 10, 7, 0, 5, 8, 2, 0, 0, 8, 2, 0, 2, 0, 4, 0, 0, 2, 0, 1, 1, 5, 0, 0, 0, 1, 0, 0, 6, 7, 0, 5, 0, 0, 1, 0, 1, 7, 1, 8, 8, 1, 6, 4, 1, 0, 0, 7, 8, 0, 0, 9, 0, 4, 7, 0, 9, 8, 1, 0, 0, 10, 0, 0, 2, 0, 0, 10, 0]);

suc = [
   {2, 3, 4},
   {36, 6, 63},
   {9, 11, 5},
   {29, 13},
   {48, 51, 7},
   {8, 10, 15},
   {16, 61, 47},
   {18, 14, 22},
   {57, 58, 12},
   {25, 43, 46},
   {32, 20, 55},
   {24, 28, 77},
   {90, 44, 53},
   {17, 21, 33},
   {49, 39, 23},
   {27, 30, 63},
   {32, 35, 45},
   {25, 19, 20},
   {26, 28, 38},
   {64, 33, 35},
   {41},
   {40, 72, 27},
   {68},
   {36, 70, 31},
   {32, 29, 30},
   {61, 39},
   {56, 43, 54},
   {56, 34},
   {37},
   {69},
   {50},
   {56, 86},
   {48, 88, 72},
   {64, 41, 50},
   {65, 76, 62},
   {66, 37, 47},
   {40, 50, 52},
   {43, 44, 68},
   {42, 44, 60},
   {73, 71},
   {62, 52, 54},
   {66, 86},
   {52, 69},
   {48, 84, 70},
   {51},
   {49, 54, 47},
   {83, 60, 76},
   {89, 85},
   {68, 84, 55},
   {78},
   {67, 59, 55},
   {67, 71},
   {59, 69},
   {79},
   {57, 79},
   {73, 67},
   {64, 73},
   {82, 59, 63},
   {72, 60},
   {84},
   {62},
   {75},
   {65},
   {65, 66},
   {89, 70, 71},
   {82, 78},
   {75},
   {80, 75, 77},
   {80},
   {74},
   {91},
   {74, 77},
   {74, 83, 76},
   {80},
   {81, 82, 79},
   {78, 87},
   {81, 86},
   {88},
   {83},
   {81},
   {85},
   {90, 91},
   {88},
   {85},
   {87},
   {89, 87},
   {91},
   {90},
   {92},
   {92},
   {92},
   {  } ];

deadline = array2d(1..92, 1..3, [2, 5, 1, 2, 5, 3, 3, 2, 3, 3, 4, 4, 7, 1, 0, 8, 1, 1, 16, 2, 3, 18, 2, 3, 22, 5, 5, 23, 2, 5, 23, 2, 5, 24, 4, 5, 26, 2, 0, 26, 0, 0, 27, 5, 3, 33, 2, 2, 35, 0, 5, 42, 1, 2, 43, 3, 4, 45, 1, 0, 46, 2, 4, 47, 5, 3, 51, 1, 0, 51, 1, 2, 55, 1, 1, 65, 5, 4, 79, 4, 4, 80, 0, 5, 86, 0, 2, 87, 1, 3, 92, 4, 1, 96, 0, 0, 98, 1, 3, 99, 3, 1, 104, 1, 1, 107, 2, 2, 116, 5, 5, 119, 2, 5, 121, 0, 4, 122, 5, 5, 126, 5, 2, 129, 5, 5, 132, 1, 4, 132, 1, 2, 133, 2, 4, 136, 3, 0, 141, 4, 1, 142, 1, 1, 143, 4, 4, 144, 4, 3, 147, 5, 5, 150, 1, 3, 152, 4, 3, 152, 3, 5, 153, 1, 3, 155, 2, 3, 157, 1, 4, 157, 3, 2, 158, 2, 4, 161, 1, 0, 162, 5, 4, 168, 5, 4, 170, 3, 2, 172, 4, 2, 172, 5, 3, 173, 4, 3, 174, 0, 3, 174, 2, 5, 180, 0, 2, 180, 4, 1, 184, 0, 0, 187, 0, 1, 187, 1, 2, 190, 4, 5, 190, 0, 3, 191, 1, 2, 191, 4, 4, 192, 0, 4, 196, 1, 1, 203, 1, 5, 204, 2, 0, 206, 1, 1, 208, 0, 4, 209, 3, 4, 210, 5, 5, 215, 2, 2, 216, 5, 4, 216, 5, 0, 218, 0, 5, 222, 0, 3, 224, 4, 1, 225, 4, 4]);
