n_res = 4;
rc = [ 22, 24, 19, 22 ];
n_tasks = 92;
d = [0, 6, 10, 2, 7, 4, 8, 3, 10, 2, 5, 4, 10, 7, 4, 8, 1, 3, 8, 9, 5, 6, 10, 5, 1, 4, 3, 6, 3, 5, 9, 7, 2, 9, 8, 3, 8, 10, 7, 9, 5, 1, 7, 8, 6, 5, 9, 5, 4, 5, 4, 1, 8, 3, 8, 5, 9, 1, 10, 7, 2, 7, 5, 9, 10, 6, 2, 4, 6, 1, 6, 8, 5, 2, 5, 7, 1, 5, 9, 7, 3, 7, 2, 2, 5, 4, 4, 7, 10, 4, 10, 0];
rr = array2d(1..4, 1..92, [0, 0, 0, 0, 0, 0, 8, 0, 0, 0, 0, 0, 0, 0, 0, 0, 0, 0, 9, 0, 0, 0, 3, 0, 4, 0, 0, 0, 0, 0, 7, 0, 0, 0, 0, 0, 0, 2, 2, 0, 6, 0, 0, 10, 0, 0, 0, 0, 0, 0, 8, 0, 0, 0, 0, 0, 0, 0, 0, 6, 0, 0, 8, 0, 0, 0, 0, 0, 0, 0, 0, 0, 1, 0, 0, 1, 6, 10, 0, 2, 0, 9, 0, 5, 8, 0, 0, 7, 0, 0, 6, 0, 0, 9, 8, 0, 0, 0, 0, 0, 0, 7, 5, 4, 0, 0, 0, 0, 0, 0, 0, 2, 0, 10, 0, 0, 0, 7, 0, 0, 0, 0, 0, 0, 0, 7, 0, 0, 0, 0, 0, 0, 0, 0, 7, 0, 0, 0, 0, 0, 0, 0, 0, 4, 7, 0, 5, 0, 8, 0, 0, 0, 0, 0, 0, 0, 8, 0, 0, 0, 5, 0, 0, 0, 0, 0, 0, 0, 0, 0, 0, 0, 2, 0, 0, 0, 0, 0, 10, 0, 0, 0, 0, 0, 0, 0, 0, 0, 0, 7, 0, 0, 8, 0, 0, 0, 0, 0, 0, 0, 4, 8, 0, 0, 0, 0, 0, 0, 0, 0, 7, 0, 6, 0, 0, 0, 7, 0, 2, 8, 0, 0, 0, 0, 0, 0, 0, 0, 9, 7, 0, 9, 0, 0, 0, 0, 0, 0, 0, 0, 0, 0, 0, 0, 5, 0, 0, 0, 0, 10, 5, 0, 0, 0, 0, 8, 0, 6, 10, 0, 0, 0, 3, 0, 0, 0, 9, 0, 0, 4, 0, 0, 10, 1, 0, 0, 0, 0, 0, 9, 9, 0, 0, 5, 0, 0, 0, 0, 3, 6, 8, 8, 0, 0, 0, 0, 8, 0, 0, 4, 0, 0, 0, 10, 0, 6, 0, 9, 0, 0, 0, 0, 1, 0, 0, 9, 0, 5, 0, 0, 0, 0, 2, 0, 2, 10, 0, 0, 0, 3, 0, 8, 0, 10, 3, 0, 0, 3, 0, 8, 0, 0, 0, 6, 0, 6, 7, 0, 0, 0, 0, 0, 0, 0, 0, 0, 0, 0, 0, 0, 0, 0, 0, 0, 0, 0, 0, 0]);

suc = [
   {2, 3, 4},
   {8, 39, 7},
   {10, 27, 13},
   {9, 5, 6},
   {18},
   {48, 50, 87},
   {16, 20, 47},
   {65, 17, 76},
   {40, 17, 14},
   {19, 11, 15},
   {16, 12},
   {65, 83, 28},
   {56, 91, 45},
   {43, 20, 31},
   {64, 41, 69},
   {21, 62, 31},
   {83, 38},
   {26, 19, 37},
   {24, 22, 23},
   {58, 53, 45},
   {25, 35, 29},
   {67, 38},
   {61, 63},
   {32, 28, 52},
   {34},
   {55, 45, 31},
   {48, 44, 63},
   {62, 34, 38},
   {57, 74, 30},
   {66, 36, 52},
   {58, 35, 60},
   {56, 33, 51},
   {50, 61, 39},
   {79},
   {56, 59, 63},
   {40, 49},
   {51, 43},
   {49, 42, 66},
   {73, 43},
   {50, 75, 60},
   {54},
   {54, 79},
   {59, 54},
   {61, 53, 46},
   {75},
   {52, 87, 68},
   {74, 53, 55},
   {88, 49},
   {81, 51},
   {64, 77, 55},
   {70},
   {91, 59, 60},
   {68, 69, 62},
   {82},
   {71},
   {80, 86},
   {72, 90},
   {64, 65, 66},
   {81, 70},
   {70, 71},
   {72, 74, 71},
   {72, 75},
   {67, 84},
   {76},
   {73, 82, 67},
   {77, 69},
   {68},
   {81},
   {82, 78},
   {77},
   {85},
   {73},
   {80, 86, 79},
   {76, 78},
   {86, 78},
   {89, 83},
   {90, 85},
   {80},
   {88},
   {85},
   {90},
   {84},
   {84},
   {88},
   {89},
   {87},
   {89},
   {91},
   {92},
   {92},
   {92},
   {  } ];

deadline = array2d(1..92, 1..3, [1, 4, 3, 2, 2, 5, 2, 2, 2, 5, 4, 4, 6, 3, 4, 8, 2, 2, 12, 4, 0, 13, 0, 0, 13, 5, 1, 14, 2, 2, 14, 3, 2, 16, 1, 5, 19, 5, 4, 20, 3, 2, 21, 2, 1, 23, 3, 2, 23, 1, 3, 24, 2, 0, 27, 1, 0, 27, 4, 3, 28, 2, 2, 34, 1, 4, 35, 0, 4, 38, 1, 0, 43, 2, 4, 44, 2, 5, 48, 2, 0, 58, 4, 0, 58, 4, 2, 58, 4, 3, 61, 3, 4, 63, 1, 4, 63, 4, 0, 66, 4, 3, 68, 1, 5, 74, 4, 0, 74, 0, 1, 80, 4, 1, 80, 3, 0, 92, 2, 2, 97, 0, 2, 98, 0, 3, 100, 3, 2, 103, 4, 0, 103, 0, 5, 104, 5, 5, 105, 0, 4, 106, 1, 4, 108, 4, 2, 112, 4, 3, 113, 2, 1, 115, 4, 0, 126, 5, 2, 130, 4, 1, 133, 0, 0, 139, 5, 1, 143, 2, 0, 144, 1, 2, 146, 1, 3, 149, 3, 4, 150, 5, 4, 152, 2, 3, 152, 1, 3, 159, 0, 0, 159, 5, 0, 160, 2, 3, 167, 2, 3, 168, 1, 1, 171, 2, 3, 171, 5, 2, 172, 1, 3, 173, 3, 1, 175, 0, 5, 176, 4, 0, 176, 3, 5, 177, 1, 1, 179, 5, 3, 181, 0, 1, 195, 2, 4, 198, 1, 2, 200, 1, 4, 202, 0, 4, 203, 1, 2, 207, 4, 2, 208, 2, 0, 208, 4, 1, 214, 3, 2, 219, 0, 1, 221, 4, 3, 225, 5, 5, 227, 1, 5, 230, 3, 3]);
