n_res = 4;
rc = [ 21, 21, 21, 20 ];
n_tasks = 92;
d = [0, 2, 3, 10, 9, 10, 1, 6, 6, 9, 8, 6, 2, 10, 5, 3, 4, 1, 10, 9, 2, 9, 10, 7, 5, 10, 3, 7, 4, 8, 8, 2, 3, 4, 10, 1, 10, 10, 4, 9, 2, 6, 3, 5, 2, 7, 10, 2, 9, 9, 4, 8, 9, 6, 5, 1, 10, 3, 9, 9, 5, 4, 5, 6, 7, 8, 6, 10, 6, 8, 8, 6, 5, 8, 2, 5, 4, 10, 10, 9, 1, 4, 5, 4, 7, 2, 3, 10, 6, 8, 7, 0];
rr = array2d(1..4, 1..92, [0, 2, 3, 5, 1, 5, 8, 5, 3, 3, 1, 7, 5, 9, 3, 9, 3, 4, 2, 6, 8, 5, 9, 7, 3, 7, 2, 5, 9, 4, 6, 8, 9, 10, 5, 2, 8, 2, 7, 3, 10, 4, 3, 6, 4, 3, 1, 6, 1, 8, 7, 2, 6, 5, 1, 7, 8, 10, 8, 9, 3, 6, 8, 1, 10, 6, 10, 5, 5, 8, 8, 4, 8, 5, 7, 3, 3, 5, 4, 2, 10, 7, 8, 1, 5, 2, 7, 6, 7, 5, 9, 0, 0, 8, 3, 2, 7, 10, 2, 1, 9, 1, 4, 10, 1, 6, 4, 1, 9, 7, 9, 2, 6, 3, 2, 5, 6, 9, 10, 5, 4, 6, 5, 3, 2, 8, 2, 8, 9, 3, 6, 7, 1, 1, 5, 3, 3, 4, 10, 3, 3, 6, 7, 10, 9, 10, 8, 9, 1, 10, 10, 10, 2, 5, 5, 6, 4, 8, 4, 2, 5, 4, 10, 1, 7, 4, 1, 2, 1, 10, 2, 9, 1, 3, 8, 1, 10, 8, 5, 4, 1, 9, 4, 0, 0, 5, 10, 3, 8, 10, 7, 5, 3, 7, 6, 7, 9, 10, 7, 7, 1, 4, 2, 7, 10, 7, 10, 1, 5, 9, 2, 10, 1, 5, 2, 8, 10, 2, 9, 5, 2, 2, 8, 5, 5, 3, 10, 1, 10, 9, 1, 3, 7, 4, 8, 2, 4, 10, 9, 8, 1, 10, 8, 3, 2, 1, 10, 1, 10, 9, 4, 4, 7, 4, 8, 4, 8, 2, 2, 6, 4, 4, 4, 10, 3, 5, 3, 7, 7, 2, 8, 10, 7, 1, 1, 0, 0, 5, 9, 9, 8, 8, 4, 8, 8, 6, 4, 5, 10, 10, 4, 7, 4, 4, 4, 8, 8, 2, 6, 5, 5, 2, 3, 2, 4, 5, 2, 2, 1, 8, 7, 9, 5, 8, 8, 5, 6, 7, 4, 3, 10, 2, 1, 4, 7, 7, 3, 5, 7, 5, 3, 8, 6, 9, 3, 10, 1, 8, 5, 1, 3, 8, 7, 10, 7, 3, 9, 5, 9, 6, 7, 2, 10, 6, 10, 5, 1, 2, 9, 8, 9, 8, 5, 6, 10, 3, 7, 0]);

suc = [
   {2, 3, 4},
   {27, 19, 6},
   {20, 44, 31},
   {8, 5, 14},
   {72, 18, 36},
   {8, 55, 7},
   {10, 13, 39},
   {32, 9, 31},
   {11, 22, 15},
   {26, 12, 36},
   {77, 53, 63},
   {40, 51, 47},
   {17, 22},
   {80, 35, 70},
   {16, 46, 30},
   {81, 66, 51},
   {24, 40, 50},
   {52, 60, 68},
   {37, 52, 21},
   {48, 42, 54},
   {58, 74},
   {25, 75, 23},
   {86},
   {28, 29, 47},
   {33, 34, 67},
   {40, 56, 88},
   {42},
   {42, 83, 79},
   {41, 53, 46},
   {65, 45, 38},
   {59, 76, 85},
   {51, 60, 62},
   {53},
   {81, 61},
   {48, 50, 39},
   {57},
   {85, 38, 55},
   {48, 41, 47},
   {65, 41, 43},
   {66, 59, 69},
   {64, 73},
   {49, 66, 59},
   {44, 54, 71},
   {56, 69, 63},
   {49, 61, 54},
   {80, 52, 71},
   {73, 49},
   {87},
   {64, 89},
   {58, 67, 62},
   {90},
   {65, 82},
   {56, 82, 61},
   {72, 57, 58},
   {74},
   {68, 85},
   {69, 62, 87},
   {84, 79},
   {64, 60},
   {80},
   {76, 70},
   {73, 63},
   {68},
   {72, 71},
   {83, 67, 78},
   {75, 70},
   {87},
   {86},
   {77},
   {84},
   {75, 78},
   {78},
   {74, 79},
   {76},
   {77},
   {83},
   {84},
   {90},
   {81, 82},
   {86},
   {88},
   {90},
   {88},
   {91},
   {91},
   {89},
   {91},
   {89},
   {92},
   {92},
   {92},
   {  } ];

deadline = array2d(1..92, 1..3, [1, 0, 3, 1, 1, 3, 1, 3, 4, 4, 3, 1, 5, 1, 5, 6, 2, 4, 7, 0, 1, 9, 5, 1, 12, 1, 4, 15, 0, 1, 19, 0, 0, 19, 5, 1, 19, 2, 3, 21, 0, 5, 21, 2, 0, 23, 1, 1, 25, 1, 4, 25, 3, 4, 25, 5, 4, 40, 2, 4, 44, 5, 0, 52, 2, 5, 52, 0, 0, 56, 1, 4, 57, 5, 4, 58, 0, 3, 58, 5, 0, 60, 4, 1, 60, 2, 1, 61, 1, 1, 61, 0, 1, 62, 0, 5, 68, 1, 5, 70, 2, 1, 71, 3, 5, 72, 3, 0, 72, 0, 3, 74, 2, 2, 77, 4, 1, 79, 3, 4, 82, 0, 5, 84, 1, 2, 88, 2, 0, 89, 2, 1, 93, 0, 0, 95, 0, 4, 95, 5, 2, 109, 3, 3, 110, 1, 0, 111, 0, 3, 116, 3, 2, 130, 5, 0, 130, 3, 3, 136, 0, 4, 138, 4, 2, 151, 2, 5, 154, 2, 1, 156, 3, 2, 157, 1, 3, 160, 5, 4, 160, 3, 1, 162, 5, 4, 165, 0, 3, 167, 3, 3, 167, 3, 5, 168, 3, 0, 170, 5, 4, 174, 0, 3, 175, 5, 1, 176, 5, 5, 180, 1, 3, 181, 3, 4, 185, 1, 4, 188, 3, 4, 190, 4, 5, 192, 0, 4, 192, 2, 1, 194, 2, 5, 206, 2, 3, 206, 4, 5, 219, 0, 2, 223, 0, 4, 224, 5, 0, 224, 3, 2, 227, 0, 0, 229, 4, 5, 230, 5, 5, 231, 0, 4, 232, 0, 2, 237, 5, 3, 238, 2, 3, 243, 3, 3]);
