n_res = 4;
rc = [ 35, 36, 27, 35 ];
n_tasks = 92;
d = [0, 4, 8, 3, 4, 5, 10, 6, 2, 4, 7, 7, 4, 6, 9, 6, 4, 4, 2, 6, 9, 2, 7, 2, 6, 10, 4, 2, 5, 2, 6, 6, 8, 5, 1, 2, 4, 8, 6, 4, 2, 4, 7, 3, 5, 9, 6, 7, 2, 6, 3, 10, 1, 2, 4, 2, 2, 1, 7, 1, 6, 9, 7, 7, 1, 8, 5, 7, 5, 3, 1, 1, 4, 3, 7, 7, 2, 9, 8, 7, 7, 8, 4, 6, 1, 3, 10, 4, 10, 9, 1, 0];
rr = array2d(1..4, 1..92, [0, 0, 0, 0, 7, 4, 5, 7, 3, 7, 10, 10, 0, 4, 0, 6, 6, 6, 0, 3, 0, 0, 0, 10, 0, 8, 7, 3, 0, 5, 6, 0, 0, 7, 9, 0, 4, 0, 0, 6, 0, 3, 2, 1, 1, 7, 1, 0, 8, 0, 1, 9, 0, 0, 0, 3, 0, 8, 0, 6, 2, 0, 0, 0, 0, 1, 0, 3, 1, 9, 1, 1, 0, 0, 1, 0, 7, 4, 0, 0, 0, 7, 2, 0, 8, 0, 0, 8, 0, 0, 0, 0, 0, 7, 0, 0, 0, 0, 3, 5, 0, 10, 10, 4, 0, 0, 0, 8, 0, 0, 0, 6, 5, 0, 2, 0, 0, 0, 10, 0, 1, 0, 0, 2, 0, 0, 9, 9, 7, 4, 0, 1, 0, 0, 0, 0, 0, 0, 0, 0, 0, 8, 0, 6, 0, 10, 0, 8, 8, 0, 3, 8, 0, 0, 0, 7, 0, 4, 0, 0, 5, 2, 0, 0, 8, 6, 0, 4, 5, 7, 0, 0, 1, 0, 0, 8, 0, 4, 4, 10, 0, 0, 0, 0, 0, 0, 9, 0, 0, 0, 0, 0, 0, 6, 1, 0, 0, 2, 8, 0, 4, 4, 0, 0, 0, 0, 0, 2, 0, 0, 0, 0, 2, 0, 5, 5, 3, 0, 6, 1, 5, 0, 9, 0, 6, 5, 9, 6, 0, 0, 0, 0, 0, 0, 0, 10, 9, 9, 1, 3, 0, 0, 6, 2, 0, 7, 0, 0, 5, 4, 0, 0, 0, 0, 1, 0, 1, 4, 0, 5, 6, 8, 3, 10, 0, 0, 0, 3, 0, 0, 4, 0, 2, 0, 0, 0, 0, 1, 0, 6, 5, 9, 0, 0, 0, 0, 6, 1, 1, 3, 0, 0, 1, 0, 3, 0, 0, 1, 1, 2, 10, 1, 0, 0, 0, 0, 7, 8, 0, 0, 8, 1, 6, 10, 1, 0, 1, 2, 7, 0, 0, 3, 9, 6, 0, 10, 3, 0, 8, 0, 4, 0, 8, 8, 10, 0, 2, 1, 8, 0, 0, 0, 8, 10, 0, 0, 0, 7, 0, 0, 0, 3, 10, 0, 0, 0, 2, 4, 0, 4, 7, 8, 0, 9, 2, 8, 3, 0]);

suc = [
   {2, 3, 4},
   {9, 10, 11},
   {8, 5, 6},
   {24, 22, 7},
   {48, 44, 29},
   {58, 61, 14},
   {80, 49, 35},
   {12, 13},
   {49, 61, 15},
   {28, 45, 14},
   {19, 20, 30},
   {17, 70, 23},
   {17, 79, 57},
   {86},
   {16, 24, 59},
   {21, 55},
   {18, 50, 53},
   {40, 77, 22},
   {33, 29, 39},
   {42, 36, 63},
   {26, 27, 31},
   {25, 59},
   {42, 44, 39},
   {28, 44},
   {32, 54},
   {32, 65, 34},
   {43, 39},
   {29},
   {40, 65},
   {64, 37},
   {70, 69, 38},
   {83, 71},
   {34, 37, 55},
   {41, 35, 38},
   {48, 88, 43},
   {77, 37},
   {56, 65},
   {40, 73, 42},
   {52, 79},
   {66, 76},
   {54, 46, 47},
   {68},
   {50, 51, 45},
   {75, 60, 62},
   {56, 81, 68},
   {50, 52},
   {64, 52, 63},
   {90, 83, 76},
   {73, 54},
   {58, 60, 85},
   {68, 63},
   {56, 60},
   {80, 62, 55},
   {58, 82, 69},
   {66, 86},
   {67},
   {81, 59},
   {74},
   {80},
   {73, 69},
   {62, 79},
   {72, 66, 78},
   {67, 70},
   {75, 71},
   {91, 67, 71},
   {82, 84},
   {87},
   {72},
   {74},
   {72, 75, 87},
   {88},
   {77},
   {74, 78},
   {91},
   {76, 86},
   {85, 78},
   {84},
   {81, 91},
   {87},
   {82, 83},
   {89},
   {88},
   {84},
   {85},
   {89},
   {90},
   {89},
   {90},
   {92},
   {92},
   {92},
   {  } ];

deadline = array2d(1..92, 1..3, [1, 1, 1, 5, 1, 0, 6, 1, 4, 12, 5, 1, 13, 4, 1, 17, 2, 2, 18, 4, 3, 29, 2, 5, 30, 2, 5, 37, 0, 2, 41, 3, 1, 51, 2, 2, 51, 2, 2, 57, 0, 4, 58, 0, 5, 63, 4, 1, 64, 3, 0, 72, 0, 3, 77, 2, 5, 78, 3, 2, 79, 5, 2, 79, 3, 1, 87, 0, 3, 88, 2, 0, 89, 2, 3, 92, 3, 5, 95, 0, 3, 98, 1, 2, 101, 2, 5, 106, 1, 5, 107, 5, 4, 108, 3, 2, 108, 5, 4, 112, 4, 0, 117, 2, 4, 119, 1, 1, 121, 4, 4, 122, 3, 4, 123, 5, 4, 127, 4, 5, 128, 3, 4, 129, 3, 0, 140, 3, 2, 141, 4, 2, 145, 1, 5, 145, 3, 2, 146, 5, 2, 146, 5, 3, 147, 5, 0, 147, 3, 1, 150, 2, 2, 154, 5, 1, 158, 0, 1, 166, 3, 1, 166, 0, 4, 167, 0, 3, 169, 5, 5, 169, 5, 4, 169, 1, 0, 171, 1, 1, 175, 5, 5, 179, 4, 1, 181, 1, 5, 182, 5, 3, 183, 4, 4, 184, 5, 4, 186, 5, 5, 188, 5, 5, 191, 5, 5, 197, 5, 4, 198, 1, 4, 200, 4, 1, 201, 5, 4, 203, 2, 5, 204, 0, 2, 205, 1, 2, 210, 0, 0, 214, 3, 4, 218, 4, 5, 225, 5, 3, 229, 0, 2, 237, 0, 0, 241, 3, 3, 242, 5, 0, 248, 0, 4, 250, 1, 1, 253, 4, 0, 253, 5, 4, 255, 1, 5, 261, 5, 0, 262, 5, 5, 264, 0, 3]);
