n_res = 4;
rc = [ 57, 69, 73, 65 ];
n_tasks = 92;
d = [0, 6, 5, 9, 1, 3, 8, 6, 8, 6, 7, 5, 9, 3, 7, 8, 2, 3, 1, 10, 4, 5, 9, 2, 7, 5, 2, 9, 1, 2, 8, 2, 5, 7, 5, 6, 9, 6, 1, 10, 4, 8, 1, 6, 5, 4, 6, 9, 2, 4, 10, 2, 2, 9, 1, 1, 8, 4, 7, 2, 8, 9, 5, 5, 8, 2, 6, 2, 9, 7, 3, 9, 4, 8, 9, 5, 1, 4, 7, 6, 8, 9, 8, 5, 9, 8, 7, 1, 5, 1, 1, 0];
rr = array2d(1..4, 1..92, [0, 1, 3, 9, 2, 6, 7, 6, 6, 10, 8, 6, 9, 4, 7, 7, 4, 8, 6, 3, 3, 1, 1, 2, 8, 2, 6, 10, 7, 8, 1, 10, 6, 9, 10, 7, 4, 4, 7, 7, 2, 6, 9, 4, 10, 10, 4, 7, 5, 7, 1, 9, 6, 3, 10, 3, 1, 1, 9, 5, 9, 8, 7, 8, 4, 7, 3, 4, 6, 6, 6, 7, 3, 7, 2, 1, 5, 7, 2, 1, 8, 3, 9, 7, 5, 2, 4, 6, 6, 7, 5, 0, 0, 5, 8, 9, 2, 10, 7, 2, 7, 3, 10, 9, 10, 1, 9, 3, 8, 8, 5, 8, 7, 9, 7, 7, 4, 4, 10, 5, 3, 3, 2, 4, 7, 7, 7, 9, 9, 10, 5, 7, 6, 5, 10, 1, 10, 4, 1, 5, 6, 4, 6, 5, 10, 1, 1, 7, 8, 9, 9, 6, 2, 1, 10, 5, 8, 2, 8, 1, 2, 1, 8, 3, 1, 4, 3, 7, 5, 8, 2, 2, 3, 4, 8, 2, 2, 1, 2, 4, 8, 2, 9, 0, 0, 2, 10, 2, 6, 4, 3, 4, 9, 1, 8, 8, 4, 2, 2, 9, 5, 5, 3, 3, 4, 9, 8, 7, 2, 2, 2, 4, 9, 2, 9, 8, 5, 5, 1, 4, 4, 4, 8, 7, 10, 10, 1, 6, 1, 10, 1, 6, 10, 8, 10, 3, 2, 7, 10, 7, 8, 10, 5, 2, 8, 4, 9, 2, 6, 10, 9, 10, 9, 4, 3, 6, 3, 7, 2, 10, 8, 2, 8, 9, 5, 6, 1, 10, 8, 2, 4, 9, 6, 10, 10, 0, 0, 4, 8, 2, 5, 2, 8, 7, 4, 10, 5, 3, 1, 2, 2, 6, 6, 5, 9, 5, 9, 9, 3, 4, 5, 5, 6, 3, 5, 6, 5, 10, 5, 5, 5, 6, 5, 3, 7, 9, 10, 4, 7, 6, 9, 7, 8, 3, 2, 6, 5, 9, 1, 9, 9, 1, 10, 6, 9, 6, 6, 10, 4, 3, 2, 2, 7, 2, 9, 8, 9, 8, 5, 6, 8, 6, 1, 1, 8, 5, 4, 10, 3, 1, 6, 1, 9, 9, 2, 1, 6, 0]);

suc = [
   {2, 3, 4},
   {5, 6, 7},
   {80, 25, 13},
   {34, 44, 60},
   {8, 35},
   {9, 25, 15},
   {59, 44, 23},
   {72, 17, 52},
   {10, 11, 22},
   {73, 20, 14},
   {18, 12, 47},
   {57, 27, 13},
   {34, 19, 42},
   {61},
   {16, 24, 28},
   {32, 75, 29},
   {62, 54, 31},
   {33, 44, 55},
   {40, 21, 38},
   {24, 26, 88},
   {41, 23},
   {72, 65, 47},
   {50, 51, 69},
   {36},
   {66, 36, 47},
   {27, 28, 30},
   {64},
   {36, 29, 79},
   {62},
   {65, 63},
   {53, 45, 39},
   {64, 43, 53},
   {57, 46},
   {37, 38, 39},
   {48, 37, 39},
   {81, 62, 86},
   {67, 50, 59},
   {70, 54, 63},
   {59, 58, 51},
   {72},
   {65, 50, 67},
   {56, 82, 52},
   {60, 61},
   {56, 57, 52},
   {61, 55},
   {49},
   {58},
   {49, 51, 68},
   {53, 54},
   {56, 58, 55},
   {74, 70},
   {66, 70},
   {60, 84},
   {64, 91},
   {74},
   {74, 68},
   {80, 66, 67},
   {82, 85},
   {77},
   {79, 63},
   {68, 78, 76},
   {87},
   {90},
   {89, 71},
   {71},
   {73, 75, 69},
   {85, 69},
   {81},
   {84, 71},
   {73, 86},
   {81},
   {77, 78},
   {77},
   {75, 78},
   {83},
   {85, 79},
   {89, 84},
   {88, 87},
   {80, 82},
   {83},
   {90},
   {83, 86},
   {91},
   {91},
   {88},
   {87},
   {89},
   {90},
   {92},
   {92},
   {92},
   {  } ];

deadline = array2d(1..92, 1..3, [2, 1, 5, 3, 1, 5, 5, 3, 3, 9, 1, 1, 11, 4, 2, 21, 3, 1, 21, 0, 5, 21, 0, 3, 25, 5, 5, 29, 3, 5, 29, 2, 0, 31, 4, 5, 31, 5, 3, 32, 0, 1, 35, 3, 1, 36, 0, 0, 36, 0, 0, 37, 1, 4, 42, 4, 2, 46, 1, 3, 47, 4, 3, 57, 1, 0, 57, 4, 2, 59, 2, 3, 59, 0, 2, 63, 5, 1, 63, 5, 2, 64, 0, 0, 65, 2, 4, 66, 4, 3, 73, 0, 2, 74, 3, 4, 74, 3, 0, 74, 3, 3, 77, 2, 1, 80, 2, 5, 86, 4, 0, 91, 1, 3, 95, 2, 3, 100, 3, 1, 103, 4, 0, 104, 4, 4, 106, 2, 3, 107, 0, 2, 107, 2, 3, 115, 5, 5, 115, 2, 0, 119, 4, 1, 120, 1, 2, 127, 3, 1, 130, 3, 5, 130, 4, 4, 131, 5, 0, 131, 5, 5, 135, 4, 5, 140, 2, 0, 140, 2, 4, 142, 1, 1, 143, 1, 3, 145, 2, 2, 147, 4, 5, 148, 3, 4, 149, 4, 5, 150, 1, 5, 151, 2, 4, 155, 2, 1, 155, 3, 5, 159, 2, 1, 164, 4, 1, 165, 0, 4, 181, 1, 2, 183, 4, 5, 184, 3, 4, 187, 1, 4, 188, 3, 4, 191, 3, 3, 193, 3, 0, 195, 3, 3, 197, 1, 0, 198, 3, 1, 200, 4, 3, 202, 3, 5, 202, 4, 5, 209, 5, 2, 209, 0, 2, 215, 0, 0, 216, 2, 4, 218, 0, 5, 219, 1, 4, 222, 2, 1, 225, 0, 5, 225, 1, 2]);
