n_res = 4;
rc = [ 53, 55, 65, 43 ];
n_tasks = 92;
d = [0, 6, 6, 9, 8, 5, 9, 4, 9, 1, 6, 8, 1, 2, 7, 1, 6, 9, 9, 1, 6, 5, 5, 6, 6, 10, 10, 6, 6, 3, 9, 10, 4, 6, 9, 10, 3, 1, 4, 7, 2, 4, 7, 10, 3, 1, 5, 4, 10, 8, 10, 7, 9, 9, 7, 10, 4, 8, 4, 9, 4, 8, 3, 9, 9, 9, 5, 3, 8, 5, 2, 10, 5, 7, 2, 9, 7, 1, 2, 3, 10, 4, 9, 2, 7, 9, 10, 4, 9, 1, 2, 0];
rr = array2d(1..4, 1..92, [0, 0, 0, 8, 0, 0, 10, 1, 0, 9, 3, 0, 0, 0, 0, 0, 0, 7, 1, 10, 0, 0, 0, 2, 10, 0, 6, 2, 4, 0, 4, 0, 3, 8, 0, 10, 0, 1, 2, 9, 0, 5, 7, 0, 0, 2, 5, 0, 10, 2, 7, 0, 0, 5, 0, 8, 0, 5, 8, 0, 0, 0, 6, 6, 4, 6, 0, 0, 6, 9, 0, 0, 4, 7, 0, 0, 8, 5, 3, 0, 0, 0, 0, 0, 0, 0, 6, 7, 9, 3, 9, 0, 0, 3, 1, 0, 0, 0, 0, 0, 2, 0, 0, 0, 5, 0, 5, 0, 0, 5, 10, 0, 9, 9, 0, 0, 4, 7, 10, 1, 0, 0, 0, 6, 0, 2, 0, 0, 9, 1, 4, 6, 8, 0, 0, 3, 7, 5, 0, 5, 0, 0, 10, 1, 0, 9, 0, 0, 9, 5, 10, 10, 1, 0, 0, 0, 0, 0, 0, 0, 0, 0, 1, 10, 0, 0, 0, 2, 0, 0, 2, 0, 5, 0, 1, 8, 1, 10, 6, 0, 0, 8, 5, 0, 0, 8, 9, 6, 0, 1, 0, 0, 0, 4, 0, 0, 2, 10, 0, 9, 0, 0, 0, 5, 0, 0, 9, 7, 5, 0, 1, 0, 0, 4, 0, 7, 8, 8, 7, 3, 0, 0, 4, 6, 0, 0, 0, 0, 10, 5, 0, 5, 9, 10, 0, 4, 0, 0, 5, 5, 1, 2, 10, 0, 0, 10, 2, 6, 0, 5, 2, 10, 10, 3, 2, 5, 0, 0, 4, 8, 9, 0, 0, 7, 0, 8, 0, 0, 7, 2, 10, 10, 0, 9, 0, 0, 0, 0, 10, 0, 8, 9, 0, 6, 0, 0, 3, 5, 0, 0, 6, 8, 10, 4, 0, 0, 0, 8, 7, 0, 0, 0, 0, 10, 0, 0, 0, 0, 0, 0, 10, 10, 0, 6, 0, 0, 6, 9, 0, 0, 0, 2, 6, 3, 0, 6, 2, 0, 2, 5, 0, 2, 0, 5, 0, 0, 0, 1, 0, 0, 0, 0, 6, 9, 0, 2, 0, 5, 0, 0, 10, 0, 0, 0, 0, 0, 7, 2, 0, 9, 0, 0, 0, 9, 7, 0, 0, 0]);

suc = [
   {2, 3, 4},
   {5, 6, 7},
   {8, 10, 20},
   {40, 60},
   {9, 11, 12},
   {24, 41, 57},
   {16, 67, 47},
   {89},
   {19, 13},
   {27},
   {66, 78},
   {18, 34, 14},
   {17, 77, 87},
   {25, 45, 15},
   {51},
   {26, 31},
   {48, 21, 38},
   {30},
   {68},
   {28, 46},
   {35, 22, 23},
   {64, 29, 86},
   {33, 31},
   {42},
   {32, 36, 79},
   {71},
   {44, 45, 62},
   {31},
   {91},
   {37},
   {65, 49, 55},
   {59},
   {53},
   {75},
   {82},
   {62},
   {85, 39},
   {43, 52},
   {80},
   {59},
   {63},
   {72},
   {80, 50},
   {84},
   {54},
   {64, 68},
   {56, 74},
   {65, 70},
   {61},
   {71},
   {59},
   {60, 84},
   {79},
   {60, 55},
   {57},
   {73, 58},
   {63},
   {76},
   {68},
   {73},
   {71},
   {69},
   {82},
   {76},
   {81},
   {88},
   {75},
   {88},
   {70},
   {72, 82},
   {84},
   {74},
   {81},
   {81},
   {80},
   {90},
   {78, 79},
   {90},
   {86},
   {83},
   {89},
   {90},
   {89},
   {86},
   {87},
   {88},
   {91},
   {91},
   {92},
   {92},
   {92},
   {  } ];

deadline = array2d(1..92, 1..3, [1, 1, 5, 1, 1, 4, 11, 4, 2, 12, 3, 0, 15, 5, 2, 18, 5, 2, 21, 3, 0, 22, 0, 0, 22, 2, 0, 23, 4, 5, 24, 1, 4, 29, 4, 5, 30, 2, 2, 34, 3, 3, 37, 0, 5, 38, 3, 2, 46, 0, 3, 48, 3, 5, 49, 5, 1, 52, 0, 4, 54, 1, 2, 54, 2, 0, 55, 5, 4, 60, 2, 2, 60, 1, 1, 61, 3, 4, 67, 5, 0, 68, 1, 0, 77, 1, 4, 82, 3, 5, 82, 5, 0, 84, 3, 0, 85, 1, 4, 87, 4, 5, 88, 5, 1, 92, 2, 2, 98, 3, 1, 100, 5, 2, 100, 1, 2, 103, 2, 4, 103, 0, 0, 110, 0, 5, 111, 0, 2, 112, 3, 4, 115, 3, 4, 115, 3, 3, 115, 0, 3, 116, 0, 5, 118, 1, 4, 119, 2, 4, 119, 0, 1, 123, 5, 1, 126, 0, 3, 130, 4, 1, 131, 3, 2, 131, 4, 3, 135, 1, 1, 135, 0, 0, 135, 1, 5, 137, 2, 0, 140, 3, 0, 146, 4, 2, 152, 1, 0, 156, 5, 2, 157, 4, 3, 165, 2, 2, 178, 3, 0, 180, 4, 3, 183, 5, 2, 184, 4, 1, 184, 4, 5, 187, 2, 4, 189, 3, 1, 190, 5, 4, 190, 1, 1, 194, 5, 3, 206, 5, 4, 207, 0, 4, 209, 1, 0, 211, 2, 2, 213, 0, 2, 220, 2, 5, 220, 2, 3, 223, 3, 0, 226, 1, 2, 226, 1, 3, 227, 0, 5, 229, 1, 3, 232, 1, 2, 236, 3, 1, 238, 0, 0, 239, 0, 4]);
