n_res = 4;
rc = [ 51, 41, 53, 51 ];
n_tasks = 92;
d = [0, 9, 6, 1, 3, 7, 7, 7, 9, 4, 10, 1, 3, 8, 8, 6, 3, 7, 4, 3, 4, 5, 5, 8, 3, 6, 5, 10, 8, 5, 2, 5, 7, 8, 1, 1, 2, 3, 3, 1, 6, 10, 5, 7, 10, 8, 3, 5, 4, 3, 5, 4, 8, 9, 6, 3, 4, 9, 2, 4, 9, 10, 3, 3, 8, 9, 8, 8, 7, 2, 9, 1, 7, 3, 5, 4, 7, 8, 1, 9, 6, 8, 7, 7, 1, 6, 8, 5, 9, 5, 6, 0];
rr = array2d(1..4, 1..92, [0, 7, 9, 1, 10, 0, 0, 5, 0, 0, 10, 4, 7, 0, 7, 9, 3, 9, 10, 10, 2, 4, 0, 10, 4, 0, 0, 8, 7, 3, 0, 9, 9, 7, 3, 0, 9, 9, 1, 0, 8, 7, 0, 10, 1, 1, 0, 9, 8, 1, 7, 4, 0, 4, 6, 5, 6, 5, 5, 6, 0, 3, 10, 0, 1, 0, 8, 1, 10, 10, 5, 6, 10, 5, 1, 8, 8, 9, 0, 0, 0, 0, 7, 4, 0, 0, 9, 0, 6, 1, 1, 0, 0, 9, 4, 2, 2, 10, 1, 7, 10, 0, 4, 7, 10, 6, 5, 10, 7, 8, 3, 0, 9, 0, 10, 1, 10, 2, 3, 0, 7, 4, 9, 4, 0, 0, 4, 0, 3, 6, 0, 10, 6, 0, 10, 4, 0, 0, 0, 10, 7, 0, 0, 5, 0, 0, 5, 2, 3, 1, 6, 0, 6, 7, 0, 9, 0, 0, 0, 4, 6, 5, 9, 9, 0, 9, 2, 10, 3, 0, 1, 2, 7, 0, 0, 9, 0, 8, 0, 8, 4, 9, 2, 0, 0, 0, 7, 6, 0, 2, 9, 1, 3, 7, 10, 8, 2, 5, 3, 9, 6, 10, 0, 10, 0, 8, 0, 2, 6, 5, 7, 8, 0, 1, 8, 2, 6, 3, 0, 5, 9, 3, 10, 6, 8, 0, 4, 4, 6, 10, 7, 0, 5, 2, 6, 7, 5, 2, 0, 0, 9, 0, 7, 10, 9, 4, 8, 3, 8, 7, 2, 9, 2, 9, 0, 0, 8, 9, 9, 5, 6, 5, 3, 10, 9, 10, 6, 0, 5, 9, 10, 1, 0, 3, 0, 0, 0, 3, 0, 4, 0, 10, 0, 6, 5, 0, 9, 4, 5, 0, 0, 2, 10, 1, 1, 8, 1, 7, 4, 9, 2, 0, 1, 8, 4, 8, 0, 6, 3, 8, 0, 5, 1, 2, 10, 3, 4, 8, 0, 0, 1, 0, 3, 0, 8, 7, 0, 10, 3, 0, 8, 7, 0, 7, 5, 10, 4, 8, 10, 10, 4, 1, 9, 4, 5, 2, 3, 0, 5, 0, 0, 8, 8, 1, 5, 9, 0, 0, 9, 7, 2, 7, 7, 4, 5, 6, 3, 0]);

suc = [
   {2, 3, 4},
   {8, 17, 6},
   {24, 9, 5},
   {35, 21, 31},
   {11, 12, 7},
   {16, 10, 19},
   {30},
   {27},
   {18, 50, 23},
   {26, 13, 14},
   {15},
   {51},
   {35},
   {91, 43, 71},
   {36, 38},
   {56, 20},
   {32, 84, 22},
   {54, 46},
   {40},
   {25, 42, 57},
   {90},
   {74},
   {61, 30},
   {49, 67, 45},
   {33},
   {58, 68},
   {34, 28, 71},
   {29, 87},
   {77},
   {89},
   {58},
   {56, 81, 79},
   {74},
   {60},
   {37},
   {39},
   {40},
   {64, 47},
   {41},
   {88},
   {59, 44},
   {82, 47},
   {73, 83, 75},
   {48, 53, 62},
   {46},
   {51},
   {52, 78, 55},
   {80},
   {79},
   {79},
   {60},
   {85, 54},
   {66},
   {83},
   {72},
   {72, 60},
   {64},
   {76},
   {63},
   {85},
   {80},
   {65},
   {65},
   {77},
   {70},
   {80},
   {70},
   {69},
   {76, 70},
   {88},
   {73},
   {83},
   {90},
   {81},
   {90},
   {81},
   {84, 78},
   {86},
   {85},
   {86},
   {86},
   {84},
   {88},
   {91},
   {87},
   {91},
   {89},
   {89},
   {92},
   {92},
   {92},
   {  } ];

deadline = array2d(1..92, 1..3, [3, 1, 3, 4, 5, 4, 8, 5, 5, 10, 2, 1, 11, 3, 0, 12, 2, 5, 17, 4, 2, 21, 5, 0, 26, 3, 2, 26, 0, 3, 27, 5, 5, 32, 0, 1, 35, 3, 5, 36, 3, 1, 37, 2, 1, 38, 5, 1, 40, 1, 4, 43, 1, 0, 46, 5, 3, 52, 3, 3, 53, 0, 3, 56, 5, 1, 60, 1, 1, 62, 4, 3, 64, 2, 2, 65, 4, 5, 67, 4, 5, 76, 1, 1, 80, 5, 0, 81, 2, 1, 81, 1, 2, 83, 4, 2, 84, 5, 2, 85, 1, 0, 87, 5, 2, 91, 1, 5, 92, 5, 3, 93, 0, 2, 93, 5, 0, 93, 4, 5, 95, 1, 0, 96, 0, 3, 100, 4, 1, 101, 1, 3, 102, 4, 1, 104, 4, 0, 104, 1, 3, 105, 3, 2, 106, 0, 1, 107, 0, 0, 108, 5, 4, 108, 4, 1, 110, 5, 0, 112, 3, 5, 114, 4, 0, 116, 5, 2, 119, 0, 1, 127, 3, 2, 131, 4, 2, 132, 2, 5, 133, 4, 3, 134, 4, 0, 136, 3, 0, 138, 1, 5, 139, 5, 1, 139, 0, 4, 140, 2, 2, 140, 0, 1, 143, 0, 0, 144, 0, 0, 146, 0, 0, 146, 1, 3, 148, 3, 4, 148, 1, 5, 148, 0, 0, 153, 2, 0, 158, 2, 4, 160, 4, 1, 161, 0, 1, 161, 3, 4, 163, 2, 1, 170, 1, 3, 172, 5, 0, 177, 3, 4, 181, 4, 4, 184, 4, 1, 188, 5, 5, 190, 5, 3, 193, 0, 1, 198, 4, 3, 199, 4, 5, 201, 3, 3]);
