n_res = 4;
rc = [ 61, 70, 59, 74 ];
n_tasks = 92;
d = [0, 1, 1, 6, 5, 4, 3, 8, 8, 8, 7, 1, 3, 8, 8, 10, 2, 10, 9, 1, 3, 6, 1, 2, 3, 7, 6, 6, 6, 5, 2, 6, 5, 9, 10, 2, 7, 4, 5, 4, 6, 8, 10, 5, 9, 8, 10, 6, 9, 2, 6, 1, 7, 2, 10, 1, 1, 7, 6, 4, 9, 10, 5, 5, 1, 8, 1, 10, 8, 4, 1, 2, 3, 8, 8, 8, 3, 5, 8, 3, 3, 3, 1, 1, 2, 7, 10, 5, 2, 7, 4, 0];
rr = array2d(1..4, 1..92, [0, 2, 8, 2, 9, 7, 10, 6, 3, 3, 4, 2, 9, 8, 1, 3, 10, 1, 7, 9, 7, 7, 2, 6, 8, 2, 2, 10, 2, 1, 2, 10, 4, 9, 10, 6, 6, 8, 3, 9, 8, 1, 2, 1, 5, 2, 3, 1, 5, 3, 4, 10, 5, 5, 8, 9, 2, 1, 5, 1, 1, 4, 2, 7, 8, 1, 6, 2, 2, 3, 10, 3, 1, 8, 6, 5, 5, 5, 1, 6, 3, 5, 7, 4, 7, 3, 4, 9, 7, 2, 6, 0, 0, 6, 5, 1, 3, 8, 9, 5, 4, 5, 8, 1, 6, 9, 3, 4, 4, 3, 7, 1, 10, 3, 6, 1, 8, 10, 10, 8, 4, 4, 2, 8, 8, 9, 10, 5, 6, 7, 8, 6, 7, 7, 1, 5, 7, 7, 4, 4, 5, 5, 5, 4, 3, 8, 8, 6, 4, 5, 3, 4, 10, 9, 2, 10, 9, 9, 1, 2, 4, 9, 2, 5, 4, 6, 2, 8, 7, 10, 2, 8, 5, 6, 8, 10, 6, 9, 10, 6, 3, 3, 5, 0, 0, 6, 3, 3, 7, 10, 7, 3, 1, 9, 9, 10, 3, 5, 4, 5, 4, 8, 1, 8, 1, 2, 6, 4, 10, 7, 1, 1, 5, 2, 8, 6, 4, 5, 8, 8, 7, 3, 3, 6, 6, 7, 4, 3, 3, 5, 10, 4, 3, 7, 9, 4, 1, 9, 7, 8, 9, 7, 9, 9, 8, 2, 4, 9, 5, 10, 1, 7, 8, 1, 7, 7, 5, 1, 6, 7, 10, 1, 6, 10, 9, 10, 5, 5, 3, 2, 5, 3, 10, 2, 7, 0, 0, 4, 4, 8, 3, 8, 9, 6, 10, 5, 5, 2, 4, 6, 6, 10, 8, 3, 2, 8, 6, 2, 6, 1, 9, 5, 7, 10, 8, 5, 2, 5, 1, 3, 8, 8, 1, 9, 1, 8, 1, 7, 1, 4, 4, 7, 9, 1, 6, 5, 9, 7, 1, 5, 2, 5, 4, 5, 8, 2, 9, 8, 7, 6, 8, 3, 10, 8, 4, 4, 3, 1, 7, 6, 2, 2, 8, 4, 4, 9, 10, 3, 2, 10, 8, 6, 2, 7, 9, 4, 5, 0]);

suc = [
   {2, 3, 4},
   {13, 26, 5},
   {8, 9, 6},
   {10, 11, 14},
   {27, 20, 15},
   {25, 38, 7},
   {51, 12, 23},
   {80, 82, 22},
   {84, 55, 31},
   {16, 25, 19},
   {24, 21, 30},
   {32, 85, 63},
   {33, 18, 69},
   {17, 53, 39},
   {17, 59, 71},
   {53, 46, 23},
   {42, 58},
   {34, 83},
   {58, 59, 60},
   {49, 61, 37},
   {26, 29, 46},
   {32, 49, 73},
   {40, 33, 47},
   {56, 33, 67},
   {35, 45, 47},
   {35, 28, 44},
   {82, 36, 53},
   {61, 55},
   {40, 65, 45},
   {41, 36, 57},
   {50},
   {37},
   {48, 76, 79},
   {49, 36, 44},
   {65, 51},
   {68, 37},
   {60, 86},
   {40, 76, 55},
   {50, 43},
   {48, 43},
   {70, 42, 54},
   {89, 81, 46},
   {52},
   {80, 45},
   {48},
   {63},
   {66, 52, 86},
   {89, 57},
   {57, 67},
   {81, 82, 79},
   {56, 60, 62},
   {59},
   {72, 58},
   {66},
   {79},
   {64, 61, 86},
   {68, 87},
   {65, 62},
   {72, 89, 63},
   {67},
   {78, 70, 71},
   {64, 77, 69},
   {75, 68},
   {73},
   {69},
   {73, 71},
   {78, 70},
   {77},
   {74, 78},
   {88},
   {72},
   {74, 75, 77},
   {74, 75, 76},
   {81},
   {83, 84},
   {90},
   {88},
   {84},
   {80},
   {85},
   {83, 85},
   {88},
   {87},
   {90},
   {91},
   {91, 87},
   {90},
   {91},
   {92},
   {92},
   {92},
   {  } ];

deadline = array2d(1..92, 1..3, [1, 1, 1, 1, 3, 0, 4, 5, 1, 7, 3, 1, 9, 4, 5, 9, 1, 4, 10, 1, 5, 13, 1, 1, 14, 5, 2, 17, 1, 5, 18, 2, 4, 19, 2, 0, 24, 1, 0, 25, 4, 4, 26, 1, 0, 27, 1, 5, 27, 1, 0, 32, 3, 1, 33, 2, 0, 33, 3, 5, 36, 3, 0, 37, 4, 3, 41, 3, 1, 47, 4, 3, 48, 0, 4, 48, 1, 5, 49, 0, 1, 49, 2, 4, 51, 1, 2, 54, 0, 0, 55, 1, 2, 55, 1, 0, 56, 3, 2, 58, 2, 3, 63, 1, 4, 63, 4, 0, 66, 1, 5, 72, 1, 2, 72, 1, 4, 73, 2, 5, 73, 3, 5, 82, 2, 3, 83, 1, 0, 86, 4, 5, 88, 2, 1, 93, 4, 1, 96, 0, 4, 99, 3, 1, 108, 3, 0, 109, 4, 0, 110, 5, 1, 111, 4, 5, 116, 1, 5, 119, 0, 5, 121, 2, 2, 122, 2, 4, 128, 4, 0, 129, 5, 1, 130, 2, 3, 130, 2, 3, 132, 1, 3, 133, 1, 1, 135, 5, 5, 140, 0, 0, 141, 2, 4, 142, 0, 4, 142, 0, 1, 142, 4, 4, 147, 1, 3, 154, 5, 2, 154, 2, 0, 154, 4, 5, 155, 0, 3, 157, 5, 4, 161, 0, 4, 163, 3, 5, 164, 2, 5, 172, 0, 0, 174, 2, 2, 176, 5, 3, 180, 1, 4, 181, 1, 3, 181, 3, 3, 182, 3, 0, 190, 0, 3, 192, 5, 2, 195, 5, 0, 196, 1, 2, 200, 4, 2, 204, 0, 1, 206, 0, 4, 212, 2, 3]);
