n_res = 4;
rc = [ 40, 43, 31, 34 ];
n_tasks = 92;
d = [0, 1, 3, 9, 3, 8, 4, 7, 6, 7, 7, 10, 10, 6, 4, 2, 10, 9, 6, 5, 3, 2, 2, 6, 8, 8, 9, 2, 7, 9, 10, 2, 6, 7, 5, 2, 3, 3, 8, 3, 10, 6, 8, 3, 10, 9, 6, 10, 10, 3, 6, 5, 9, 6, 2, 7, 7, 9, 8, 6, 10, 5, 2, 3, 4, 7, 1, 8, 6, 2, 4, 1, 8, 6, 3, 5, 10, 6, 8, 9, 2, 6, 1, 6, 9, 4, 6, 6, 9, 3, 5, 0];
rr = array2d(1..4, 1..92, [0, 9, 8, 8, 5, 0, 9, 7, 10, 3, 10, 3, 4, 5, 2, 5, 0, 2, 9, 8, 0, 4, 0, 3, 0, 5, 5, 2, 6, 4, 10, 8, 0, 8, 0, 4, 6, 6, 2, 0, 3, 9, 9, 4, 3, 2, 0, 4, 8, 0, 10, 6, 9, 5, 10, 9, 8, 7, 8, 4, 6, 7, 4, 0, 10, 9, 4, 0, 9, 4, 7, 5, 0, 6, 9, 0, 10, 6, 7, 1, 3, 5, 0, 8, 10, 6, 8, 0, 5, 5, 2, 0, 0, 8, 2, 10, 0, 9, 7, 8, 1, 0, 0, 0, 9, 10, 4, 8, 5, 4, 6, 0, 9, 2, 1, 6, 4, 7, 6, 8, 2, 9, 0, 8, 0, 0, 0, 0, 2, 3, 0, 0, 3, 1, 10, 0, 0, 3, 8, 6, 0, 0, 0, 8, 1, 5, 0, 9, 0, 2, 8, 7, 4, 3, 10, 7, 10, 1, 10, 9, 9, 10, 8, 0, 5, 8, 0, 4, 8, 0, 1, 4, 9, 1, 4, 10, 1, 0, 3, 9, 1, 5, 6, 0, 0, 5, 6, 0, 10, 5, 6, 4, 4, 5, 0, 2, 10, 1, 0, 0, 0, 8, 0, 6, 7, 9, 5, 0, 0, 0, 0, 8, 4, 2, 3, 10, 0, 3, 1, 0, 7, 9, 5, 1, 4, 3, 4, 3, 5, 3, 4, 9, 0, 2, 0, 1, 0, 10, 2, 6, 8, 4, 9, 3, 9, 0, 0, 1, 8, 0, 3, 6, 10, 6, 1, 10, 1, 9, 0, 1, 10, 7, 5, 6, 7, 0, 6, 3, 10, 9, 0, 6, 0, 0, 5, 0, 0, 5, 0, 0, 2, 5, 8, 0, 8, 1, 7, 1, 5, 0, 0, 0, 4, 9, 6, 9, 3, 7, 0, 6, 4, 3, 5, 0, 7, 9, 4, 0, 2, 0, 8, 5, 0, 0, 4, 9, 10, 1, 9, 8, 8, 1, 0, 0, 8, 8, 8, 0, 4, 0, 5, 1, 10, 0, 2, 6, 0, 8, 9, 0, 5, 6, 0, 0, 0, 2, 10, 10, 9, 0, 3, 9, 5, 6, 10, 6, 9, 0, 4, 0, 5, 0, 4, 1, 6, 5, 0, 0]);

suc = [
   {2, 3, 4},
   {5, 46},
   {22, 14, 7},
   {25, 62, 15},
   {66, 6, 55},
   {8, 9, 10},
   {26},
   {59, 13, 22},
   {31},
   {11, 12, 29},
   {42, 20, 68},
   {16, 18, 19},
   {56, 67, 52},
   {32, 85, 45},
   {17, 50, 35},
   {90, 87},
   {24, 33, 30},
   {65, 82, 43},
   {20},
   {44, 21},
   {40, 33, 41},
   {37, 23},
   {27, 38},
   {34},
   {89, 28, 39},
   {61},
   {33},
   {83},
   {64},
   {88},
   {48, 36},
   {73},
   {70},
   {43, 60},
   {76},
   {64, 58},
   {75},
   {41},
   {50},
   {58},
   {47},
   {59},
   {80},
   {70, 51, 54},
   {53, 63},
   {64, 68},
   {49},
   {53},
   {57},
   {51},
   {73},
   {79, 71},
   {62},
   {60},
   {72},
   {70},
   {81},
   {69},
   {62},
   {91},
   {74},
   {78},
   {84},
   {69},
   {80},
   {73},
   {78},
   {74},
   {75, 85},
   {77},
   {78},
   {91},
   {81, 86},
   {85},
   {84},
   {77},
   {79},
   {83},
   {82},
   {88},
   {84},
   {90},
   {86},
   {88},
   {87},
   {90},
   {89},
   {91},
   {92},
   {92},
   {92},
   {  } ];

deadline = array2d(1..92, 1..3, [1, 3, 0, 2, 1, 5, 3, 1, 3, 3, 4, 0, 4, 3, 0, 6, 5, 1, 7, 1, 3, 9, 1, 2, 10, 0, 1, 14, 2, 3, 17, 2, 3, 24, 1, 4, 26, 2, 2, 27, 1, 0, 30, 5, 1, 31, 4, 0, 31, 4, 0, 36, 2, 3, 36, 4, 5, 37, 5, 5, 41, 0, 5, 41, 4, 3, 46, 5, 0, 49, 1, 3, 50, 3, 0, 60, 2, 0, 61, 0, 4, 62, 3, 4, 73, 1, 2, 74, 3, 5, 76, 4, 5, 76, 5, 5, 76, 1, 5, 78, 3, 2, 79, 5, 4, 82, 1, 1, 82, 1, 1, 84, 5, 2, 87, 4, 1, 88, 5, 1, 90, 3, 1, 94, 3, 4, 94, 2, 2, 97, 0, 5, 99, 1, 0, 101, 2, 1, 103, 0, 0, 103, 3, 4, 105, 4, 2, 106, 5, 5, 107, 4, 2, 108, 4, 3, 109, 0, 4, 119, 3, 3, 119, 1, 1, 123, 0, 2, 126, 5, 0, 126, 1, 4, 128, 4, 1, 129, 2, 4, 130, 4, 0, 138, 1, 2, 140, 2, 4, 144, 5, 1, 147, 5, 1, 150, 0, 0, 151, 4, 5, 151, 3, 0, 152, 1, 1, 163, 1, 3, 166, 4, 0, 169, 4, 0, 171, 0, 0, 172, 5, 2, 182, 0, 3, 189, 5, 4, 191, 1, 4, 195, 5, 3, 196, 4, 4, 202, 0, 2, 203, 2, 0, 208, 0, 5, 210, 1, 0, 211, 1, 4, 214, 4, 0, 217, 4, 2, 217, 1, 3, 217, 1, 1, 217, 1, 1, 225, 3, 0, 229, 2, 4, 235, 0, 5]);
