n_res = 4;
rc = [ 66, 58, 58, 46 ];
n_tasks = 92;
d = [0, 3, 3, 8, 6, 9, 7, 5, 10, 6, 10, 7, 9, 4, 8, 2, 7, 5, 9, 2, 5, 1, 1, 4, 3, 4, 7, 5, 2, 4, 7, 8, 2, 5, 10, 4, 5, 7, 5, 8, 6, 5, 7, 7, 7, 4, 8, 4, 8, 4, 8, 5, 6, 7, 2, 5, 1, 6, 7, 5, 4, 3, 3, 8, 6, 10, 3, 8, 8, 2, 9, 4, 3, 5, 4, 3, 1, 6, 4, 6, 7, 4, 8, 2, 4, 9, 1, 5, 3, 6, 2, 0];
rr = array2d(1..4, 1..92, [0, 7, 10, 10, 5, 2, 4, 9, 9, 8, 8, 4, 10, 2, 6, 2, 10, 1, 4, 2, 5, 10, 9, 10, 7, 5, 2, 3, 7, 5, 3, 8, 3, 8, 7, 6, 10, 6, 2, 3, 10, 10, 3, 8, 6, 1, 10, 3, 3, 2, 1, 1, 2, 3, 3, 10, 10, 6, 3, 7, 10, 2, 10, 2, 1, 1, 8, 2, 5, 6, 1, 9, 7, 1, 2, 1, 1, 9, 3, 9, 9, 6, 6, 10, 6, 5, 7, 9, 3, 7, 7, 0, 0, 10, 7, 4, 5, 5, 7, 10, 1, 5, 8, 5, 6, 5, 7, 5, 10, 10, 2, 5, 8, 8, 5, 10, 8, 10, 8, 5, 3, 6, 7, 4, 3, 10, 7, 1, 9, 2, 9, 6, 1, 4, 6, 8, 5, 6, 7, 7, 5, 4, 9, 1, 8, 1, 6, 9, 1, 9, 1, 3, 4, 7, 8, 4, 10, 4, 3, 2, 3, 1, 9, 7, 2, 9, 5, 5, 7, 6, 3, 7, 2, 4, 2, 8, 3, 10, 3, 3, 10, 2, 3, 0, 0, 9, 10, 3, 6, 1, 5, 10, 4, 3, 7, 10, 8, 7, 6, 2, 9, 3, 3, 8, 6, 7, 1, 5, 5, 5, 8, 8, 6, 3, 2, 2, 10, 1, 5, 2, 9, 8, 5, 8, 7, 1, 10, 8, 1, 8, 6, 6, 5, 1, 2, 3, 2, 10, 7, 8, 7, 10, 1, 9, 1, 10, 9, 1, 3, 9, 4, 1, 2, 7, 4, 10, 5, 6, 5, 6, 8, 2, 6, 1, 7, 5, 8, 7, 6, 8, 1, 6, 1, 8, 4, 0, 0, 5, 1, 6, 9, 9, 3, 3, 10, 7, 2, 1, 1, 5, 1, 4, 1, 2, 7, 6, 7, 5, 2, 8, 7, 10, 6, 1, 6, 4, 1, 2, 8, 2, 4, 5, 4, 3, 3, 2, 6, 7, 3, 10, 10, 10, 6, 2, 6, 8, 1, 8, 1, 3, 10, 5, 7, 6, 8, 2, 2, 10, 3, 6, 1, 3, 10, 3, 5, 2, 2, 8, 7, 5, 5, 7, 7, 10, 3, 4, 10, 9, 4, 4, 1, 9, 8, 6, 9, 9, 4, 0]);

suc = [
   {2, 3, 4},
   {40, 18, 6},
   {32, 5},
   {16, 12, 23},
   {8, 13, 7},
   {9, 10, 11},
   {33, 54, 41},
   {31},
   {34, 36, 15},
   {59, 20},
   {28, 14, 39},
   {33, 19},
   {65, 69},
   {24, 21, 47},
   {25},
   {17, 27, 68},
   {85, 37, 55},
   {42, 22, 71},
   {31},
   {41},
   {68},
   {29},
   {45},
   {35},
   {38, 26, 30},
   {57, 52, 29},
   {88, 66},
   {73},
   {61},
   {48, 51, 44},
   {67},
   {67},
   {50, 43},
   {46},
   {64, 75},
   {77},
   {53},
   {84, 86},
   {59},
   {56},
   {70},
   {49},
   {91},
   {74},
   {63},
   {65, 58},
   {58, 60, 76},
   {78},
   {65},
   {58},
   {87},
   {85},
   {74},
   {59},
   {84},
   {81},
   {77, 69},
   {72, 63},
   {89},
   {75},
   {62},
   {79},
   {74},
   {83},
   {77},
   {80},
   {76},
   {71},
   {82},
   {87},
   {76},
   {82},
   {80},
   {81, 79},
   {81, 78},
   {89},
   {78},
   {88},
   {90},
   {82},
   {90},
   {83, 84},
   {85},
   {89},
   {86},
   {87},
   {90, 91},
   {91},
   {92},
   {92},
   {92},
   {  } ];

deadline = array2d(1..92, 1..3, [1, 3, 3, 1, 3, 0, 1, 5, 0, 3, 2, 2, 8, 4, 5, 10, 4, 3, 10, 1, 1, 14, 3, 3, 16, 1, 2, 17, 1, 2, 20, 2, 3, 21, 0, 1, 23, 1, 4, 28, 2, 1, 28, 2, 5, 31, 2, 0, 31, 4, 0, 33, 4, 4, 33, 2, 3, 36, 2, 3, 39, 0, 2, 41, 0, 5, 43, 3, 4, 52, 1, 5, 53, 1, 1, 55, 4, 1, 58, 5, 0, 58, 4, 4, 59, 5, 4, 62, 4, 2, 62, 2, 4, 65, 1, 2, 66, 1, 3, 66, 1, 1, 67, 0, 2, 68, 0, 4, 70, 2, 3, 73, 4, 0, 87, 2, 3, 91, 5, 2, 92, 5, 5, 93, 4, 2, 95, 4, 0, 101, 2, 2, 102, 3, 3, 105, 1, 4, 107, 4, 2, 107, 3, 4, 109, 0, 3, 109, 0, 0, 113, 3, 5, 115, 4, 2, 117, 4, 0, 117, 1, 4, 121, 5, 3, 121, 3, 2, 123, 4, 5, 126, 4, 4, 126, 4, 0, 126, 5, 5, 126, 3, 2, 127, 0, 5, 131, 3, 4, 132, 2, 4, 134, 1, 3, 136, 5, 0, 137, 5, 1, 139, 3, 5, 139, 5, 0, 145, 3, 3, 146, 2, 2, 147, 5, 4, 149, 2, 5, 153, 5, 4, 154, 4, 3, 157, 0, 3, 157, 2, 3, 158, 0, 3, 162, 2, 5, 163, 4, 4, 164, 2, 2, 165, 4, 3, 165, 1, 1, 168, 4, 1, 171, 4, 4, 171, 5, 0, 173, 5, 2, 176, 0, 1, 182, 3, 5, 188, 5, 1, 193, 4, 1, 195, 4, 5]);
