n_res = 4;
rc = [ 25, 21, 18, 21 ];
n_tasks = 92;
d = [0, 6, 2, 4, 5, 10, 2, 3, 8, 3, 2, 4, 4, 1, 1, 8, 1, 9, 3, 8, 9, 6, 4, 10, 3, 6, 5, 7, 4, 8, 3, 6, 6, 5, 4, 4, 6, 7, 3, 4, 8, 6, 10, 3, 1, 4, 3, 2, 1, 9, 8, 9, 7, 7, 7, 10, 2, 3, 8, 4, 7, 8, 2, 3, 6, 2, 10, 3, 3, 4, 1, 1, 7, 3, 4, 1, 2, 10, 2, 10, 5, 5, 1, 3, 5, 7, 9, 2, 9, 6, 2, 0];
rr = array2d(1..4, 1..92, [0, 6, 0, 7, 0, 6, 0, 0, 0, 0, 1, 0, 3, 0, 0, 10, 5, 0, 0, 0, 0, 0, 5, 0, 0, 0, 0, 0, 0, 0, 0, 0, 0, 7, 0, 0, 0, 0, 0, 0, 9, 0, 0, 0, 0, 0, 10, 0, 5, 6, 2, 0, 0, 8, 0, 0, 7, 1, 0, 0, 0, 0, 2, 0, 0, 0, 0, 8, 9, 0, 0, 9, 7, 0, 0, 0, 3, 9, 0, 0, 0, 0, 0, 0, 0, 8, 0, 0, 0, 0, 5, 0, 0, 0, 0, 0, 1, 0, 8, 0, 0, 6, 0, 0, 0, 1, 8, 0, 0, 0, 8, 0, 0, 0, 0, 1, 4, 0, 0, 7, 0, 0, 1, 1, 0, 0, 0, 0, 0, 6, 10, 0, 0, 0, 0, 7, 9, 0, 0, 0, 0, 0, 0, 0, 2, 0, 0, 2, 0, 0, 10, 0, 0, 6, 0, 0, 0, 0, 0, 0, 0, 0, 0, 0, 0, 4, 0, 0, 0, 0, 0, 0, 0, 6, 0, 0, 0, 0, 0, 0, 4, 0, 0, 0, 0, 0, 0, 0, 0, 0, 0, 8, 0, 0, 0, 3, 0, 0, 0, 0, 0, 6, 0, 0, 0, 5, 0, 0, 0, 9, 5, 0, 0, 8, 0, 0, 0, 0, 1, 0, 0, 0, 0, 0, 0, 0, 0, 0, 0, 6, 0, 0, 0, 0, 0, 9, 0, 0, 8, 0, 0, 0, 0, 0, 6, 0, 0, 0, 0, 0, 0, 0, 0, 0, 0, 0, 0, 0, 0, 10, 0, 0, 6, 10, 0, 0, 10, 1, 0, 0, 0, 5, 0, 2, 0, 0, 0, 0, 4, 0, 0, 0, 0, 0, 8, 0, 0, 0, 0, 0, 0, 0, 0, 0, 0, 7, 2, 0, 0, 0, 0, 0, 0, 0, 2, 0, 0, 0, 3, 0, 0, 5, 1, 0, 0, 2, 0, 8, 2, 0, 0, 0, 0, 9, 0, 0, 0, 0, 0, 0, 0, 0, 0, 0, 0, 8, 0, 0, 0, 8, 5, 4, 6, 0, 0, 10, 6, 0, 0, 0, 6, 0, 0, 0, 0, 0, 9, 0, 0, 0, 8, 0, 6, 0, 0, 0, 0, 0]);

suc = [
   {2, 3, 4},
   {21, 5, 6},
   {9, 14, 7},
   {44, 62, 31},
   {26, 11, 50},
   {59, 10, 35},
   {8, 22, 23},
   {65, 28, 60},
   {16, 10, 12},
   {56, 17, 19},
   {72, 18, 13},
   {25, 20, 15},
   {90, 29, 46},
   {88, 17, 43},
   {24},
   {65, 38},
   {66, 27, 61},
   {34, 37, 79},
   {67, 71, 31},
   {32, 60, 39},
   {40, 41, 38},
   {33, 34, 28},
   {82, 43, 47},
   {34, 44, 46},
   {82, 55},
   {30},
   {50},
   {70, 53, 46},
   {48, 42, 36},
   {49, 45},
   {75, 51, 76},
   {78},
   {45, 37, 79},
   {43, 86},
   {48, 36, 38},
   {66, 39},
   {59, 63, 39},
   {57, 53, 63},
   {62},
   {56, 68},
   {42, 50, 68},
   {51, 52},
   {73, 90, 78},
   {57, 58, 47},
   {58, 51, 52},
   {64, 57, 54},
   {49, 68, 69},
   {54, 55},
   {60, 61, 86},
   {64, 52},
   {85},
   {65, 62, 55},
   {54},
   {58, 84},
   {80, 73},
   {88, 81, 61},
   {67, 85},
   {66},
   {86},
   {64, 70, 63},
   {83},
   {74, 71},
   {67, 76},
   {80, 74},
   {71},
   {81},
   {84, 77},
   {72, 70},
   {72, 74, 78},
   {73, 75},
   {82},
   {75, 77},
   {91, 87},
   {76},
   {88, 84, 79},
   {77},
   {89, 83},
   {81},
   {80},
   {83},
   {85},
   {87},
   {91},
   {91},
   {87},
   {90},
   {89},
   {89},
   {92},
   {92},
   {92},
   {  } ];

deadline = array2d(1..92, 1..3, [1, 0, 3, 6, 3, 5, 8, 3, 1, 12, 0, 2, 16, 1, 0, 18, 5, 2, 19, 1, 1, 22, 1, 4, 23, 4, 5, 24, 0, 4, 26, 1, 2, 27, 2, 1, 33, 1, 0, 34, 3, 0, 34, 0, 1, 34, 3, 1, 35, 2, 3, 44, 1, 1, 45, 4, 3, 46, 5, 3, 59, 1, 4, 59, 4, 2, 64, 1, 2, 68, 1, 3, 68, 4, 1, 69, 4, 1, 69, 0, 5, 71, 1, 5, 73, 5, 2, 79, 5, 2, 80, 4, 3, 83, 2, 4, 85, 2, 3, 91, 4, 0, 95, 3, 3, 96, 4, 2, 97, 1, 1, 100, 1, 2, 102, 4, 0, 103, 1, 1, 108, 0, 2, 109, 5, 0, 109, 4, 3, 109, 3, 5, 110, 0, 1, 110, 5, 2, 110, 1, 5, 112, 3, 5, 112, 5, 4, 117, 2, 1, 117, 3, 0, 117, 4, 2, 119, 2, 3, 122, 1, 5, 123, 2, 0, 124, 2, 3, 124, 3, 3, 124, 0, 5, 124, 3, 3, 125, 5, 1, 127, 3, 4, 128, 1, 4, 129, 4, 4, 134, 3, 0, 141, 0, 1, 142, 4, 4, 148, 2, 2, 148, 5, 1, 149, 0, 0, 151, 4, 5, 152, 1, 5, 153, 3, 3, 155, 0, 0, 157, 2, 3, 157, 0, 4, 158, 5, 5, 158, 5, 0, 159, 4, 2, 162, 1, 2, 163, 1, 5, 170, 2, 1, 171, 1, 1, 172, 5, 0, 173, 2, 1, 175, 2, 2, 176, 4, 5, 176, 0, 5, 177, 4, 0, 177, 5, 4, 181, 2, 4, 190, 4, 0, 195, 5, 1]);
