n_res = 4;
rc = [ 39, 34, 42, 33 ];
n_tasks = 92;
d = [0, 7, 10, 7, 4, 7, 1, 2, 8, 1, 2, 2, 3, 1, 10, 9, 9, 3, 3, 6, 8, 9, 9, 8, 2, 8, 4, 7, 10, 5, 1, 5, 2, 10, 7, 4, 1, 1, 5, 9, 5, 9, 1, 1, 10, 5, 3, 4, 3, 9, 10, 10, 9, 3, 9, 3, 5, 7, 6, 10, 9, 7, 7, 4, 2, 9, 10, 4, 1, 8, 6, 7, 6, 5, 3, 2, 7, 8, 7, 5, 5, 4, 7, 7, 3, 7, 2, 3, 7, 7, 4, 0];
rr = array2d(1..4, 1..92, [0, 0, 7, 0, 0, 5, 0, 8, 2, 0, 0, 1, 0, 9, 6, 2, 3, 0, 0, 0, 0, 6, 5, 0, 0, 0, 1, 10, 8, 0, 0, 9, 8, 0, 5, 6, 0, 9, 10, 5, 3, 0, 2, 0, 9, 0, 0, 0, 6, 0, 9, 5, 0, 8, 1, 7, 3, 0, 9, 0, 6, 0, 0, 0, 7, 5, 0, 2, 10, 2, 5, 1, 8, 0, 6, 8, 1, 0, 5, 0, 2, 8, 0, 0, 0, 0, 10, 0, 3, 8, 0, 0, 0, 3, 9, 5, 0, 0, 8, 0, 0, 0, 4, 0, 10, 0, 5, 0, 0, 0, 10, 0, 8, 0, 0, 6, 0, 0, 0, 2, 0, 0, 0, 0, 2, 5, 0, 8, 9, 0, 5, 0, 0, 5, 0, 0, 6, 10, 0, 0, 0, 0, 10, 0, 3, 0, 0, 0, 7, 7, 0, 8, 5, 0, 3, 0, 4, 7, 0, 0, 0, 7, 2, 9, 5, 6, 8, 8, 0, 10, 0, 10, 10, 4, 6, 0, 8, 9, 0, 0, 10, 7, 8, 0, 0, 5, 0, 0, 3, 0, 0, 10, 10, 0, 8, 4, 8, 0, 0, 0, 0, 0, 0, 10, 9, 0, 8, 1, 10, 5, 0, 0, 5, 6, 0, 6, 5, 0, 0, 0, 2, 0, 0, 0, 5, 9, 0, 6, 8, 6, 0, 8, 3, 0, 3, 7, 6, 0, 8, 6, 0, 10, 0, 0, 0, 8, 10, 0, 6, 1, 0, 0, 2, 0, 3, 0, 0, 0, 0, 0, 6, 0, 9, 0, 5, 7, 0, 4, 0, 0, 0, 8, 0, 0, 0, 0, 0, 0, 0, 5, 0, 5, 0, 0, 0, 10, 0, 0, 0, 2, 0, 2, 5, 9, 0, 0, 0, 7, 1, 10, 0, 0, 5, 7, 2, 9, 8, 0, 0, 1, 3, 5, 7, 9, 0, 2, 0, 6, 4, 0, 0, 2, 6, 9, 0, 8, 0, 6, 0, 1, 0, 0, 0, 0, 5, 0, 3, 0, 6, 3, 0, 5, 6, 10, 3, 5, 0, 7, 5, 0, 0, 0, 0, 0, 0, 0, 3, 0, 0, 0, 0, 0, 3, 9, 0, 0, 0, 0]);

suc = [
   {2, 3, 4},
   {10, 13, 7},
   {24, 27, 5},
   {12, 6, 14},
   {8, 19, 29},
   {88},
   {40, 18, 11},
   {9, 43, 20},
   {36, 45, 44},
   {32, 41},
   {34, 50, 85},
   {61, 85, 21},
   {67, 62},
   {16, 43, 15},
   {38, 64, 22},
   {17, 54, 86},
   {75, 63},
   {25, 23},
   {69, 79, 55},
   {25, 46, 31},
   {82},
   {26, 83, 36},
   {48, 33, 55},
   {59, 53},
   {65, 66, 37},
   {72},
   {35, 28, 30},
   {56, 57, 44},
   {57, 50, 84},
   {32, 59, 60},
   {59, 84, 55},
   {34, 63, 39},
   {49, 52, 47},
   {36, 84},
   {40, 49, 37},
   {78},
   {42, 39},
   {48, 86, 46},
   {56, 51},
   {42, 54},
   {54},
   {58, 51, 53},
   {48, 58, 45},
   {62, 47},
   {62, 47},
   {74, 52},
   {64, 50, 53},
   {61},
   {65, 60, 68},
   {77, 69},
   {73, 52, 86},
   {77, 71},
   {61, 70},
   {56, 57, 64},
   {72, 76},
   {74, 67},
   {80, 58, 60},
   {73, 68},
   {72, 65, 66},
   {79},
   {69, 63},
   {71},
   {76, 79},
   {66, 67, 77},
   {87, 70, 71},
   {85},
   {68, 76},
   {81, 70},
   {73},
   {83},
   {88, 78},
   {80, 75, 78},
   {74, 75, 90},
   {81, 83},
   {89},
   {80},
   {81},
   {90},
   {82},
   {82},
   {87},
   {87},
   {89, 91},
   {91},
   {88},
   {89},
   {91},
   {90},
   {92},
   {92},
   {92},
   {  } ];

deadline = array2d(1..92, 1..3, [2, 3, 1, 6, 5, 5, 11, 1, 2, 15, 4, 0, 16, 3, 1, 16, 4, 0, 16, 2, 2, 18, 0, 1, 19, 0, 2, 29, 2, 2, 31, 1, 1, 32, 0, 0, 36, 3, 2, 38, 1, 3, 38, 1, 0, 41, 0, 4, 41, 2, 3, 42, 3, 4, 42, 5, 2, 43, 1, 2, 49, 1, 1, 50, 1, 0, 51, 2, 5, 54, 4, 5, 57, 1, 4, 64, 2, 1, 65, 4, 3, 65, 2, 4, 66, 4, 5, 66, 0, 4, 66, 2, 4, 68, 1, 4, 68, 4, 4, 69, 3, 2, 70, 3, 5, 71, 1, 0, 76, 5, 2, 76, 1, 0, 78, 1, 2, 84, 5, 3, 86, 4, 1, 88, 2, 2, 88, 4, 2, 90, 1, 4, 91, 2, 1, 93, 0, 4, 94, 1, 0, 95, 3, 4, 99, 3, 0, 99, 4, 4, 102, 3, 3, 102, 0, 1, 102, 3, 3, 107, 0, 0, 111, 1, 1, 112, 5, 0, 115, 3, 5, 117, 3, 3, 128, 4, 5, 137, 1, 2, 141, 2, 2, 141, 1, 2, 143, 0, 3, 144, 3, 3, 147, 2, 0, 147, 3, 4, 148, 0, 4, 148, 5, 5, 150, 1, 3, 151, 1, 2, 152, 5, 3, 152, 4, 3, 158, 1, 3, 162, 0, 4, 168, 2, 1, 168, 2, 4, 168, 3, 5, 179, 5, 2, 179, 0, 0, 179, 1, 3, 180, 3, 0, 183, 1, 3, 189, 3, 4, 189, 1, 5, 190, 0, 5, 191, 2, 2, 192, 2, 0, 196, 1, 3, 197, 4, 4, 199, 4, 3, 204, 0, 0, 206, 1, 1]);
