n_res = 4;
rc = [ 19, 16, 28, 28 ];
n_tasks = 92;
d = [0, 2, 6, 6, 8, 1, 9, 9, 7, 3, 7, 2, 6, 4, 6, 8, 8, 5, 5, 4, 3, 6, 8, 5, 4, 4, 1, 9, 7, 5, 10, 7, 8, 7, 10, 3, 2, 10, 3, 8, 1, 8, 5, 5, 8, 8, 7, 8, 8, 3, 8, 9, 1, 7, 8, 4, 4, 10, 3, 10, 9, 2, 4, 5, 5, 8, 7, 10, 2, 2, 6, 6, 7, 6, 4, 5, 1, 10, 5, 6, 8, 8, 4, 3, 4, 5, 8, 10, 1, 4, 1, 0];
rr = array2d(1..4, 1..92, [0, 0, 0, 0, 0, 1, 0, 0, 0, 0, 0, 0, 0, 0, 0, 0, 0, 4, 0, 0, 0, 0, 0, 0, 10, 2, 5, 0, 1, 0, 0, 0, 5, 0, 4, 0, 0, 0, 0, 10, 0, 0, 9, 0, 0, 5, 0, 0, 3, 0, 0, 0, 0, 0, 0, 0, 0, 0, 0, 1, 0, 0, 0, 0, 0, 0, 2, 0, 0, 0, 3, 0, 0, 2, 0, 0, 5, 0, 0, 5, 9, 0, 0, 0, 0, 0, 0, 0, 0, 7, 0, 0, 0, 3, 0, 10, 0, 0, 0, 1, 3, 5, 3, 10, 0, 3, 0, 0, 1, 0, 0, 0, 0, 0, 0, 0, 0, 0, 0, 0, 0, 3, 0, 0, 0, 0, 0, 0, 0, 3, 3, 0, 0, 0, 0, 0, 4, 0, 0, 0, 0, 0, 0, 0, 0, 2, 0, 5, 0, 4, 0, 0, 0, 0, 0, 0, 0, 0, 0, 0, 0, 0, 0, 1, 6, 0, 3, 0, 0, 0, 10, 0, 0, 1, 7, 0, 0, 5, 3, 0, 0, 0, 0, 0, 0, 0, 0, 0, 0, 0, 0, 0, 0, 0, 0, 0, 0, 0, 0, 0, 0, 0, 9, 3, 0, 4, 1, 0, 0, 0, 0, 3, 0, 0, 8, 9, 0, 3, 0, 2, 0, 0, 0, 0, 10, 9, 0, 0, 0, 0, 3, 0, 0, 3, 0, 0, 10, 0, 6, 0, 4, 0, 0, 0, 0, 0, 0, 0, 0, 0, 0, 1, 0, 0, 0, 0, 0, 0, 0, 0, 0, 1, 0, 0, 0, 0, 0, 6, 0, 0, 0, 5, 1, 0, 0, 0, 0, 0, 5, 0, 8, 0, 6, 0, 0, 0, 0, 0, 10, 0, 9, 7, 0, 0, 0, 0, 4, 0, 0, 10, 0, 0, 0, 0, 0, 0, 0, 0, 0, 0, 0, 0, 7, 0, 0, 0, 0, 0, 0, 5, 0, 0, 0, 9, 0, 0, 7, 5, 0, 0, 0, 0, 0, 0, 10, 0, 7, 10, 2, 2, 10, 5, 0, 0, 4, 3, 0, 0, 0, 0, 0, 3, 0, 0, 0, 0, 0, 0, 0, 0, 6, 0, 0, 0, 0, 0, 3, 0]);

suc = [
   {2, 3, 4},
   {40, 55, 23},
   {13, 6, 30},
   {8, 5, 7},
   {10, 82, 79},
   {71},
   {18, 19, 52},
   {9, 12, 20},
   {64, 11, 44},
   {49, 22, 63},
   {16, 14, 63},
   {17, 27, 36},
   {32, 33, 80},
   {25, 22, 15},
   {87, 54, 47},
   {84, 37, 47},
   {19, 46, 39},
   {24, 41, 21},
   {34, 85, 53},
   {42, 59, 66},
   {57, 45, 46},
   {88, 57, 60},
   {34, 35, 44},
   {75},
   {26, 28, 29},
   {32, 78, 71},
   {35, 79},
   {81, 37, 39},
   {41, 50, 31},
   {86, 66, 70},
   {65, 90, 55},
   {85},
   {43, 35, 45},
   {73, 47},
   {73, 49},
   {65, 52, 38},
   {83, 52, 54},
   {40, 48},
   {56, 80, 70},
   {57, 43, 45},
   {56, 59, 62},
   {64, 69, 63},
   {51, 44},
   {81},
   {59, 51, 62},
   {65, 49, 50},
   {72},
   {67, 53, 55},
   {67, 60, 61},
   {74, 51, 69},
   {60, 77, 54},
   {56, 66, 76},
   {61},
   {58, 67},
   {78},
   {58, 77, 87},
   {58, 61},
   {68},
   {69},
   {89, 68},
   {62},
   {68},
   {71},
   {75, 86},
   {73},
   {72, 89, 74},
   {89},
   {72, 86},
   {78, 70},
   {76, 79},
   {75, 76},
   {90},
   {74},
   {82},
   {80},
   {77},
   {88},
   {81},
   {84},
   {83, 84},
   {82, 83},
   {87},
   {88},
   {85},
   {90},
   {91},
   {91},
   {91},
   {92},
   {92},
   {92},
   {  } ];

deadline = array2d(1..92, 1..3, [1, 3, 2, 3, 4, 2, 5, 3, 5, 7, 1, 0, 8, 3, 3, 8, 0, 5, 17, 0, 2, 18, 4, 5, 20, 5, 3, 22, 4, 3, 33, 4, 2, 36, 3, 5, 37, 1, 2, 38, 5, 4, 48, 0, 4, 50, 3, 4, 52, 1, 3, 52, 2, 2, 53, 5, 5, 54, 3, 2, 55, 0, 0, 56, 3, 5, 61, 5, 5, 63, 3, 4, 63, 0, 2, 69, 2, 5, 69, 3, 5, 72, 4, 1, 74, 2, 1, 76, 0, 4, 76, 0, 3, 78, 0, 1, 79, 2, 5, 84, 2, 2, 91, 1, 3, 95, 2, 3, 96, 0, 1, 98, 2, 3, 100, 0, 0, 102, 5, 1, 104, 0, 4, 107, 1, 1, 111, 1, 0, 116, 5, 0, 118, 5, 1, 120, 3, 0, 124, 4, 0, 129, 1, 5, 136, 3, 1, 149, 1, 5, 150, 1, 0, 151, 4, 4, 152, 2, 5, 152, 5, 3, 154, 3, 3, 157, 2, 1, 157, 0, 0, 158, 0, 2, 159, 3, 3, 159, 4, 5, 161, 5, 5, 162, 3, 4, 164, 5, 1, 165, 1, 2, 168, 3, 5, 169, 1, 5, 169, 4, 4, 175, 2, 2, 179, 0, 2, 179, 4, 2, 180, 5, 0, 181, 4, 4, 183, 2, 2, 189, 1, 3, 189, 3, 4, 191, 2, 2, 191, 0, 4, 195, 2, 3, 196, 4, 4, 200, 3, 4, 200, 0, 2, 202, 4, 2, 206, 5, 0, 212, 4, 2, 212, 3, 5, 220, 5, 1, 221, 2, 5, 226, 2, 5, 228, 2, 0, 231, 4, 5, 236, 5, 2, 237, 2, 0]);
