n_res = 4;
rc = [ 22, 21, 23, 21 ];
n_tasks = 92;
d = [0, 2, 5, 6, 9, 3, 7, 3, 9, 3, 9, 7, 7, 8, 9, 4, 6, 4, 2, 1, 4, 6, 4, 1, 2, 1, 10, 9, 9, 2, 9, 6, 5, 10, 8, 8, 10, 9, 5, 2, 4, 6, 3, 10, 6, 7, 4, 9, 10, 1, 4, 10, 3, 8, 8, 6, 4, 5, 5, 3, 8, 1, 4, 6, 10, 7, 10, 1, 8, 6, 8, 5, 9, 10, 2, 5, 10, 1, 7, 3, 6, 5, 4, 4, 5, 1, 4, 10, 8, 7, 4, 0];
rr = array2d(1..4, 1..92, [0, 3, 10, 6, 0, 0, 6, 2, 6, 9, 4, 6, 0, 0, 5, 9, 0, 4, 5, 2, 0, 9, 3, 7, 9, 5, 5, 2, 7, 7, 7, 4, 0, 7, 8, 0, 0, 3, 0, 0, 4, 8, 0, 1, 5, 0, 5, 9, 5, 4, 5, 7, 3, 8, 5, 3, 8, 6, 9, 7, 2, 1, 0, 9, 9, 6, 5, 10, 9, 0, 10, 0, 0, 2, 8, 10, 1, 5, 0, 5, 8, 0, 9, 8, 5, 7, 4, 4, 5, 2, 4, 0, 0, 0, 4, 8, 9, 7, 5, 4, 8, 2, 2, 7, 6, 5, 0, 5, 2, 0, 3, 1, 1, 7, 1, 3, 10, 10, 0, 5, 10, 9, 9, 8, 2, 3, 10, 0, 1, 7, 7, 6, 0, 0, 4, 2, 3, 4, 9, 6, 2, 0, 0, 5, 0, 2, 8, 0, 10, 3, 0, 8, 1, 5, 6, 0, 0, 6, 0, 1, 0, 0, 3, 0, 2, 6, 9, 5, 1, 10, 2, 0, 0, 0, 0, 0, 9, 10, 9, 2, 7, 1, 8, 0, 0, 5, 0, 10, 0, 0, 9, 8, 10, 9, 8, 2, 10, 0, 0, 4, 7, 6, 0, 10, 2, 0, 4, 2, 0, 5, 8, 4, 6, 3, 4, 10, 1, 0, 7, 7, 10, 10, 6, 9, 8, 0, 9, 10, 2, 10, 2, 8, 9, 1, 10, 4, 3, 0, 6, 8, 5, 9, 4, 4, 4, 0, 0, 0, 0, 4, 0, 4, 3, 5, 3, 6, 6, 2, 7, 10, 0, 7, 10, 0, 9, 7, 7, 2, 9, 10, 0, 7, 0, 6, 6, 0, 0, 5, 5, 8, 0, 0, 7, 0, 3, 2, 0, 9, 0, 0, 3, 3, 8, 0, 0, 0, 0, 0, 4, 0, 10, 9, 1, 0, 0, 1, 6, 10, 6, 0, 4, 5, 10, 0, 0, 0, 0, 10, 5, 8, 0, 0, 9, 9, 0, 8, 7, 0, 8, 7, 5, 3, 3, 0, 6, 9, 10, 10, 3, 7, 8, 0, 5, 0, 4, 6, 5, 2, 7, 3, 9, 6, 10, 4, 1, 6, 5, 5, 1, 5, 10, 9, 0, 7, 6, 10, 8, 0]);

suc = [
   {2, 3, 4},
   {68},
   {37, 44, 5},
   {9, 6, 17},
   {75, 19},
   {8, 12, 7},
   {24, 67},
   {10, 11},
   {29, 14},
   {25, 52},
   {16, 43, 13},
   {34, 22, 23},
   {40, 33, 34},
   {41, 70, 15},
   {20, 30, 60},
   {18, 52, 53},
   {81, 33, 21},
   {42, 36, 55},
   {35},
   {32, 73, 39},
   {65, 41, 72},
   {26, 67, 31},
   {27},
   {82, 71},
   {28},
   {46, 50, 38},
   {48, 60, 39},
   {41, 53},
   {66, 36, 47},
   {69, 37},
   {84},
   {37},
   {56},
   {45},
   {51},
   {78},
   {40, 64},
   {40, 62},
   {61},
   {54},
   {57, 58},
   {50, 59},
   {65},
   {64, 65},
   {76, 62, 55},
   {83, 53, 70},
   {58, 85},
   {88, 49, 57},
   {69},
   {57},
   {56},
   {74, 83, 86},
   {58},
   {76},
   {78},
   {77},
   {73, 63},
   {74, 63},
   {60, 85, 62},
   {72},
   {63},
   {88},
   {75},
   {80, 88, 87},
   {77, 69, 84},
   {72},
   {79},
   {83},
   {80, 71},
   {81},
   {85},
   {73, 75},
   {74, 78, 79},
   {89, 90, 84},
   {77},
   {80, 81},
   {79},
   {90, 86},
   {82},
   {82, 91},
   {87},
   {86},
   {91},
   {87},
   {90},
   {89},
   {91},
   {89},
   {92},
   {92},
   {92},
   {  } ];

deadline = array2d(1..92, 1..3, [1, 4, 2, 1, 5, 5, 3, 1, 0, 10, 4, 3, 11, 4, 2, 11, 5, 3, 13, 2, 4, 13, 5, 0, 21, 3, 2, 22, 1, 3, 24, 5, 4, 26, 4, 3, 30, 0, 5, 31, 3, 5, 31, 4, 5, 32, 3, 2, 34, 4, 3, 36, 4, 2, 42, 3, 5, 42, 1, 2, 44, 4, 3, 47, 4, 2, 49, 4, 0, 57, 3, 2, 63, 3, 4, 66, 2, 0, 68, 1, 5, 69, 2, 5, 72, 0, 1, 75, 1, 4, 76, 0, 3, 79, 4, 5, 81, 2, 1, 85, 4, 5, 87, 3, 0, 91, 5, 1, 91, 4, 0, 93, 3, 3, 96, 2, 3, 96, 2, 5, 99, 1, 0, 113, 1, 4, 116, 0, 5, 123, 5, 3, 124, 4, 4, 126, 2, 1, 127, 2, 0, 131, 1, 5, 133, 2, 2, 134, 1, 2, 134, 3, 5, 135, 1, 1, 142, 0, 4, 143, 5, 5, 144, 4, 1, 145, 3, 3, 149, 4, 3, 149, 5, 5, 154, 5, 1, 154, 0, 3, 154, 5, 1, 154, 1, 1, 166, 4, 2, 172, 0, 5, 173, 2, 5, 173, 3, 0, 177, 2, 1, 178, 2, 3, 178, 1, 5, 179, 3, 0, 179, 1, 4, 180, 2, 5, 180, 5, 1, 185, 3, 1, 186, 3, 1, 189, 1, 5, 191, 4, 3, 192, 4, 3, 193, 4, 0, 194, 4, 2, 196, 4, 2, 196, 4, 5, 196, 0, 1, 197, 0, 4, 197, 5, 2, 200, 3, 0, 201, 1, 1, 203, 5, 3, 204, 5, 1, 205, 2, 5, 207, 4, 1, 207, 0, 3]);
