n_res = 4;
rc = [ 34, 39, 40, 30 ];
n_tasks = 92;
d = [0, 8, 2, 5, 9, 10, 1, 8, 2, 10, 2, 4, 7, 9, 8, 10, 6, 4, 1, 1, 7, 8, 8, 3, 5, 5, 9, 7, 4, 9, 8, 6, 10, 6, 8, 7, 2, 8, 4, 10, 6, 1, 3, 7, 5, 2, 2, 4, 2, 10, 5, 4, 10, 8, 2, 6, 7, 3, 4, 9, 2, 3, 1, 6, 4, 9, 5, 7, 1, 4, 7, 7, 7, 8, 5, 9, 2, 9, 2, 8, 9, 3, 8, 1, 3, 10, 3, 1, 5, 1, 4, 0];
rr = array2d(1..4, 1..92, [0, 1, 4, 0, 0, 6, 10, 9, 3, 10, 6, 0, 2, 2, 8, 7, 0, 8, 6, 4, 9, 0, 0, 1, 1, 2, 0, 4, 1, 7, 10, 2, 6, 3, 3, 0, 3, 9, 0, 0, 2, 8, 5, 0, 1, 9, 0, 2, 8, 7, 0, 10, 8, 4, 7, 3, 5, 8, 10, 4, 10, 0, 6, 6, 4, 3, 3, 0, 3, 5, 6, 3, 2, 5, 7, 0, 7, 10, 7, 0, 0, 6, 6, 8, 0, 7, 7, 8, 1, 9, 2, 0, 0, 4, 3, 8, 3, 0, 0, 0, 0, 0, 0, 5, 0, 0, 0, 3, 4, 2, 9, 0, 0, 0, 1, 10, 0, 1, 9, 0, 0, 5, 0, 5, 3, 9, 5, 0, 0, 0, 2, 10, 9, 6, 8, 4, 2, 0, 0, 3, 4, 7, 9, 8, 9, 0, 9, 8, 5, 8, 8, 8, 8, 8, 3, 0, 9, 0, 10, 5, 5, 0, 0, 8, 0, 10, 8, 1, 9, 2, 8, 9, 6, 0, 3, 9, 8, 0, 1, 5, 6, 4, 6, 0, 0, 6, 5, 0, 2, 5, 0, 1, 8, 3, 4, 0, 2, 7, 7, 5, 2, 6, 0, 9, 0, 5, 3, 1, 0, 8, 9, 0, 6, 7, 4, 6, 1, 7, 7, 2, 4, 1, 0, 5, 9, 2, 8, 5, 8, 6, 7, 7, 8, 4, 0, 0, 4, 8, 5, 10, 6, 0, 9, 8, 3, 1, 0, 9, 9, 9, 0, 2, 9, 0, 9, 10, 4, 0, 3, 4, 0, 4, 3, 2, 8, 4, 5, 10, 2, 6, 0, 0, 0, 6, 3, 0, 0, 0, 7, 1, 5, 10, 1, 2, 8, 6, 7, 5, 5, 0, 0, 0, 1, 10, 4, 1, 0, 4, 2, 7, 4, 4, 2, 0, 0, 0, 2, 9, 5, 7, 0, 4, 8, 2, 1, 2, 0, 4, 5, 10, 2, 4, 0, 9, 10, 5, 0, 3, 3, 7, 9, 1, 0, 3, 10, 8, 7, 0, 4, 10, 0, 0, 0, 7, 10, 8, 5, 9, 7, 0, 0, 10, 10, 0, 8, 8, 1, 6, 5, 3, 10, 6, 0, 6, 2, 6, 0, 0]);

suc = [
   {2, 3, 4},
   {18, 6, 31},
   {8, 11, 36},
   {17, 5, 7},
   {9, 6, 22},
   {13, 39},
   {28},
   {35, 19, 14},
   {25, 10, 13},
   {26, 12, 30},
   {24, 29, 63},
   {33, 27, 59},
   {16, 71, 15},
   {40, 21},
   {20, 38, 23},
   {60, 54},
   {21},
   {48, 25, 80},
   {58, 61, 46},
   {26, 28, 34},
   {65, 57, 50},
   {36, 69},
   {49, 66, 28},
   {49, 34, 47},
   {53, 37, 63},
   {54},
   {35, 53},
   {44, 29, 46},
   {57, 45, 30},
   {32},
   {34, 83},
   {42},
   {67, 70, 39},
   {64, 51, 62},
   {62, 39},
   {73},
   {54},
   {48, 61},
   {41, 71, 55},
   {64, 41, 52},
   {80, 74},
   {51, 43, 55},
   {74, 60, 53},
   {48, 74, 45},
   {73, 50, 79},
   {59, 68},
   {56, 65, 86},
   {57, 58, 55},
   {50, 82},
   {58, 59},
   {72, 69, 61},
   {56, 65, 63},
   {72, 68},
   {64, 66},
   {90},
   {73, 66, 60},
   {72, 62},
   {77},
   {88, 86},
   {68, 87},
   {80, 76},
   {89, 81},
   {77, 78},
   {82, 75, 78},
   {67, 70, 71},
   {91, 67, 77},
   {83, 79},
   {69, 70, 79},
   {76, 85},
   {75, 85},
   {81, 75, 76},
   {78},
   {84},
   {88, 87},
   {91},
   {89},
   {83},
   {86},
   {89},
   {81, 82},
   {84},
   {85},
   {84},
   {87},
   {88},
   {90},
   {90},
   {91},
   {92},
   {92},
   {92},
   {  } ];

deadline = array2d(1..92, 1..3, [6, 2, 3, 9, 2, 3, 17, 5, 0, 18, 1, 5, 20, 4, 1, 27, 1, 2, 32, 4, 5, 33, 3, 4, 35, 2, 5, 41, 5, 0, 45, 0, 4, 50, 4, 0, 56, 1, 2, 59, 4, 4, 61, 0, 0, 70, 3, 3, 75, 2, 3, 76, 5, 3, 76, 4, 3, 81, 1, 0, 81, 1, 3, 83, 3, 5, 85, 0, 2, 86, 2, 1, 87, 5, 1, 88, 5, 3, 90, 2, 1, 91, 3, 3, 100, 2, 0, 100, 3, 3, 105, 2, 5, 109, 2, 5, 109, 5, 5, 111, 0, 2, 111, 0, 0, 113, 1, 0, 120, 4, 1, 122, 4, 4, 127, 4, 2, 135, 5, 5, 135, 2, 2, 137, 2, 0, 142, 0, 3, 144, 5, 1, 144, 3, 3, 144, 0, 2, 145, 5, 4, 146, 3, 1, 156, 5, 3, 157, 5, 1, 158, 0, 5, 158, 4, 2, 161, 4, 3, 161, 3, 4, 167, 3, 4, 168, 2, 3, 172, 2, 1, 172, 2, 4, 178, 5, 3, 183, 4, 2, 188, 2, 1, 189, 3, 3, 191, 4, 1, 197, 4, 5, 198, 4, 5, 199, 0, 0, 201, 3, 3, 202, 1, 0, 204, 0, 4, 220, 0, 5, 225, 4, 1, 226, 3, 4, 237, 4, 1, 245, 3, 1, 246, 4, 1, 247, 2, 2, 250, 3, 0, 253, 1, 5, 256, 4, 4, 258, 1, 4, 258, 3, 3, 260, 4, 3, 260, 1, 4, 262, 3, 3, 262, 5, 1, 263, 5, 1, 265, 1, 2, 266, 0, 3, 269, 2, 0, 277, 4, 4, 278, 0, 4, 284, 1, 5]);
