n_res = 4;
rc = [ 60, 48, 51, 43 ];
n_tasks = 92;
d = [0, 7, 10, 7, 10, 3, 8, 2, 7, 9, 2, 4, 1, 6, 2, 7, 7, 10, 9, 3, 1, 7, 8, 5, 1, 3, 7, 7, 4, 8, 2, 3, 9, 8, 3, 6, 6, 7, 2, 3, 8, 4, 8, 5, 7, 6, 2, 10, 5, 8, 3, 7, 9, 9, 6, 1, 8, 6, 2, 6, 4, 9, 3, 5, 10, 9, 7, 8, 2, 3, 5, 8, 9, 3, 5, 4, 9, 4, 2, 3, 2, 2, 10, 10, 5, 6, 5, 3, 3, 2, 10, 0];
rr = array2d(1..4, 1..92, [0, 2, 3, 0, 8, 0, 8, 0, 0, 0, 0, 6, 7, 0, 0, 0, 10, 3, 3, 5, 4, 2, 0, 9, 0, 0, 6, 8, 10, 0, 0, 0, 3, 7, 5, 3, 0, 10, 3, 5, 0, 5, 0, 3, 0, 0, 0, 8, 2, 8, 7, 2, 0, 1, 7, 1, 9, 10, 8, 10, 7, 0, 7, 0, 9, 0, 6, 1, 1, 6, 1, 2, 6, 0, 3, 0, 10, 1, 5, 3, 0, 9, 10, 3, 8, 7, 2, 0, 7, 8, 4, 0, 0, 7, 1, 0, 4, 10, 10, 5, 3, 6, 10, 1, 7, 4, 0, 10, 6, 0, 0, 2, 4, 7, 0, 8, 0, 1, 8, 9, 3, 1, 4, 8, 3, 1, 7, 0, 1, 5, 0, 8, 0, 8, 1, 3, 5, 1, 3, 5, 6, 2, 3, 7, 0, 9, 9, 5, 0, 6, 0, 8, 5, 0, 0, 0, 3, 2, 10, 8, 2, 0, 0, 2, 3, 6, 10, 0, 7, 4, 10, 1, 0, 6, 6, 0, 0, 0, 4, 7, 0, 0, 0, 0, 0, 9, 7, 6, 10, 2, 10, 2, 3, 3, 4, 1, 6, 5, 4, 3, 3, 4, 3, 4, 3, 5, 0, 0, 0, 7, 6, 3, 1, 3, 7, 0, 1, 0, 7, 2, 6, 0, 8, 7, 10, 6, 9, 8, 10, 10, 10, 1, 2, 3, 4, 0, 3, 8, 1, 7, 4, 3, 8, 6, 8, 8, 6, 1, 2, 5, 8, 8, 4, 0, 0, 1, 0, 7, 5, 9, 4, 2, 10, 0, 0, 6, 4, 4, 7, 5, 9, 3, 4, 10, 3, 0, 0, 5, 2, 8, 5, 9, 0, 2, 1, 9, 5, 0, 0, 6, 9, 3, 3, 10, 0, 4, 7, 4, 7, 0, 10, 5, 0, 7, 6, 9, 7, 2, 2, 9, 0, 3, 5, 8, 6, 7, 10, 0, 0, 3, 1, 1, 0, 0, 7, 3, 0, 2, 3, 4, 0, 0, 2, 1, 3, 3, 5, 7, 0, 5, 0, 0, 0, 0, 0, 3, 9, 0, 4, 3, 10, 1, 3, 9, 7, 6, 10, 1, 3, 5, 1, 6, 5, 0, 10, 3, 0, 0]);

suc = [
   {2, 3, 4},
   {9, 5, 7},
   {25, 26},
   {11, 45, 6},
   {8, 43, 37},
   {35, 19, 22},
   {17, 11, 20},
   {10, 68, 74},
   {24, 18, 23},
   {12, 21, 46},
   {32, 14, 47},
   {31, 13, 15},
   {33, 27, 87},
   {83, 67, 87},
   {16, 56, 28},
   {41, 29, 47},
   {25, 45, 29},
   {50, 43, 58},
   {65, 51, 28},
   {86, 60, 54},
   {24, 53, 70},
   {34, 69, 71},
   {40, 58, 38},
   {62, 52, 30},
   {81},
   {42, 59, 85},
   {32, 60, 54},
   {55},
   {34, 70, 39},
   {48, 34, 56},
   {48, 73, 47},
   {41, 36, 62},
   {89, 49, 60},
   {40, 80, 38},
   {58, 51, 53},
   {73, 65, 39},
   {69, 38, 79},
   {64, 84},
   {40, 48, 52},
   {64, 75, 78},
   {49, 70},
   {44, 61},
   {73, 46},
   {46},
   {75},
   {65, 62},
   {52, 63},
   {80, 82, 75},
   {57, 77, 63},
   {51, 77, 54},
   {61},
   {64, 57, 76},
   {59, 55},
   {67, 85, 55},
   {80},
   {57, 59, 77},
   {72},
   {66, 68, 74},
   {66},
   {82},
   {66, 68},
   {63},
   {67},
   {72},
   {82},
   {69, 71},
   {76, 71},
   {91, 79},
   {86, 78},
   {72},
   {81},
   {83},
   {84},
   {76, 86},
   {89, 83},
   {81, 78},
   {79},
   {91},
   {88},
   {84},
   {90},
   {90},
   {85},
   {88, 89},
   {91},
   {87},
   {88},
   {90},
   {92},
   {92},
   {92},
   {  } ];

deadline = array2d(1..92, 1..3, [3, 2, 2, 4, 5, 5, 9, 2, 1, 11, 3, 1, 16, 2, 1, 22, 1, 3, 24, 5, 2, 29, 2, 1, 33, 1, 1, 38, 1, 4, 43, 0, 2, 52, 5, 4, 52, 3, 0, 52, 4, 5, 54, 3, 2, 60, 5, 3, 62, 1, 3, 62, 2, 5, 66, 5, 1, 67, 2, 5, 68, 0, 5, 68, 1, 3, 75, 3, 1, 75, 1, 4, 77, 3, 5, 79, 5, 3, 80, 4, 0, 84, 5, 2, 92, 4, 2, 103, 2, 1, 108, 4, 2, 110, 2, 0, 113, 5, 2, 115, 5, 5, 116, 0, 0, 117, 2, 1, 119, 0, 3, 121, 4, 0, 123, 0, 5, 124, 5, 1, 127, 4, 0, 131, 5, 3, 135, 1, 3, 138, 3, 4, 140, 4, 4, 142, 0, 1, 143, 2, 0, 151, 1, 0, 154, 4, 0, 154, 1, 5, 155, 4, 2, 155, 3, 2, 159, 2, 0, 160, 0, 2, 160, 4, 2, 162, 0, 1, 164, 0, 2, 166, 2, 4, 166, 2, 1, 169, 5, 1, 174, 2, 5, 178, 3, 5, 179, 2, 1, 180, 1, 3, 185, 1, 4, 189, 5, 4, 194, 3, 0, 195, 2, 0, 196, 5, 4, 203, 2, 3, 208, 5, 2, 210, 3, 5, 212, 4, 3, 215, 4, 4, 216, 0, 1, 217, 2, 4, 219, 0, 3, 220, 0, 4, 220, 5, 4, 221, 1, 3, 222, 5, 1, 224, 4, 0, 224, 2, 4, 227, 4, 2, 237, 4, 4, 238, 2, 2, 239, 1, 2, 240, 2, 4, 242, 3, 3, 243, 5, 2, 244, 1, 5, 246, 1, 4]);
