n_res = 4;
rc = [ 17, 19, 16, 18 ];
n_tasks = 92;
d = [0, 7, 2, 7, 2, 7, 6, 4, 2, 10, 5, 2, 10, 9, 6, 4, 2, 2, 8, 9, 8, 4, 6, 8, 5, 1, 7, 4, 10, 6, 6, 8, 8, 8, 2, 5, 5, 10, 2, 5, 1, 8, 4, 8, 7, 1, 1, 3, 6, 9, 1, 4, 6, 10, 2, 1, 8, 8, 6, 7, 4, 6, 4, 6, 9, 6, 2, 6, 8, 7, 8, 6, 1, 2, 9, 4, 3, 9, 4, 3, 2, 7, 6, 7, 10, 4, 10, 6, 5, 8, 2, 0];
rr = array2d(1..4, 1..92, [0, 0, 10, 10, 0, 10, 0, 0, 10, 8, 0, 0, 0, 10, 0, 8, 0, 7, 5, 7, 0, 4, 0, 0, 0, 0, 7, 9, 0, 0, 0, 3, 0, 0, 0, 6, 7, 9, 0, 0, 7, 2, 0, 5, 0, 0, 0, 10, 0, 3, 0, 0, 8, 0, 9, 0, 4, 7, 9, 0, 6, 0, 7, 5, 6, 5, 0, 0, 2, 0, 0, 0, 10, 0, 0, 9, 3, 2, 0, 0, 0, 8, 1, 0, 0, 0, 0, 8, 0, 7, 0, 0, 0, 0, 0, 8, 0, 6, 10, 7, 0, 0, 1, 0, 0, 0, 6, 9, 0, 0, 8, 0, 4, 0, 0, 0, 7, 0, 7, 0, 0, 3, 5, 10, 0, 6, 0, 0, 0, 7, 0, 9, 0, 8, 0, 0, 8, 7, 2, 0, 0, 7, 8, 6, 8, 10, 10, 8, 0, 0, 7, 0, 6, 2, 3, 0, 9, 0, 9, 0, 8, 2, 9, 0, 0, 10, 0, 0, 6, 9, 0, 0, 1, 9, 7, 0, 3, 1, 4, 8, 0, 0, 0, 0, 0, 10, 0, 0, 6, 6, 0, 6, 0, 0, 7, 8, 0, 0, 0, 0, 7, 7, 0, 0, 1, 7, 9, 0, 0, 0, 0, 2, 1, 2, 9, 0, 0, 6, 0, 10, 0, 0, 3, 0, 0, 0, 10, 0, 5, 5, 4, 10, 5, 0, 0, 0, 0, 5, 9, 0, 0, 3, 0, 10, 3, 6, 0, 0, 0, 0, 10, 2, 9, 6, 2, 10, 0, 0, 2, 0, 0, 1, 4, 4, 9, 4, 0, 7, 7, 0, 1, 0, 4, 6, 4, 0, 0, 3, 0, 0, 10, 0, 0, 0, 0, 4, 7, 0, 6, 1, 9, 5, 0, 0, 7, 0, 0, 8, 8, 7, 2, 10, 0, 0, 0, 8, 0, 0, 3, 6, 6, 0, 4, 0, 6, 1, 3, 8, 5, 10, 0, 0, 0, 0, 2, 0, 0, 5, 10, 10, 7, 2, 9, 10, 1, 0, 0, 0, 0, 2, 0, 0, 7, 4, 3, 8, 0, 1, 1, 0, 9, 0, 0, 0, 0, 0, 0, 0, 0, 0, 0, 7, 0, 7, 8, 0, 0, 0]);

suc = [
   {2, 3, 4},
   {8, 6, 22},
   {66, 12, 5},
   {37, 15},
   {14},
   {26, 20, 7},
   {9, 10, 31},
   {46, 27, 14},
   {59, 13, 38},
   {16, 33, 11},
   {17},
   {25, 18, 59},
   {28, 21, 39},
   {42, 19, 44},
   {49, 63},
   {34, 36},
   {23},
   {43},
   {43},
   {67},
   {24, 30},
   {32, 40, 29},
   {35, 37},
   {48, 57},
   {56, 50},
   {53},
   {51},
   {80},
   {61},
   {58},
   {81, 82, 38},
   {60},
   {69},
   {65},
   {60},
   {59},
   {60},
   {66, 53},
   {41},
   {45},
   {72, 68},
   {73, 52},
   {80},
   {81},
   {81, 62, 47},
   {54},
   {64, 71},
   {80, 52},
   {90},
   {55},
   {52},
   {75, 69},
   {87},
   {76},
   {70, 79},
   {79},
   {87},
   {84},
   {78},
   {85},
   {88, 74, 69},
   {84},
   {86},
   {91},
   {72, 90},
   {87},
   {74},
   {74},
   {78},
   {85},
   {82},
   {75},
   {76},
   {78},
   {77},
   {82},
   {83, 84},
   {90},
   {83},
   {89},
   {83},
   {91, 86},
   {89},
   {85},
   {88},
   {89},
   {88},
   {91},
   {92},
   {92},
   {92},
   {  } ];

deadline = array2d(1..92, 1..3, [5, 0, 3, 7, 3, 4, 7, 5, 5, 9, 5, 0, 11, 1, 5, 16, 1, 5, 16, 1, 3, 20, 2, 3, 28, 0, 4, 29, 4, 0, 35, 5, 0, 38, 3, 2, 41, 2, 4, 43, 3, 1, 47, 4, 0, 49, 5, 2, 49, 5, 4, 51, 3, 0, 53, 4, 0, 53, 4, 5, 56, 5, 4, 62, 2, 2, 65, 0, 3, 65, 4, 4, 66, 1, 0, 67, 2, 2, 72, 0, 5, 72, 3, 5, 77, 4, 3, 78, 3, 3, 80, 0, 5, 81, 2, 3, 82, 5, 1, 88, 3, 5, 91, 2, 4, 92, 4, 5, 97, 4, 5, 98, 2, 4, 100, 0, 2, 100, 3, 4, 101, 5, 0, 103, 4, 5, 112, 3, 0, 114, 3, 0, 114, 5, 3, 117, 2, 5, 123, 5, 2, 125, 1, 0, 125, 2, 0, 126, 5, 0, 128, 2, 0, 128, 0, 2, 130, 1, 2, 133, 4, 4, 135, 4, 3, 138, 1, 5, 141, 1, 0, 142, 0, 4, 148, 0, 2, 150, 4, 5, 155, 3, 4, 156, 4, 2, 157, 4, 0, 158, 5, 3, 159, 2, 2, 160, 3, 0, 161, 2, 4, 163, 0, 3, 164, 1, 0, 169, 0, 1, 172, 4, 1, 172, 1, 4, 173, 0, 0, 176, 4, 0, 178, 4, 1, 178, 2, 2, 189, 5, 3, 191, 2, 5, 193, 1, 5, 196, 2, 2, 197, 4, 4, 205, 1, 0, 205, 4, 3, 205, 2, 0, 206, 5, 2, 207, 1, 0, 208, 3, 0, 209, 5, 0, 226, 2, 4, 227, 2, 3, 228, 1, 2, 235, 5, 1]);
