n_res = 4;
rc = [ 14, 12, 15, 13 ];
n_tasks = 92;
d = [0, 7, 8, 3, 2, 4, 7, 2, 7, 9, 4, 4, 3, 10, 3, 6, 2, 6, 6, 5, 2, 10, 5, 1, 1, 4, 5, 1, 5, 3, 10, 9, 4, 1, 5, 7, 9, 6, 2, 1, 10, 4, 2, 10, 9, 10, 6, 7, 8, 1, 7, 1, 1, 3, 9, 6, 1, 2, 8, 7, 9, 10, 4, 5, 7, 7, 9, 6, 10, 8, 2, 1, 6, 3, 8, 10, 6, 3, 7, 3, 5, 6, 1, 9, 10, 6, 8, 5, 4, 2, 2, 0];
rr = array2d(1..4, 1..92, [0, 9, 0, 0, 0, 8, 0, 10, 0, 0, 0, 0, 0, 0, 0, 0, 0, 0, 10, 0, 0, 0, 2, 0, 0, 0, 0, 0, 0, 0, 0, 9, 0, 0, 6, 0, 0, 0, 0, 0, 0, 0, 0, 0, 0, 0, 10, 0, 0, 0, 0, 0, 4, 8, 0, 0, 0, 0, 0, 7, 0, 8, 0, 9, 10, 0, 0, 6, 0, 0, 0, 0, 0, 0, 0, 0, 0, 0, 0, 0, 1, 0, 0, 5, 0, 0, 8, 8, 0, 0, 2, 0, 0, 0, 7, 0, 0, 0, 0, 0, 0, 7, 0, 3, 9, 0, 0, 0, 0, 0, 0, 0, 0, 0, 0, 0, 0, 0, 0, 3, 0, 0, 0, 0, 0, 0, 0, 0, 0, 0, 5, 0, 9, 5, 0, 0, 8, 0, 0, 5, 0, 0, 3, 7, 0, 0, 0, 0, 0, 0, 9, 0, 0, 0, 0, 0, 0, 0, 7, 0, 0, 0, 0, 7, 9, 0, 0, 0, 0, 0, 0, 5, 0, 1, 10, 0, 0, 0, 0, 0, 5, 5, 0, 0, 0, 0, 0, 5, 0, 0, 0, 0, 0, 0, 10, 0, 0, 0, 0, 0, 9, 0, 0, 1, 0, 0, 0, 8, 3, 0, 0, 0, 0, 5, 0, 0, 1, 0, 0, 0, 5, 3, 0, 8, 0, 0, 7, 9, 0, 0, 0, 0, 10, 0, 0, 0, 0, 0, 0, 8, 0, 2, 0, 0, 2, 0, 3, 0, 0, 10, 0, 0, 0, 0, 10, 0, 0, 0, 10, 7, 4, 0, 7, 0, 0, 0, 0, 0, 10, 0, 0, 0, 0, 0, 0, 0, 0, 0, 0, 0, 5, 0, 2, 0, 6, 0, 0, 0, 0, 1, 6, 5, 0, 3, 0, 0, 5, 9, 0, 0, 0, 4, 6, 0, 3, 0, 3, 0, 0, 6, 0, 10, 0, 0, 0, 0, 0, 0, 0, 0, 0, 4, 0, 0, 0, 10, 0, 0, 0, 0, 2, 0, 10, 0, 0, 0, 0, 0, 0, 0, 0, 0, 0, 0, 9, 1, 0, 0, 0, 4, 0, 0, 0, 4, 0, 0, 0, 0, 0, 0, 0, 1, 0, 0, 0, 0, 0, 0]);

suc = [
   {2, 3, 4},
   {20, 21, 7},
   {27, 44, 5},
   {28, 6, 79},
   {8, 49, 19},
   {71, 15},
   {9, 11, 12},
   {17, 18, 13},
   {16, 10, 22},
   {42},
   {26, 35, 31},
   {89, 58, 14},
   {39},
   {60, 62},
   {32, 25},
   {91, 69},
   {53, 29},
   {50, 39},
   {81},
   {48, 72, 30},
   {84},
   {33, 23},
   {24, 57, 38},
   {25, 35},
   {59, 36, 85},
   {42},
   {65, 30},
   {60, 63},
   {40, 48, 38},
   {51, 45},
   {32, 43},
   {83},
   {34, 71},
   {66, 67, 87},
   {40, 68, 37},
   {56},
   {64, 61},
   {54, 46, 55},
   {41},
   {74},
   {48, 76, 45},
   {45},
   {47},
   {64, 55},
   {56, 46, 71},
   {52},
   {83},
   {81, 65},
   {81, 52},
   {61, 79},
   {56, 75},
   {61},
   {68, 77},
   {64, 84},
   {80, 70, 79},
   {74, 83},
   {85},
   {82, 67},
   {70, 84, 62},
   {76},
   {78},
   {72},
   {72, 69},
   {88, 75, 67},
   {73, 69},
   {68, 77, 78},
   {76},
   {80, 73},
   {70},
   {75},
   {86, 78},
   {87},
   {74, 85},
   {82},
   {82, 77},
   {90},
   {89},
   {80},
   {86},
   {88},
   {89},
   {90},
   {86},
   {90},
   {88},
   {87},
   {91},
   {91},
   {92},
   {92},
   {92},
   {  } ];

deadline = array2d(1..92, 1..3, [1, 5, 5, 2, 1, 3, 4, 5, 1, 5, 2, 0, 6, 5, 1, 9, 0, 4, 10, 0, 3, 17, 1, 1, 19, 2, 0, 19, 5, 2, 23, 2, 2, 24, 5, 2, 25, 3, 1, 30, 4, 5, 30, 0, 5, 31, 0, 5, 34, 3, 1, 37, 5, 0, 37, 2, 5, 38, 5, 2, 38, 0, 5, 45, 3, 5, 45, 0, 2, 50, 1, 4, 50, 3, 4, 50, 5, 1, 60, 5, 0, 64, 2, 1, 64, 5, 0, 65, 0, 2, 67, 2, 1, 70, 5, 0, 72, 1, 2, 76, 0, 4, 79, 0, 4, 79, 1, 0, 81, 4, 3, 82, 0, 4, 89, 0, 1, 92, 2, 3, 93, 5, 1, 98, 5, 2, 98, 0, 1, 101, 4, 4, 103, 3, 4, 103, 4, 5, 106, 5, 2, 110, 5, 3, 110, 3, 0, 114, 5, 3, 114, 4, 0, 116, 3, 0, 116, 4, 5, 118, 5, 4, 118, 5, 3, 121, 3, 1, 124, 5, 1, 126, 2, 2, 127, 5, 1, 128, 4, 4, 131, 2, 1, 138, 2, 5, 139, 0, 4, 139, 0, 4, 141, 0, 5, 143, 0, 1, 145, 0, 2, 145, 1, 5, 146, 3, 2, 148, 1, 1, 148, 5, 2, 150, 5, 2, 150, 3, 0, 154, 1, 4, 154, 0, 0, 155, 1, 3, 157, 5, 1, 160, 3, 1, 163, 3, 1, 164, 4, 0, 167, 4, 0, 169, 3, 3, 169, 5, 4, 171, 4, 1, 172, 4, 2, 173, 2, 5, 177, 3, 0, 188, 3, 4, 188, 0, 3, 193, 0, 5, 196, 3, 0, 199, 2, 4]);
