n_res = 4;
rc = [ 54, 48, 55, 62 ];
n_tasks = 92;
d = [0, 2, 3, 5, 3, 4, 4, 2, 2, 4, 2, 3, 2, 10, 6, 1, 7, 6, 9, 1, 4, 8, 7, 2, 2, 8, 2, 1, 8, 10, 10, 7, 6, 4, 4, 9, 3, 1, 3, 4, 1, 10, 8, 1, 9, 7, 9, 1, 5, 8, 7, 8, 6, 10, 5, 1, 4, 3, 2, 3, 6, 2, 4, 2, 2, 7, 3, 10, 4, 5, 3, 7, 4, 7, 1, 6, 6, 9, 4, 4, 5, 6, 4, 8, 5, 8, 10, 7, 7, 2, 3, 0];
rr = array2d(1..4, 1..92, [0, 5, 9, 4, 5, 1, 9, 6, 0, 3, 0, 0, 9, 0, 7, 1, 3, 4, 9, 0, 7, 0, 1, 9, 7, 0, 0, 7, 6, 3, 7, 7, 9, 10, 10, 2, 2, 10, 0, 0, 5, 8, 1, 4, 7, 0, 2, 0, 2, 2, 6, 5, 0, 10, 0, 3, 0, 2, 2, 1, 3, 3, 0, 5, 5, 0, 1, 1, 0, 0, 3, 8, 6, 0, 2, 2, 4, 6, 0, 0, 8, 0, 2, 0, 3, 3, 9, 0, 3, 1, 6, 0, 0, 4, 9, 0, 10, 1, 6, 1, 9, 2, 0, 6, 6, 6, 3, 1, 0, 4, 7, 5, 0, 0, 4, 0, 3, 4, 6, 1, 1, 6, 1, 2, 0, 1, 8, 7, 10, 5, 6, 6, 4, 1, 8, 0, 0, 2, 0, 1, 10, 8, 9, 2, 0, 7, 10, 0, 7, 9, 0, 0, 0, 0, 2, 0, 0, 8, 8, 7, 3, 1, 1, 6, 3, 2, 0, 0, 2, 0, 2, 7, 1, 5, 7, 3, 10, 0, 1, 1, 4, 0, 0, 0, 0, 7, 9, 0, 0, 5, 0, 3, 5, 3, 6, 1, 0, 3, 9, 0, 0, 8, 4, 9, 2, 8, 1, 10, 2, 0, 6, 10, 7, 6, 0, 2, 7, 9, 6, 5, 5, 0, 5, 2, 6, 7, 0, 6, 4, 1, 4, 5, 2, 6, 8, 8, 1, 0, 3, 0, 9, 2, 7, 1, 9, 4, 7, 6, 8, 10, 6, 0, 7, 7, 5, 2, 0, 0, 0, 8, 5, 4, 2, 5, 0, 7, 4, 4, 0, 2, 10, 9, 8, 3, 6, 0, 0, 6, 0, 5, 8, 2, 2, 10, 0, 9, 8, 4, 0, 1, 7, 4, 10, 0, 7, 5, 5, 8, 2, 10, 2, 8, 5, 4, 1, 0, 10, 0, 4, 0, 6, 9, 7, 2, 8, 9, 5, 0, 6, 0, 8, 0, 1, 6, 10, 0, 5, 2, 10, 0, 7, 8, 6, 0, 9, 1, 4, 9, 0, 5, 9, 6, 10, 9, 9, 9, 7, 9, 0, 6, 0, 0, 8, 9, 0, 6, 2, 7, 3, 0, 3, 0, 6, 0, 0, 4, 7, 0]);

suc = [
   {2, 3, 4},
   {17, 6, 14},
   {9, 12, 15},
   {10, 11, 5},
   {8, 78, 55},
   {26, 19, 7},
   {16, 20, 28},
   {33, 67, 22},
   {34, 42, 29},
   {32, 18, 74},
   {43, 27, 39},
   {59, 13, 54},
   {48, 43, 21},
   {88},
   {25, 47},
   {37},
   {27, 78},
   {63, 30, 23},
   {35, 53, 38},
   {35, 36, 69},
   {50, 85},
   {74, 52, 37},
   {24, 80},
   {50},
   {56, 60, 68},
   {49, 31},
   {51},
   {40, 55},
   {32, 64},
   {41, 52},
   {71},
   {46},
   {42, 44},
   {64, 58, 46},
   {43},
   {71},
   {86},
   {41, 76},
   {76, 63},
   {72, 52},
   {73, 45},
   {70},
   {89, 58},
   {49, 50, 84},
   {68, 70},
   {83},
   {67},
   {53, 63},
   {91},
   {56},
   {64, 57},
   {81},
   {56, 70, 62},
   {66, 62},
   {75},
   {87},
   {66, 59, 62},
   {85},
   {61},
   {65, 82},
   {71},
   {65, 90, 75},
   {68},
   {74},
   {84},
   {81, 67, 77},
   {75, 84},
   {79},
   {73},
   {87},
   {72, 81},
   {77},
   {80, 79},
   {76, 86},
   {88},
   {88, 77},
   {83},
   {80, 89, 79},
   {82},
   {91},
   {82, 83},
   {85},
   {90},
   {86},
   {87},
   {91},
   {90},
   {89},
   {92},
   {92},
   {92},
   {  } ];

deadline = array2d(1..92, 1..3, [1, 2, 3, 13, 4, 4, 20, 5, 4, 21, 1, 4, 24, 5, 3, 25, 1, 3, 25, 4, 4, 26, 5, 5, 27, 1, 1, 28, 4, 4, 28, 1, 4, 29, 5, 0, 29, 0, 5, 29, 1, 0, 30, 2, 0, 31, 2, 3, 32, 3, 3, 35, 3, 5, 35, 2, 4, 38, 4, 1, 40, 0, 5, 41, 0, 2, 41, 3, 5, 43, 0, 5, 46, 4, 0, 47, 5, 0, 48, 1, 2, 54, 5, 4, 60, 4, 5, 60, 2, 1, 62, 2, 3, 63, 5, 0, 69, 5, 5, 70, 2, 3, 73, 1, 2, 76, 3, 3, 78, 0, 5, 84, 2, 2, 85, 3, 3, 86, 5, 5, 91, 5, 4, 95, 4, 0, 98, 5, 5, 98, 4, 4, 99, 5, 3, 101, 4, 5, 101, 3, 4, 102, 4, 1, 103, 3, 2, 104, 3, 5, 104, 1, 2, 104, 2, 0, 105, 4, 5, 111, 5, 5, 111, 2, 4, 112, 4, 2, 115, 5, 2, 116, 3, 1, 116, 4, 2, 121, 1, 2, 124, 4, 0, 128, 5, 0, 129, 3, 1, 131, 5, 1, 132, 2, 4, 133, 1, 3, 136, 5, 3, 139, 3, 2, 142, 2, 3, 142, 0, 0, 144, 3, 0, 145, 3, 0, 145, 3, 1, 146, 5, 4, 149, 1, 5, 152, 4, 2, 153, 2, 2, 160, 2, 0, 160, 2, 3, 161, 2, 1, 162, 5, 3, 167, 1, 1, 168, 3, 3, 171, 1, 3, 172, 0, 4, 173, 4, 4, 174, 1, 0, 177, 4, 1, 178, 0, 3, 178, 0, 1, 180, 3, 1, 180, 3, 2]);
