n_res = 4;
rc = [ 22, 22, 18, 23 ];
n_tasks = 92;
d = [0, 7, 4, 4, 1, 6, 8, 2, 10, 7, 4, 10, 10, 7, 10, 5, 2, 9, 3, 9, 5, 4, 10, 7, 6, 5, 4, 2, 6, 1, 5, 4, 6, 4, 6, 8, 8, 10, 9, 2, 7, 4, 10, 4, 3, 10, 6, 10, 1, 4, 2, 8, 10, 10, 1, 1, 2, 3, 2, 5, 5, 1, 10, 6, 3, 9, 7, 1, 4, 7, 10, 2, 8, 7, 2, 1, 4, 4, 9, 4, 3, 4, 2, 3, 6, 6, 6, 4, 1, 6, 5, 0];
rr = array2d(1..4, 1..92, [0, 9, 3, 3, 5, 0, 7, 3, 0, 8, 6, 1, 1, 0, 0, 0, 7, 9, 9, 10, 9, 2, 0, 2, 2, 4, 0, 1, 5, 0, 5, 7, 3, 7, 5, 6, 5, 7, 9, 1, 4, 7, 9, 5, 0, 1, 2, 10, 10, 3, 1, 0, 3, 6, 10, 0, 10, 0, 9, 5, 8, 10, 8, 7, 2, 5, 10, 5, 0, 0, 8, 0, 6, 7, 6, 5, 4, 0, 0, 5, 0, 6, 0, 0, 0, 3, 6, 6, 4, 10, 0, 0, 0, 6, 3, 0, 0, 0, 5, 0, 5, 0, 7, 0, 0, 1, 8, 9, 0, 0, 0, 5, 10, 10, 1, 0, 8, 1, 7, 4, 7, 10, 7, 0, 5, 0, 2, 6, 2, 1, 9, 8, 4, 10, 0, 0, 9, 1, 0, 6, 5, 6, 5, 2, 2, 7, 10, 6, 8, 2, 0, 0, 0, 3, 1, 2, 0, 0, 2, 9, 4, 3, 0, 7, 10, 6, 2, 3, 0, 1, 6, 1, 7, 5, 7, 0, 10, 0, 7, 1, 3, 0, 6, 0, 0, 4, 2, 0, 4, 2, 9, 0, 10, 8, 9, 6, 2, 0, 5, 4, 0, 1, 1, 0, 2, 10, 0, 1, 0, 9, 9, 0, 3, 2, 9, 3, 0, 5, 1, 0, 10, 0, 1, 3, 0, 0, 0, 10, 8, 10, 5, 4, 3, 4, 10, 6, 2, 5, 8, 2, 8, 1, 0, 8, 1, 5, 1, 9, 0, 7, 0, 1, 3, 1, 1, 4, 10, 9, 7, 6, 0, 1, 2, 4, 4, 0, 9, 6, 0, 8, 9, 0, 4, 10, 4, 0, 0, 1, 8, 6, 10, 0, 7, 10, 0, 6, 4, 0, 0, 10, 9, 0, 3, 0, 10, 0, 10, 10, 5, 1, 6, 6, 0, 1, 4, 2, 3, 5, 8, 5, 6, 2, 0, 3, 0, 9, 0, 8, 10, 3, 5, 10, 6, 1, 0, 1, 5, 3, 6, 8, 1, 4, 2, 0, 2, 0, 2, 0, 0, 9, 0, 9, 8, 7, 1, 0, 6, 0, 0, 7, 5, 7, 4, 5, 9, 5, 4, 7, 4, 2, 4, 6, 2, 5, 6, 4, 4, 0]);

suc = [
   {2, 3, 4},
   {21},
   {8, 14, 7},
   {10, 5, 6},
   {12},
   {32, 28, 36},
   {33, 67, 77},
   {9, 20, 13},
   {24, 11, 15},
   {42, 35},
   {64, 75, 22},
   {16, 34, 19},
   {38},
   {17, 18, 23},
   {60},
   {50, 21, 63},
   {43, 27, 54},
   {48, 61},
   {70, 46, 86},
   {79, 39},
   {37},
   {56, 47},
   {25, 29},
   {57, 26, 66},
   {41, 58, 78},
   {31},
   {37, 39},
   {40, 60, 53},
   {38, 30},
   {49, 74, 68},
   {37},
   {70},
   {72, 70, 39},
   {59},
   {44, 68, 47},
   {45},
   {76},
   {51, 44, 76},
   {64},
   {42, 52},
   {48, 49, 44},
   {72, 82, 55},
   {69},
   {57, 46, 55},
   {63},
   {88, 81, 53},
   {80, 83},
   {80, 85},
   {89, 82, 52},
   {59, 68, 77},
   {60},
   {79},
   {90},
   {56, 59},
   {62},
   {73},
   {63},
   {77, 87},
   {65},
   {74},
   {73, 67},
   {69, 71},
   {74},
   {91},
   {72, 83, 84},
   {67, 76, 78},
   {71},
   {90},
   {85},
   {73, 82, 71},
   {81, 75},
   {78, 79},
   {80},
   {75},
   {88, 83},
   {86},
   {84},
   {91},
   {85},
   {84},
   {87},
   {90},
   {87},
   {88},
   {86},
   {91},
   {89},
   {89},
   {92},
   {92},
   {92},
   {  } ];

deadline = array2d(1..92, 1..3, [2, 2, 5, 2, 5, 1, 8, 1, 0, 10, 0, 1, 12, 3, 3, 12, 4, 3, 16, 2, 5, 16, 2, 4, 20, 4, 1, 20, 4, 3, 23, 5, 1, 23, 0, 1, 26, 0, 2, 27, 2, 5, 29, 3, 5, 30, 5, 3, 31, 2, 1, 31, 3, 4, 31, 3, 4, 35, 4, 2, 37, 4, 5, 37, 0, 2, 39, 0, 5, 40, 5, 0, 41, 5, 5, 45, 4, 0, 45, 2, 1, 49, 0, 1, 50, 2, 2, 51, 4, 3, 51, 5, 0, 54, 3, 5, 55, 0, 3, 62, 0, 0, 64, 5, 1, 66, 5, 5, 69, 3, 2, 69, 4, 5, 71, 0, 5, 72, 4, 4, 76, 3, 1, 77, 0, 5, 78, 0, 5, 80, 4, 5, 84, 5, 5, 86, 4, 3, 89, 1, 1, 91, 5, 0, 91, 4, 5, 93, 3, 2, 94, 2, 2, 95, 0, 4, 95, 0, 2, 97, 3, 2, 99, 4, 5, 100, 3, 2, 103, 5, 0, 104, 5, 3, 105, 4, 0, 106, 4, 4, 109, 0, 3, 110, 3, 1, 112, 0, 2, 122, 4, 5, 124, 3, 1, 125, 1, 4, 129, 5, 0, 130, 2, 4, 131, 5, 5, 133, 2, 4, 133, 3, 0, 137, 2, 2, 138, 3, 1, 138, 5, 3, 142, 1, 4, 142, 4, 2, 144, 1, 3, 145, 3, 0, 147, 2, 3, 150, 4, 3, 151, 5, 3, 154, 3, 5, 157, 4, 1, 157, 5, 4, 159, 0, 3, 159, 3, 0, 163, 4, 3, 169, 2, 5, 169, 1, 4, 171, 3, 3, 175, 3, 3, 176, 3, 2]);
