n_res = 4;
rc = [ 54, 49, 36, 51 ];
n_tasks = 92;
d = [0, 8, 5, 9, 5, 2, 8, 10, 2, 1, 2, 5, 10, 10, 5, 4, 9, 2, 3, 5, 5, 5, 7, 3, 2, 7, 5, 6, 3, 8, 3, 10, 4, 6, 3, 10, 10, 7, 9, 1, 6, 4, 2, 9, 5, 8, 6, 2, 6, 6, 8, 7, 9, 3, 5, 2, 5, 4, 6, 2, 3, 8, 10, 5, 9, 1, 7, 1, 2, 6, 5, 1, 6, 10, 1, 6, 10, 2, 2, 4, 9, 3, 3, 10, 3, 10, 6, 10, 10, 6, 1, 0];
rr = array2d(1..4, 1..92, [0, 0, 0, 0, 0, 8, 0, 3, 0, 10, 4, 10, 0, 0, 9, 3, 0, 0, 0, 5, 0, 0, 0, 1, 0, 10, 0, 0, 3, 0, 2, 0, 3, 0, 0, 3, 10, 0, 0, 0, 8, 0, 0, 10, 0, 9, 10, 0, 5, 6, 0, 9, 8, 8, 3, 8, 6, 0, 0, 6, 0, 0, 0, 0, 6, 6, 0, 0, 0, 8, 0, 5, 1, 0, 6, 2, 9, 3, 6, 0, 3, 2, 0, 3, 0, 10, 0, 1, 8, 0, 7, 0, 0, 9, 0, 0, 0, 0, 0, 0, 6, 0, 0, 0, 5, 4, 10, 9, 0, 0, 10, 6, 9, 0, 0, 8, 9, 0, 5, 0, 5, 2, 0, 7, 6, 0, 1, 6, 5, 0, 0, 0, 0, 2, 0, 0, 0, 3, 10, 0, 0, 3, 3, 0, 0, 9, 1, 8, 0, 4, 4, 6, 1, 0, 0, 0, 8, 0, 2, 10, 9, 0, 3, 8, 5, 7, 3, 0, 0, 0, 0, 3, 3, 5, 4, 0, 8, 0, 0, 0, 3, 0, 0, 0, 0, 9, 0, 10, 6, 0, 0, 0, 3, 4, 0, 4, 9, 0, 0, 4, 3, 0, 0, 0, 0, 1, 7, 0, 4, 0, 4, 1, 0, 0, 10, 0, 0, 9, 0, 8, 9, 0, 0, 4, 2, 3, 10, 0, 1, 0, 5, 2, 2, 7, 0, 0, 0, 0, 0, 4, 9, 1, 4, 8, 0, 0, 0, 0, 7, 0, 0, 0, 0, 0, 0, 0, 1, 5, 0, 10, 0, 8, 9, 0, 6, 0, 7, 9, 0, 10, 8, 0, 0, 8, 0, 0, 0, 1, 1, 0, 0, 5, 8, 9, 6, 0, 2, 0, 7, 0, 0, 0, 9, 2, 0, 0, 0, 0, 4, 5, 6, 10, 7, 0, 9, 2, 0, 6, 0, 3, 0, 3, 4, 9, 8, 0, 0, 0, 0, 2, 7, 2, 0, 0, 0, 6, 9, 0, 8, 0, 0, 3, 0, 0, 0, 4, 0, 5, 9, 1, 7, 0, 4, 0, 10, 0, 0, 0, 0, 9, 0, 0, 7, 3, 0, 0, 1, 0, 0, 0, 9, 0, 5, 3, 8, 2, 0, 0]);

suc = [
   {2, 3, 4},
   {5, 31},
   {32, 56, 36},
   {50, 85},
   {8, 16, 6},
   {12, 13, 7},
   {9, 10, 23},
   {69, 15},
   {46, 18, 30},
   {25, 11},
   {24, 40},
   {73, 14, 22},
   {17, 26},
   {33, 27, 39},
   {61, 20, 28},
   {49, 34, 53},
   {19, 21, 38},
   {41, 37},
   {25},
   {58, 71},
   {56, 53, 54},
   {74, 52},
   {59, 52, 77},
   {43},
   {42, 62},
   {78},
   {29, 71},
   {64, 75},
   {51, 43},
   {34, 63, 55},
   {66, 44, 39},
   {51, 35},
   {43},
   {80},
   {48, 45, 55},
   {39},
   {64},
   {66, 76},
   {60, 62, 71},
   {74},
   {67},
   {87},
   {59, 84},
   {57, 69, 45},
   {68},
   {47},
   {69},
   {83, 60},
   {72},
   {82, 77, 79},
   {61},
   {61},
   {84, 55},
   {65, 58, 70},
   {87},
   {78},
   {65, 58, 79},
   {60, 62},
   {78},
   {80, 91, 63},
   {64, 81},
   {67, 63},
   {72},
   {67},
   {88},
   {88},
   {72, 82},
   {73, 74, 75},
   {73, 86},
   {81},
   {76},
   {85},
   {76},
   {86},
   {85, 77},
   {90, 79},
   {88},
   {80, 81, 82},
   {83, 84},
   {86},
   {83},
   {89, 91},
   {89},
   {89},
   {87},
   {90},
   {90},
   {91},
   {92},
   {92},
   {92},
   {  } ];

deadline = array2d(1..92, 1..3, [4, 2, 2, 5, 5, 3, 8, 5, 0, 9, 3, 1, 18, 5, 0, 20, 3, 4, 27, 1, 0, 28, 3, 1, 33, 1, 3, 35, 3, 2, 36, 1, 1, 36, 3, 0, 37, 1, 2, 38, 5, 3, 39, 3, 0, 42, 1, 0, 44, 2, 5, 49, 1, 2, 52, 3, 4, 53, 3, 5, 56, 4, 1, 57, 4, 0, 60, 5, 1, 62, 1, 4, 71, 5, 3, 72, 0, 3, 73, 0, 3, 75, 1, 4, 78, 5, 2, 78, 3, 5, 81, 0, 0, 82, 2, 3, 84, 4, 4, 84, 3, 4, 89, 1, 0, 93, 1, 2, 101, 4, 0, 106, 0, 3, 107, 1, 4, 108, 2, 4, 110, 1, 4, 111, 0, 2, 112, 4, 2, 112, 1, 3, 118, 5, 0, 118, 4, 2, 119, 1, 4, 121, 1, 5, 121, 4, 2, 122, 1, 1, 124, 0, 2, 124, 0, 3, 126, 4, 2, 127, 5, 5, 127, 0, 3, 129, 0, 5, 134, 3, 5, 136, 1, 2, 139, 2, 0, 139, 3, 1, 141, 1, 4, 141, 1, 5, 143, 0, 0, 144, 3, 0, 148, 4, 0, 149, 4, 5, 150, 4, 0, 151, 5, 2, 152, 1, 4, 156, 0, 2, 158, 5, 2, 159, 1, 2, 162, 4, 1, 167, 5, 0, 168, 2, 1, 169, 3, 4, 169, 0, 0, 171, 5, 3, 173, 0, 3, 176, 4, 0, 177, 4, 5, 177, 4, 2, 185, 3, 0, 187, 4, 0, 187, 0, 4, 187, 3, 5, 188, 5, 0, 189, 4, 5, 191, 4, 5, 192, 2, 2, 195, 3, 3, 195, 5, 1]);
