n_res = 4;
rc = [ 42, 44, 44, 45 ];
n_tasks = 92;
d = [0, 3, 2, 4, 9, 5, 10, 3, 2, 9, 4, 1, 9, 3, 5, 10, 2, 1, 6, 4, 6, 8, 8, 2, 7, 9, 5, 6, 9, 6, 7, 10, 7, 3, 2, 8, 7, 8, 8, 1, 10, 5, 5, 5, 4, 7, 7, 1, 5, 4, 6, 1, 4, 7, 6, 4, 2, 2, 3, 9, 3, 2, 8, 4, 8, 4, 3, 7, 1, 3, 3, 5, 10, 2, 8, 1, 4, 3, 8, 5, 3, 1, 6, 1, 3, 5, 8, 2, 4, 10, 4, 0];
rr = array2d(1..4, 1..92, [0, 5, 1, 10, 10, 0, 10, 0, 4, 0, 8, 5, 2, 9, 1, 2, 6, 9, 10, 4, 6, 0, 6, 0, 10, 8, 0, 0, 0, 0, 2, 6, 1, 5, 7, 4, 0, 0, 10, 4, 9, 3, 0, 0, 10, 3, 0, 1, 0, 8, 0, 10, 0, 1, 8, 7, 9, 10, 2, 0, 3, 2, 0, 10, 5, 0, 0, 4, 4, 5, 7, 3, 0, 7, 8, 0, 7, 6, 3, 3, 9, 3, 0, 6, 8, 0, 8, 3, 5, 0, 0, 0, 0, 0, 0, 6, 0, 10, 4, 10, 0, 0, 4, 0, 0, 0, 0, 3, 1, 8, 6, 4, 0, 1, 6, 8, 7, 5, 7, 9, 7, 7, 10, 0, 4, 2, 3, 3, 0, 7, 10, 0, 0, 0, 9, 9, 8, 5, 6, 9, 5, 0, 0, 8, 3, 1, 7, 4, 5, 2, 0, 10, 1, 7, 9, 4, 4, 8, 7, 2, 0, 4, 2, 4, 2, 9, 1, 1, 0, 9, 9, 0, 0, 0, 6, 0, 9, 7, 0, 7, 9, 8, 8, 0, 0, 3, 1, 4, 10, 0, 10, 5, 7, 10, 4, 9, 5, 6, 10, 0, 2, 3, 10, 5, 0, 4, 8, 10, 6, 1, 6, 9, 2, 7, 3, 4, 0, 1, 6, 3, 4, 8, 10, 0, 2, 10, 10, 9, 3, 0, 7, 2, 10, 4, 7, 5, 0, 0, 0, 3, 4, 0, 5, 0, 0, 9, 2, 9, 0, 0, 7, 5, 10, 1, 0, 8, 2, 7, 2, 0, 9, 6, 2, 0, 8, 6, 3, 8, 6, 0, 1, 10, 6, 9, 2, 0, 0, 10, 1, 7, 2, 1, 0, 6, 0, 5, 2, 5, 7, 10, 0, 7, 6, 0, 8, 3, 2, 1, 1, 0, 4, 7, 7, 7, 0, 4, 0, 9, 6, 0, 0, 3, 0, 10, 6, 9, 1, 1, 0, 1, 5, 10, 3, 0, 1, 2, 2, 0, 10, 2, 6, 10, 2, 2, 0, 1, 6, 9, 9, 5, 2, 3, 2, 3, 6, 0, 8, 4, 4, 10, 5, 0, 1, 0, 0, 3, 10, 4, 5, 6, 8, 6, 5, 10, 10, 3, 0, 0]);

suc = [
   {2, 3, 4},
   {15, 29, 7},
   {8, 34, 6},
   {5},
   {18, 12},
   {9, 37, 13},
   {11, 21, 14},
   {10, 52},
   {80},
   {71},
   {26, 23},
   {60},
   {22},
   {65, 53, 39},
   {16, 17, 82},
   {56},
   {57, 84, 31},
   {19},
   {33, 20, 30},
   {21},
   {24},
   {40, 25, 46},
   {83},
   {31},
   {49, 74, 27},
   {77},
   {51, 28},
   {32, 38, 47},
   {74, 62},
   {43, 35, 45},
   {56},
   {59, 62},
   {41, 36, 44},
   {48, 64},
   {49, 61},
   {69},
   {67},
   {50},
   {54},
   {42},
   {66, 61, 63},
   {76},
   {89},
   {89},
   {81},
   {74},
   {58},
   {69, 63},
   {73, 69, 79},
   {67, 68},
   {81},
   {78, 54},
   {55},
   {64},
   {72},
   {58},
   {77},
   {59},
   {91},
   {67},
   {81, 76},
   {80},
   {85},
   {82, 75},
   {90},
   {87},
   {70},
   {87},
   {86},
   {90},
   {73},
   {80},
   {89, 77},
   {75},
   {85, 87},
   {91},
   {78},
   {83},
   {84},
   {82},
   {86},
   {83},
   {88},
   {88},
   {86},
   {91},
   {88},
   {90},
   {92},
   {92},
   {92},
   {  } ];

deadline = array2d(1..92, 1..3, [5, 3, 2, 6, 5, 2, 8, 1, 4, 9, 3, 3, 9, 4, 4, 10, 2, 4, 10, 1, 2, 11, 3, 1, 12, 5, 1, 15, 3, 3, 26, 0, 2, 27, 1, 2, 31, 2, 3, 31, 0, 2, 31, 1, 4, 41, 0, 0, 45, 3, 1, 48, 5, 5, 49, 3, 4, 51, 2, 0, 52, 0, 3, 53, 2, 3, 60, 2, 5, 61, 5, 0, 61, 4, 2, 62, 4, 5, 69, 3, 3, 70, 5, 0, 70, 1, 4, 71, 3, 0, 73, 0, 3, 76, 0, 5, 76, 2, 3, 81, 1, 2, 81, 4, 5, 82, 2, 4, 88, 0, 3, 90, 1, 0, 94, 3, 1, 98, 4, 3, 99, 1, 1, 101, 1, 4, 104, 1, 2, 105, 0, 5, 107, 2, 5, 108, 4, 2, 109, 1, 4, 110, 1, 1, 111, 0, 4, 111, 3, 4, 113, 3, 5, 114, 4, 0, 114, 1, 5, 114, 5, 1, 119, 0, 3, 121, 4, 4, 125, 2, 3, 125, 2, 1, 130, 0, 1, 131, 1, 2, 134, 1, 0, 135, 1, 3, 141, 1, 3, 142, 5, 2, 144, 1, 0, 145, 2, 4, 149, 5, 2, 150, 1, 4, 152, 3, 4, 157, 3, 5, 159, 1, 5, 160, 4, 0, 162, 4, 0, 164, 0, 1, 166, 1, 0, 167, 0, 2, 169, 0, 4, 169, 0, 2, 171, 3, 0, 177, 5, 0, 178, 1, 1, 182, 1, 5, 183, 2, 0, 185, 4, 2, 185, 3, 1, 187, 5, 2, 191, 0, 2, 192, 0, 3, 193, 1, 3, 196, 3, 0, 198, 0, 1, 199, 3, 4]);
