n_res = 4;
rc = [ 17, 14, 18, 25 ];
n_tasks = 92;
d = [0, 7, 7, 2, 3, 10, 7, 4, 9, 4, 2, 9, 8, 8, 3, 2, 7, 9, 8, 3, 10, 2, 3, 4, 8, 4, 5, 2, 10, 5, 7, 9, 6, 6, 8, 1, 8, 5, 6, 1, 8, 6, 2, 6, 1, 4, 9, 1, 6, 1, 7, 9, 8, 7, 6, 5, 4, 10, 9, 9, 4, 7, 10, 6, 6, 5, 4, 9, 5, 1, 2, 3, 10, 5, 3, 7, 5, 1, 3, 4, 6, 3, 1, 9, 6, 3, 4, 1, 9, 10, 8, 0];
rr = array2d(1..4, 1..92, [0, 1, 5, 8, 0, 0, 0, 0, 0, 0, 0, 0, 0, 0, 0, 0, 0, 0, 0, 0, 0, 4, 0, 0, 0, 0, 5, 0, 0, 1, 0, 0, 0, 0, 0, 0, 0, 0, 1, 3, 0, 0, 0, 0, 0, 9, 0, 6, 0, 9, 0, 2, 0, 0, 0, 0, 0, 3, 0, 2, 0, 0, 0, 5, 3, 8, 0, 6, 0, 0, 0, 0, 0, 0, 0, 10, 10, 0, 6, 8, 0, 0, 2, 0, 0, 3, 0, 0, 0, 0, 0, 0, 0, 0, 0, 0, 0, 0, 5, 0, 0, 0, 0, 0, 0, 0, 4, 0, 0, 0, 0, 0, 6, 0, 0, 0, 0, 0, 0, 5, 0, 0, 0, 4, 7, 0, 2, 0, 0, 2, 0, 0, 0, 2, 4, 0, 2, 0, 0, 0, 0, 0, 0, 0, 0, 0, 0, 0, 8, 0, 0, 0, 0, 0, 0, 0, 0, 0, 0, 0, 7, 0, 0, 0, 0, 4, 0, 0, 0, 0, 0, 0, 0, 0, 0, 2, 1, 0, 0, 0, 0, 3, 6, 0, 0, 0, 0, 0, 5, 8, 0, 0, 1, 1, 0, 0, 0, 0, 0, 2, 4, 0, 0, 0, 0, 0, 0, 0, 0, 0, 0, 0, 7, 0, 0, 0, 0, 0, 0, 9, 5, 0, 0, 0, 7, 0, 0, 5, 0, 0, 5, 0, 0, 0, 0, 0, 0, 0, 9, 0, 0, 0, 10, 0, 7, 0, 0, 0, 0, 0, 10, 0, 0, 0, 2, 0, 0, 0, 0, 0, 0, 0, 0, 0, 2, 0, 0, 0, 0, 0, 5, 0, 9, 0, 0, 0, 0, 0, 0, 0, 0, 0, 0, 10, 0, 0, 1, 4, 9, 6, 0, 0, 0, 7, 6, 10, 0, 0, 6, 7, 8, 2, 0, 0, 0, 0, 9, 0, 0, 8, 0, 0, 0, 0, 0, 0, 0, 0, 0, 0, 0, 0, 0, 0, 5, 0, 3, 0, 6, 3, 0, 3, 0, 0, 0, 0, 0, 7, 2, 0, 0, 0, 0, 0, 0, 1, 0, 5, 3, 0, 6, 0, 0, 10, 0, 0, 0, 10, 0, 0, 0, 0, 0, 5, 0, 0, 0, 0]);

suc = [
   {2, 3, 4},
   {8, 9, 5},
   {10, 28, 14},
   {24, 12, 6},
   {32, 19},
   {23, 71, 7},
   {18, 34, 36},
   {58, 11, 60},
   {55, 38, 31},
   {17, 19, 57},
   {52, 55},
   {16, 13, 15},
   {38, 22, 30},
   {34},
   {40, 69, 29},
   {49, 20, 37},
   {59, 27, 31},
   {41, 21, 47},
   {91, 53, 46},
   {90, 35, 23},
   {26, 50, 52},
   {82, 39},
   {70, 43, 54},
   {25, 43, 54},
   {50, 83, 84},
   {48, 42},
   {33, 44, 47},
   {41, 42, 63},
   {50, 53},
   {55, 39},
   {40, 44, 46},
   {66, 35, 61},
   {56},
   {81, 63},
   {57, 36, 54},
   {38},
   {48, 84, 79},
   {59, 74, 43},
   {65, 49, 42},
   {56, 41, 49},
   {48, 51, 52},
   {67},
   {45},
   {64, 60},
   {80, 69, 62},
   {51, 63},
   {88, 73, 61},
   {65, 67},
   {66, 68},
   {57, 77},
   {64, 79},
   {90, 70},
   {58, 68, 61},
   {74, 76},
   {56, 72, 78},
   {86},
   {80, 58},
   {85, 62},
   {80, 81, 69},
   {73, 68},
   {70, 75, 62},
   {76},
   {84},
   {65, 76, 77},
   {72},
   {75, 67, 71},
   {73, 77},
   {75, 71},
   {79},
   {82},
   {72},
   {83, 86},
   {74, 78},
   {81},
   {86},
   {82},
   {78},
   {87},
   {83, 85},
   {91, 85},
   {89, 91},
   {89},
   {88},
   {87},
   {88},
   {87},
   {90},
   {89},
   {92},
   {92},
   {92},
   {  } ];

deadline = array2d(1..92, 1..3, [5, 1, 4, 6, 5, 1, 10, 2, 4, 12, 2, 2, 14, 3, 0, 18, 4, 2, 18, 1, 4, 20, 2, 4, 24, 0, 0, 24, 5, 1, 27, 4, 1, 29, 1, 5, 29, 1, 5, 36, 1, 0, 38, 3, 2, 40, 1, 2, 43, 2, 1, 46, 5, 2, 47, 1, 0, 48, 3, 1, 50, 1, 3, 51, 5, 5, 51, 5, 5, 51, 5, 3, 51, 4, 5, 55, 1, 1, 56, 5, 5, 58, 2, 4, 59, 3, 2, 66, 4, 2, 70, 5, 1, 74, 5, 4, 78, 4, 0, 78, 4, 2, 80, 3, 4, 81, 2, 0, 83, 2, 2, 85, 5, 4, 86, 1, 5, 87, 3, 2, 87, 5, 2, 88, 0, 5, 93, 3, 1, 93, 1, 5, 100, 2, 4, 101, 0, 4, 102, 0, 3, 113, 2, 3, 114, 3, 4, 115, 1, 3, 117, 3, 4, 117, 4, 5, 118, 5, 1, 123, 1, 0, 123, 1, 2, 129, 2, 5, 130, 5, 1, 135, 2, 3, 135, 2, 1, 138, 1, 1, 140, 5, 5, 140, 3, 2, 142, 0, 0, 143, 3, 1, 146, 2, 4, 147, 4, 3, 151, 1, 3, 152, 1, 1, 156, 5, 1, 156, 5, 5, 157, 0, 0, 157, 3, 3, 158, 2, 0, 160, 3, 1, 161, 2, 3, 168, 1, 5, 172, 3, 0, 175, 0, 1, 184, 1, 4, 186, 1, 0, 186, 4, 4, 186, 4, 5, 191, 3, 2, 192, 3, 4, 194, 0, 3, 196, 1, 3, 196, 2, 0, 198, 3, 3, 199, 2, 3, 202, 2, 4, 204, 3, 5, 205, 2, 1]);
