n_res = 4;
rc = [ 15, 12, 12, 13 ];
n_tasks = 92;
d = [0, 2, 9, 5, 5, 5, 10, 4, 1, 9, 4, 2, 3, 6, 6, 10, 2, 3, 7, 8, 7, 10, 9, 3, 4, 7, 9, 4, 2, 9, 2, 7, 1, 8, 9, 6, 5, 1, 6, 1, 2, 3, 10, 2, 9, 3, 7, 3, 4, 3, 8, 1, 9, 7, 9, 9, 6, 10, 9, 2, 10, 5, 5, 2, 6, 8, 4, 5, 1, 9, 7, 7, 1, 5, 1, 3, 8, 6, 8, 8, 3, 6, 9, 9, 8, 2, 8, 1, 1, 10, 9, 0];
rr = array2d(1..4, 1..92, [0, 0, 0, 0, 0, 0, 6, 0, 0, 5, 0, 0, 0, 3, 0, 0, 0, 1, 5, 7, 5, 0, 0, 0, 0, 10, 9, 5, 0, 8, 0, 6, 0, 0, 0, 0, 0, 0, 0, 0, 6, 0, 0, 0, 0, 0, 0, 0, 0, 0, 0, 0, 0, 0, 0, 0, 0, 8, 0, 0, 0, 0, 8, 8, 0, 0, 0, 0, 9, 1, 5, 10, 0, 5, 0, 0, 0, 0, 0, 0, 0, 2, 0, 0, 0, 0, 0, 9, 2, 0, 0, 0, 0, 0, 0, 0, 0, 0, 0, 0, 0, 0, 4, 2, 4, 0, 8, 5, 0, 0, 0, 0, 0, 8, 0, 7, 4, 0, 0, 0, 0, 0, 0, 0, 9, 0, 5, 0, 0, 0, 0, 0, 0, 0, 0, 2, 6, 0, 3, 0, 0, 2, 0, 2, 6, 0, 0, 0, 0, 0, 0, 10, 0, 4, 0, 0, 0, 0, 0, 0, 0, 0, 0, 0, 0, 0, 0, 8, 0, 6, 1, 0, 0, 0, 0, 4, 3, 0, 0, 0, 0, 0, 0, 0, 0, 0, 0, 0, 0, 8, 0, 1, 0, 0, 0, 0, 0, 0, 0, 0, 8, 0, 0, 0, 0, 0, 4, 0, 0, 0, 0, 0, 8, 0, 1, 0, 0, 0, 0, 0, 0, 0, 1, 10, 0, 0, 10, 0, 0, 8, 0, 9, 9, 0, 0, 0, 0, 9, 10, 0, 2, 0, 4, 0, 0, 0, 0, 0, 3, 7, 0, 2, 0, 0, 0, 0, 5, 0, 4, 0, 10, 0, 0, 0, 9, 0, 0, 0, 0, 0, 5, 0, 0, 7, 0, 0, 0, 4, 10, 7, 6, 0, 0, 0, 2, 0, 0, 0, 0, 0, 0, 0, 0, 0, 0, 0, 0, 0, 0, 0, 0, 0, 0, 0, 0, 0, 0, 0, 0, 8, 0, 3, 9, 4, 0, 0, 0, 5, 0, 0, 0, 0, 0, 0, 0, 0, 10, 0, 0, 0, 0, 7, 0, 0, 0, 0, 1, 0, 0, 0, 0, 0, 3, 0, 0, 0, 0, 0, 0, 0, 0, 0, 0, 0, 0, 6, 0, 0, 7, 0, 0, 3, 0, 0, 0, 0, 9, 0]);

suc = [
   {2, 3, 4},
   {9, 21, 5},
   {8, 24, 35},
   {40, 11, 6},
   {24, 7},
   {71},
   {16, 28, 23},
   {34, 12, 54},
   {10, 12, 38},
   {17, 13, 15},
   {70, 53, 14},
   {62},
   {41, 76},
   {17, 19, 25},
   {89, 50, 30},
   {18, 36, 22},
   {65},
   {32},
   {20, 60},
   {74},
   {50, 37, 31},
   {68, 31},
   {27, 29, 30},
   {26, 43, 58},
   {33, 55},
   {46},
   {80, 73, 75},
   {44, 45},
   {88, 38},
   {44, 70},
   {83, 51},
   {42, 47, 39},
   {35},
   {64, 49, 68},
   {43, 61},
   {56, 46},
   {66, 82, 45},
   {80},
   {49},
   {48, 51, 43},
   {56},
   {83, 77},
   {73},
   {81, 63},
   {72, 46, 47},
   {74, 62},
   {53, 86},
   {66, 69},
   {51, 69, 87},
   {90},
   {67, 59, 52},
   {76, 55},
   {57},
   {82, 62},
   {71, 63},
   {89},
   {78, 63},
   {76},
   {72, 66, 60},
   {77, 71},
   {83},
   {75},
   {85},
   {74, 86},
   {68},
   {70},
   {84},
   {73},
   {79},
   {81, 75},
   {84},
   {88, 85},
   {91, 79},
   {87},
   {78},
   {77},
   {78, 79},
   {90},
   {82},
   {81, 86},
   {85},
   {84},
   {90},
   {88},
   {91},
   {87},
   {91},
   {89},
   {92},
   {92},
   {92},
   {  } ];

deadline = array2d(1..92, 1..3, [9, 1, 4, 9, 2, 4, 9, 4, 1, 15, 3, 0, 15, 1, 3, 19, 0, 5, 23, 0, 0, 24, 2, 5, 24, 2, 4, 31, 0, 5, 32, 5, 1, 32, 1, 1, 34, 1, 3, 36, 0, 1, 43, 2, 3, 43, 0, 3, 52, 4, 1, 53, 4, 3, 55, 0, 2, 57, 4, 4, 58, 1, 5, 59, 4, 4, 59, 2, 4, 63, 5, 5, 76, 5, 1, 76, 1, 2, 80, 1, 5, 81, 1, 0, 82, 3, 5, 83, 1, 0, 90, 2, 0, 92, 4, 5, 93, 4, 4, 94, 5, 1, 96, 4, 1, 98, 5, 3, 99, 0, 3, 102, 2, 4, 105, 5, 4, 105, 0, 4, 116, 3, 2, 118, 0, 1, 118, 1, 2, 127, 0, 4, 127, 4, 5, 132, 4, 2, 142, 4, 1, 142, 4, 3, 146, 1, 5, 153, 1, 4, 155, 1, 4, 158, 3, 4, 158, 1, 2, 162, 0, 0, 163, 1, 0, 165, 4, 5, 165, 0, 5, 166, 0, 0, 168, 3, 0, 169, 2, 4, 170, 4, 5, 173, 0, 3, 175, 2, 1, 182, 5, 0, 184, 3, 3, 184, 1, 5, 184, 5, 2, 186, 5, 4, 189, 4, 0, 193, 5, 4, 194, 4, 2, 196, 1, 3, 196, 3, 5, 204, 3, 0, 211, 2, 3, 212, 5, 5, 213, 5, 1, 222, 3, 4, 226, 4, 1, 230, 2, 5, 234, 1, 0, 235, 2, 5, 237, 3, 1, 238, 0, 5, 242, 4, 1, 244, 1, 1, 244, 3, 3, 249, 3, 3, 250, 4, 0, 251, 4, 0, 251, 1, 3, 251, 3, 5]);
