n_res = 4;
rc = [ 22, 28, 42, 18 ];
n_tasks = 92;
d = [0, 3, 8, 7, 8, 6, 10, 5, 1, 3, 3, 6, 10, 4, 8, 6, 2, 7, 9, 8, 1, 2, 2, 5, 1, 9, 3, 2, 3, 7, 3, 2, 7, 4, 8, 7, 1, 3, 4, 2, 1, 3, 1, 9, 10, 7, 7, 4, 2, 7, 4, 5, 9, 5, 5, 3, 2, 10, 10, 9, 6, 4, 2, 4, 1, 4, 5, 7, 10, 4, 10, 9, 5, 1, 10, 3, 7, 2, 4, 5, 3, 4, 2, 6, 7, 2, 4, 9, 8, 7, 9, 0];
rr = array2d(1..4, 1..92, [0, 0, 0, 0, 0, 0, 0, 0, 0, 0, 0, 10, 0, 0, 0, 0, 7, 0, 0, 5, 4, 0, 0, 0, 0, 0, 0, 0, 0, 7, 0, 0, 0, 0, 0, 0, 0, 0, 0, 0, 10, 0, 0, 0, 0, 0, 6, 4, 0, 0, 0, 0, 0, 0, 3, 0, 0, 0, 0, 0, 2, 0, 0, 3, 0, 0, 0, 0, 6, 10, 0, 7, 0, 0, 0, 0, 5, 0, 0, 6, 0, 0, 9, 0, 0, 0, 0, 9, 0, 0, 0, 0, 0, 2, 0, 4, 0, 0, 0, 2, 5, 0, 1, 0, 0, 10, 7, 0, 0, 9, 0, 0, 0, 0, 0, 1, 0, 1, 2, 0, 4, 0, 0, 0, 0, 0, 0, 0, 0, 0, 0, 0, 0, 4, 0, 10, 10, 0, 0, 0, 0, 0, 1, 0, 0, 0, 0, 0, 2, 0, 0, 0, 0, 1, 10, 0, 0, 0, 0, 4, 0, 0, 5, 0, 0, 10, 0, 0, 0, 0, 0, 0, 0, 0, 0, 4, 2, 0, 1, 0, 4, 0, 0, 0, 0, 0, 5, 0, 7, 6, 1, 0, 0, 5, 0, 0, 0, 0, 0, 0, 0, 0, 7, 0, 0, 0, 8, 0, 6, 0, 0, 0, 0, 0, 10, 0, 0, 8, 7, 3, 3, 0, 0, 6, 0, 0, 10, 0, 0, 0, 0, 0, 0, 0, 0, 1, 4, 2, 0, 4, 0, 7, 9, 9, 0, 0, 0, 0, 7, 0, 6, 0, 0, 0, 0, 0, 9, 0, 0, 4, 0, 4, 0, 0, 5, 0, 0, 0, 0, 8, 0, 0, 0, 2, 8, 0, 0, 0, 0, 0, 0, 0, 0, 0, 0, 0, 0, 0, 5, 0, 0, 9, 0, 0, 0, 0, 0, 2, 0, 0, 0, 0, 0, 5, 0, 0, 0, 8, 3, 0, 0, 0, 0, 8, 10, 0, 0, 0, 0, 0, 0, 10, 0, 0, 6, 5, 0, 0, 0, 0, 0, 0, 0, 0, 0, 0, 0, 0, 0, 0, 0, 10, 0, 0, 0, 0, 0, 0, 0, 0, 5, 0, 0, 0, 1, 0, 0, 5, 0, 0, 0, 0, 0, 0, 0, 0, 0, 0]);

suc = [
   {2, 3, 4},
   {18, 5, 7},
   {16, 14, 22},
   {8, 6, 15},
   {48, 9, 11},
   {25},
   {51, 20, 29},
   {10, 21, 30},
   {67, 12, 23},
   {24, 37, 39},
   {13},
   {26, 19, 44},
   {32, 17, 20},
   {73, 67},
   {35, 53, 47},
   {36, 69, 55},
   {44, 21, 47},
   {42, 36, 31},
   {37},
   {41, 61, 38},
   {70, 36, 22},
   {41, 23},
   {49, 27, 76},
   {33, 70, 57},
   {85, 29, 38},
   {50, 28, 58},
   {29, 79, 31},
   {40, 33, 69},
   {33, 37},
   {56, 66, 84},
   {45, 86, 55},
   {42, 53, 39},
   {34, 87, 63},
   {72, 61, 46},
   {73, 49, 43},
   {83, 58, 59},
   {62, 68, 46},
   {40, 81, 43},
   {91, 59, 45},
   {64, 45, 47},
   {65, 43, 54},
   {52, 46, 68},
   {83, 75, 62},
   {64, 69},
   {56, 65, 88},
   {78, 54, 55},
   {89, 74},
   {59, 83, 51},
   {50},
   {60, 77, 54},
   {53},
   {76},
   {60, 68},
   {88},
   {80},
   {60},
   {58, 74, 66},
   {85, 61, 63},
   {71},
   {62},
   {71},
   {71},
   {64, 72},
   {65, 91},
   {89},
   {75, 67},
   {81},
   {72, 73},
   {76, 70},
   {81, 74},
   {82},
   {78},
   {82},
   {75, 79},
   {82, 86},
   {84, 78},
   {84, 79},
   {80},
   {80},
   {91},
   {89},
   {90},
   {87},
   {85, 86},
   {87},
   {88},
   {90},
   {90},
   {92},
   {92},
   {92},
   {  } ];

deadline = array2d(1..92, 1..3, [5, 0, 4, 5, 1, 5, 7, 0, 0, 7, 2, 5, 10, 4, 5, 11, 3, 2, 17, 4, 3, 18, 3, 0, 21, 0, 0, 21, 3, 1, 25, 4, 4, 33, 0, 0, 35, 0, 5, 39, 5, 2, 40, 2, 4, 46, 1, 5, 47, 2, 1, 49, 0, 4, 52, 1, 0, 54, 4, 2, 62, 2, 5, 62, 4, 3, 68, 4, 1, 70, 3, 4, 73, 1, 5, 74, 5, 4, 75, 2, 5, 75, 5, 2, 77, 1, 2, 81, 4, 4, 82, 2, 5, 84, 5, 2, 85, 5, 5, 85, 2, 1, 89, 2, 0, 90, 0, 4, 90, 0, 2, 92, 3, 3, 92, 4, 2, 94, 4, 4, 97, 2, 0, 97, 3, 0, 98, 2, 0, 104, 5, 0, 104, 0, 5, 110, 0, 4, 112, 1, 0, 115, 4, 1, 120, 4, 2, 121, 2, 0, 121, 0, 3, 123, 0, 3, 124, 1, 0, 126, 1, 1, 127, 0, 3, 130, 3, 1, 134, 5, 1, 136, 1, 5, 140, 2, 3, 141, 1, 1, 141, 0, 5, 143, 4, 5, 145, 1, 0, 152, 2, 0, 152, 2, 4, 153, 1, 3, 154, 5, 3, 157, 2, 4, 162, 0, 5, 169, 4, 2, 169, 1, 0, 169, 2, 1, 178, 4, 1, 179, 5, 2, 180, 0, 2, 180, 1, 2, 183, 1, 5, 183, 4, 2, 184, 1, 4, 184, 2, 3, 185, 0, 5, 186, 0, 3, 186, 4, 3, 186, 3, 4, 188, 5, 2, 198, 3, 4, 198, 1, 0, 200, 5, 0, 203, 1, 5, 204, 4, 4, 205, 3, 4, 207, 5, 3]);
