n_res = 4;
rc = [ 31, 28, 33, 35 ];
n_tasks = 92;
d = [0, 10, 10, 10, 6, 4, 10, 1, 2, 6, 8, 9, 8, 10, 5, 4, 3, 9, 1, 8, 8, 1, 1, 5, 8, 5, 4, 4, 6, 1, 10, 4, 6, 5, 5, 4, 10, 10, 7, 3, 1, 6, 4, 5, 2, 9, 1, 2, 4, 9, 4, 10, 3, 2, 2, 3, 10, 7, 5, 2, 3, 7, 1, 4, 3, 9, 1, 3, 5, 7, 3, 10, 3, 10, 2, 6, 3, 8, 9, 4, 5, 7, 6, 8, 1, 2, 6, 3, 1, 2, 3, 0];
rr = array2d(1..4, 1..92, [0, 9, 8, 0, 0, 4, 0, 0, 1, 0, 4, 1, 9, 6, 5, 9, 7, 3, 2, 4, 1, 3, 7, 0, 9, 3, 0, 8, 9, 2, 4, 5, 0, 5, 1, 8, 2, 3, 0, 9, 10, 1, 0, 5, 4, 0, 7, 0, 2, 0, 1, 8, 2, 5, 0, 0, 7, 0, 0, 4, 3, 6, 0, 8, 6, 0, 5, 7, 0, 7, 8, 2, 7, 6, 3, 0, 7, 3, 0, 10, 3, 4, 7, 0, 6, 10, 0, 7, 9, 1, 3, 0, 0, 2, 5, 2, 5, 6, 2, 1, 8, 7, 0, 4, 0, 0, 0, 0, 0, 0, 0, 0, 1, 2, 0, 0, 3, 4, 2, 0, 6, 5, 5, 2, 3, 0, 8, 5, 1, 1, 5, 7, 2, 2, 7, 5, 0, 0, 9, 7, 2, 0, 0, 9, 0, 7, 4, 5, 7, 1, 0, 0, 0, 6, 6, 5, 8, 8, 10, 0, 0, 8, 0, 6, 9, 0, 8, 6, 9, 9, 5, 4, 2, 4, 5, 7, 1, 10, 2, 0, 3, 5, 2, 0, 0, 7, 0, 10, 1, 0, 5, 5, 0, 4, 9, 8, 2, 0, 4, 10, 4, 3, 0, 8, 7, 4, 2, 6, 0, 4, 9, 6, 9, 1, 8, 0, 7, 8, 2, 1, 0, 8, 6, 10, 5, 3, 5, 0, 8, 2, 6, 0, 0, 5, 8, 6, 6, 5, 4, 0, 7, 1, 0, 0, 2, 6, 0, 9, 4, 0, 3, 5, 0, 1, 2, 8, 10, 7, 8, 1, 1, 0, 5, 2, 4, 0, 6, 3, 10, 7, 0, 9, 1, 3, 0, 0, 0, 8, 5, 0, 2, 2, 10, 2, 7, 5, 10, 10, 8, 8, 1, 2, 8, 0, 8, 4, 4, 6, 7, 3, 4, 5, 4, 8, 4, 3, 3, 5, 0, 9, 7, 0, 0, 6, 1, 2, 2, 2, 8, 0, 7, 4, 6, 4, 0, 7, 2, 7, 2, 0, 6, 4, 8, 1, 3, 5, 5, 0, 5, 1, 6, 0, 6, 0, 9, 0, 7, 9, 0, 4, 5, 4, 0, 2, 0, 0, 0, 6, 0, 4, 5, 7, 5, 1, 9, 7, 6, 0]);

suc = [
   {2, 3, 4},
   {24, 12, 6},
   {75, 5, 7},
   {50, 28, 46},
   {8, 58},
   {89, 26, 59},
   {9, 42, 27},
   {25, 36, 13},
   {10, 11, 15},
   {68, 14},
   {18},
   {56, 19, 87},
   {16, 17, 29},
   {80, 62},
   {35, 20, 37},
   {32, 66, 44},
   {35, 68, 22},
   {21},
   {40, 47},
   {53},
   {45, 38, 23},
   {74, 43, 54},
   {88, 55},
   {49, 46},
   {91, 63},
   {57, 39, 31},
   {35, 52, 30},
   {34, 85},
   {72, 70, 31},
   {51},
   {43},
   {33, 43, 57},
   {85},
   {41, 37},
   {71},
   {41, 60, 47},
   {65, 63},
   {83},
   {56, 49, 50},
   {84},
   {73, 65, 69},
   {48, 58, 74},
   {83},
   {55},
   {59, 51},
   {79},
   {82, 55},
   {76},
   {61},
   {64, 58},
   {76, 53, 62},
   {66, 61, 71},
   {68},
   {69},
   {65, 57},
   {81, 63},
   {72},
   {78},
   {67, 69},
   {64},
   {77},
   {73},
   {90},
   {73},
   {80},
   {74, 79},
   {82, 78},
   {72, 89, 70},
   {77, 86},
   {85},
   {76},
   {80},
   {78, 87},
   {82},
   {83},
   {77, 79},
   {81},
   {91},
   {89, 86},
   {81},
   {91},
   {84},
   {84, 87},
   {86},
   {90},
   {88},
   {88},
   {90},
   {92},
   {92},
   {92},
   {  } ];

deadline = array2d(1..92, 1..3, [1, 4, 1, 4, 4, 5, 6, 1, 5, 9, 4, 5, 17, 2, 1, 20, 3, 2, 20, 3, 1, 20, 5, 5, 20, 5, 3, 29, 3, 3, 36, 3, 2, 41, 4, 1, 43, 5, 3, 43, 5, 5, 45, 3, 0, 45, 1, 5, 45, 0, 2, 46, 3, 3, 47, 1, 0, 50, 5, 3, 51, 1, 1, 56, 1, 1, 58, 4, 2, 58, 2, 5, 64, 2, 5, 67, 4, 5, 68, 0, 4, 69, 4, 1, 75, 1, 1, 75, 2, 4, 76, 5, 5, 77, 5, 0, 78, 5, 5, 79, 1, 0, 82, 5, 5, 83, 3, 1, 84, 4, 1, 86, 2, 5, 87, 2, 1, 89, 3, 1, 92, 0, 5, 95, 2, 3, 95, 4, 1, 102, 5, 4, 105, 2, 3, 106, 2, 5, 108, 5, 3, 112, 1, 3, 113, 3, 4, 113, 4, 0, 114, 2, 0, 115, 0, 3, 115, 2, 0, 116, 5, 2, 121, 1, 0, 122, 3, 1, 122, 5, 5, 125, 4, 1, 125, 2, 3, 126, 1, 3, 128, 2, 1, 131, 3, 1, 132, 2, 1, 134, 3, 0, 134, 3, 5, 135, 2, 0, 136, 1, 4, 137, 1, 1, 144, 2, 1, 145, 4, 4, 152, 2, 1, 154, 5, 2, 157, 4, 0, 158, 1, 5, 159, 2, 4, 161, 0, 2, 167, 0, 3, 172, 0, 3, 173, 0, 5, 175, 2, 2, 176, 0, 4, 177, 3, 3, 180, 1, 0, 185, 0, 4, 185, 3, 4, 185, 4, 0, 188, 3, 5, 189, 3, 1, 197, 4, 0, 198, 3, 3, 198, 1, 2, 200, 4, 5]);
