n_res = 4;
rc = [ 47, 42, 46, 42 ];
n_tasks = 92;
d = [0, 5, 1, 1, 7, 5, 10, 7, 4, 4, 9, 8, 6, 9, 4, 9, 8, 1, 7, 5, 9, 8, 9, 2, 8, 3, 9, 1, 5, 6, 6, 10, 1, 8, 5, 9, 4, 1, 8, 10, 5, 4, 2, 3, 6, 3, 7, 9, 4, 1, 9, 9, 4, 7, 4, 9, 4, 10, 3, 4, 6, 6, 2, 6, 8, 1, 10, 6, 2, 5, 3, 3, 1, 10, 3, 3, 5, 4, 10, 9, 3, 10, 5, 4, 10, 4, 3, 4, 10, 4, 9, 0];
rr = array2d(1..4, 1..92, [0, 9, 10, 1, 8, 8, 5, 2, 2, 7, 10, 7, 3, 4, 7, 6, 1, 3, 9, 5, 8, 2, 4, 1, 7, 6, 2, 4, 8, 4, 1, 4, 3, 5, 2, 6, 4, 7, 3, 5, 8, 6, 8, 6, 7, 8, 7, 1, 3, 4, 9, 8, 7, 4, 7, 9, 2, 4, 4, 8, 9, 6, 3, 5, 5, 10, 4, 6, 8, 8, 8, 6, 7, 3, 10, 2, 5, 3, 9, 4, 5, 2, 5, 7, 8, 2, 2, 8, 8, 8, 7, 0, 0, 3, 10, 3, 8, 4, 10, 4, 5, 1, 9, 9, 3, 2, 9, 9, 10, 7, 5, 8, 4, 4, 7, 4, 6, 4, 3, 5, 4, 6, 7, 2, 7, 2, 2, 1, 5, 8, 2, 7, 4, 2, 8, 4, 9, 1, 5, 9, 10, 7, 8, 3, 4, 10, 2, 9, 10, 1, 1, 4, 8, 2, 5, 2, 2, 6, 6, 3, 5, 3, 1, 1, 4, 2, 7, 6, 3, 3, 3, 8, 5, 6, 8, 9, 10, 8, 9, 4, 6, 5, 4, 0, 0, 4, 7, 9, 2, 9, 4, 7, 8, 1, 5, 5, 8, 8, 9, 8, 10, 2, 7, 2, 8, 3, 10, 7, 6, 2, 8, 5, 5, 2, 2, 5, 4, 2, 4, 8, 8, 6, 2, 1, 8, 2, 6, 4, 4, 1, 9, 3, 7, 9, 5, 2, 8, 7, 8, 7, 4, 2, 3, 2, 6, 3, 5, 5, 7, 4, 10, 2, 7, 1, 5, 1, 6, 1, 1, 5, 7, 3, 3, 9, 3, 4, 5, 8, 3, 6, 5, 3, 8, 2, 3, 0, 0, 3, 2, 5, 3, 2, 6, 6, 1, 5, 9, 6, 10, 7, 3, 6, 2, 2, 7, 6, 8, 5, 7, 1, 6, 10, 2, 6, 5, 8, 9, 1, 5, 8, 3, 6, 7, 6, 6, 4, 5, 6, 10, 7, 6, 8, 4, 9, 9, 6, 10, 7, 7, 4, 8, 3, 8, 9, 7, 9, 2, 1, 2, 3, 2, 8, 1, 7, 7, 10, 10, 10, 5, 4, 10, 8, 10, 8, 5, 8, 5, 2, 3, 5, 2, 2, 1, 10, 7, 9, 4, 0]);

suc = [
   {2, 3, 4},
   {12, 5, 6},
   {8, 38, 14},
   {16, 11, 28},
   {75, 22, 79},
   {9, 18, 7},
   {10, 35, 15},
   {34, 51},
   {16, 36},
   {21, 13, 46},
   {25, 20, 78},
   {75, 36},
   {20},
   {17, 21},
   {19, 69, 47},
   {65, 50, 19},
   {54, 20, 52},
   {82, 37, 30},
   {87},
   {64, 41, 70},
   {26, 43, 53},
   {24, 32, 23},
   {35, 27, 55},
   {66, 45, 55},
   {27, 29, 31},
   {33, 44},
   {77, 45, 47},
   {56, 37, 62},
   {34},
   {56, 50, 62},
   {45, 86},
   {61, 54, 39},
   {69},
   {60, 37, 46},
   {64, 43, 36},
   {40, 42, 48},
   {80, 75},
   {44, 53, 63},
   {49, 55},
   {49, 50},
   {57, 67},
   {87, 62, 71},
   {49, 61, 47},
   {58, 67, 60},
   {57, 67, 63},
   {56, 81, 54},
   {51},
   {51, 60, 76},
   {71},
   {69, 53},
   {57, 63},
   {58, 84, 61},
   {72},
   {64},
   {74, 59, 77},
   {91, 83, 59},
   {72, 65, 59},
   {73, 68, 79},
   {87},
   {70},
   {66, 78, 71},
   {66, 68},
   {65, 83, 70},
   {89, 77},
   {85},
   {73},
   {80, 68, 76},
   {85},
   {72, 73, 78},
   {82},
   {81, 74, 86},
   {80, 74, 83},
   {76},
   {88},
   {88},
   {85},
   {84},
   {86},
   {82, 90},
   {81},
   {90},
   {91},
   {84},
   {90},
   {89},
   {88},
   {89},
   {91},
   {92},
   {92},
   {92},
   {  } ];

deadline = array2d(1..92, 1..3, [1, 2, 0, 4, 4, 5, 5, 0, 0, 13, 4, 0, 13, 0, 2, 16, 3, 1, 17, 3, 4, 17, 1, 3, 18, 3, 4, 19, 1, 4, 26, 1, 2, 27, 5, 0, 29, 0, 2, 34, 2, 0, 35, 0, 2, 42, 1, 5, 44, 4, 4, 45, 1, 1, 46, 1, 4, 46, 3, 2, 48, 3, 4, 56, 3, 0, 58, 2, 1, 58, 4, 1, 58, 1, 1, 58, 1, 2, 60, 4, 3, 60, 5, 1, 66, 0, 4, 68, 0, 5, 70, 1, 2, 71, 4, 3, 72, 3, 4, 75, 3, 0, 78, 5, 5, 79, 3, 2, 79, 3, 5, 84, 2, 3, 91, 4, 4, 91, 5, 0, 100, 1, 5, 101, 3, 5, 114, 0, 2, 115, 4, 5, 116, 5, 3, 118, 4, 4, 121, 1, 1, 121, 5, 1, 122, 1, 1, 126, 5, 2, 133, 2, 4, 133, 4, 2, 136, 4, 1, 143, 0, 0, 143, 3, 5, 144, 2, 1, 145, 4, 2, 146, 4, 5, 146, 2, 4, 147, 0, 1, 149, 1, 4, 151, 2, 3, 153, 3, 0, 154, 2, 4, 161, 4, 2, 161, 1, 2, 162, 4, 4, 166, 5, 1, 167, 0, 3, 168, 0, 1, 178, 1, 2, 188, 3, 5, 189, 0, 4, 191, 1, 5, 192, 1, 0, 194, 1, 2, 194, 2, 1, 196, 5, 0, 203, 1, 5, 204, 3, 2, 206, 1, 1, 207, 2, 5, 208, 0, 4, 210, 0, 5, 210, 2, 3, 212, 4, 3, 212, 4, 2, 214, 5, 3, 216, 5, 1, 219, 5, 2, 220, 2, 4, 222, 0, 0]);
