n_res = 4;
rc = [ 33, 28, 34, 35 ];
n_tasks = 92;
d = [0, 4, 10, 4, 6, 5, 6, 7, 4, 3, 4, 5, 9, 4, 10, 4, 7, 9, 1, 10, 9, 9, 3, 10, 7, 6, 3, 9, 6, 3, 3, 9, 7, 7, 2, 6, 6, 3, 5, 1, 5, 9, 3, 9, 9, 6, 7, 7, 2, 3, 6, 2, 10, 5, 2, 5, 4, 5, 7, 2, 5, 3, 3, 2, 7, 1, 3, 7, 7, 7, 10, 4, 2, 2, 7, 4, 8, 9, 4, 1, 3, 9, 1, 7, 2, 2, 4, 10, 7, 4, 7, 0];
rr = array2d(1..4, 1..92, [0, 0, 0, 0, 5, 0, 0, 0, 0, 0, 4, 10, 0, 1, 6, 0, 7, 0, 0, 0, 5, 8, 0, 0, 2, 0, 0, 6, 0, 0, 0, 0, 0, 0, 0, 0, 1, 0, 10, 6, 0, 0, 5, 10, 0, 0, 0, 0, 0, 0, 0, 0, 0, 0, 0, 0, 0, 0, 0, 0, 0, 4, 0, 0, 0, 0, 0, 0, 0, 0, 0, 0, 0, 0, 0, 2, 5, 0, 0, 5, 0, 0, 9, 0, 0, 9, 0, 0, 0, 0, 0, 0, 0, 8, 0, 0, 0, 0, 0, 0, 0, 0, 0, 0, 2, 0, 0, 0, 0, 0, 5, 2, 0, 0, 0, 0, 0, 0, 0, 0, 0, 0, 1, 0, 1, 0, 6, 0, 0, 4, 0, 0, 0, 5, 0, 0, 0, 0, 0, 0, 0, 0, 2, 7, 0, 0, 6, 0, 0, 0, 0, 0, 0, 0, 0, 0, 0, 0, 9, 0, 0, 9, 5, 4, 0, 0, 3, 0, 0, 0, 0, 0, 0, 0, 0, 4, 0, 0, 9, 0, 0, 0, 9, 0, 0, 0, 1, 0, 0, 2, 7, 5, 8, 5, 0, 0, 0, 0, 0, 0, 0, 0, 0, 0, 0, 0, 10, 0, 0, 0, 6, 0, 0, 0, 0, 6, 0, 0, 0, 0, 0, 0, 0, 0, 8, 0, 0, 0, 7, 0, 7, 8, 2, 0, 0, 0, 10, 1, 0, 0, 1, 0, 3, 0, 8, 0, 5, 9, 0, 2, 0, 0, 0, 0, 0, 0, 4, 4, 0, 0, 0, 3, 0, 0, 8, 6, 0, 0, 0, 0, 0, 9, 0, 0, 0, 0, 0, 0, 0, 3, 0, 0, 0, 0, 0, 0, 0, 0, 0, 0, 0, 4, 0, 6, 0, 0, 0, 0, 0, 9, 0, 6, 0, 0, 1, 5, 0, 0, 0, 2, 0, 9, 0, 0, 0, 0, 0, 0, 0, 0, 0, 7, 0, 0, 0, 3, 0, 0, 0, 0, 0, 10, 0, 7, 0, 5, 0, 0, 0, 0, 8, 0, 0, 7, 9, 0, 0, 0, 0, 0, 0, 0, 0, 0, 10, 0, 0, 0, 0, 0, 1, 0, 0, 0, 6, 5, 0, 0]);

suc = [
   {2, 3, 4},
   {8, 9, 14},
   {24, 15},
   {11, 12, 5},
   {10, 6, 7},
   {17, 26, 22},
   {8, 68},
   {32, 13, 39},
   {16, 57},
   {72, 19, 20},
   {45},
   {28, 29},
   {69},
   {26},
   {25, 58},
   {23},
   {18, 43, 47},
   {34},
   {21, 38},
   {80, 33},
   {54, 56, 30},
   {56, 41, 46},
   {37},
   {49, 27, 31},
   {78, 70},
   {70},
   {73, 34},
   {36},
   {66},
   {35},
   {40, 55},
   {52},
   {66},
   {60},
   {50},
   {44},
   {48, 56, 77},
   {67, 69},
   {53, 71},
   {42, 91, 76},
   {61},
   {63},
   {51, 63},
   {53},
   {52},
   {72},
   {64, 62},
   {88},
   {52},
   {80},
   {65},
   {59},
   {76},
   {81, 74},
   {77, 69},
   {74},
   {65, 82},
   {59},
   {67},
   {84},
   {67},
   {77},
   {68},
   {86, 79},
   {66},
   {88, 83},
   {71},
   {87},
   {89, 83},
   {86},
   {84},
   {81},
   {74, 84},
   {75},
   {85},
   {79},
   {80},
   {89},
   {89},
   {82},
   {90},
   {90},
   {87},
   {88},
   {91},
   {87},
   {90},
   {91},
   {92},
   {92},
   {92},
   {  } ];

deadline = array2d(1..92, 1..3, [1, 1, 5, 2, 1, 1, 3, 3, 4, 3, 0, 4, 4, 5, 1, 4, 5, 4, 5, 1, 4, 7, 2, 0, 7, 4, 3, 9, 4, 5, 9, 0, 4, 9, 4, 4, 9, 4, 5, 11, 4, 3, 15, 5, 5, 22, 0, 0, 22, 3, 5, 25, 1, 5, 28, 4, 2, 34, 5, 1, 34, 5, 4, 35, 5, 4, 35, 3, 3, 35, 5, 0, 37, 1, 4, 37, 2, 0, 38, 0, 4, 39, 2, 2, 43, 3, 1, 43, 3, 2, 44, 0, 5, 46, 4, 2, 47, 1, 5, 54, 4, 2, 55, 3, 3, 55, 3, 5, 55, 2, 1, 56, 3, 0, 67, 4, 0, 69, 2, 3, 72, 2, 2, 72, 5, 1, 80, 4, 0, 82, 1, 0, 85, 0, 1, 89, 5, 1, 89, 2, 3, 95, 5, 5, 96, 3, 4, 103, 5, 5, 106, 4, 1, 106, 1, 2, 109, 2, 4, 109, 0, 2, 114, 3, 4, 115, 1, 1, 116, 2, 4, 118, 2, 5, 122, 3, 5, 123, 0, 1, 129, 4, 0, 129, 5, 0, 132, 5, 1, 139, 0, 1, 140, 3, 4, 140, 4, 0, 144, 4, 2, 145, 1, 3, 146, 5, 5, 152, 0, 3, 152, 0, 1, 154, 3, 1, 154, 2, 0, 162, 5, 5, 163, 5, 4, 166, 2, 4, 166, 1, 3, 169, 3, 4, 174, 2, 4, 174, 1, 0, 177, 4, 1, 177, 3, 4, 179, 2, 1, 183, 1, 2, 184, 3, 4, 189, 0, 0, 189, 2, 2, 190, 0, 0, 190, 4, 5, 193, 4, 0, 194, 2, 2, 194, 2, 1]);
