n_res = 4;
rc = [ 28, 37, 23, 40 ];
n_tasks = 92;
d = [0, 6, 2, 5, 5, 10, 8, 3, 10, 2, 10, 2, 9, 9, 7, 2, 4, 10, 7, 5, 5, 2, 10, 9, 7, 1, 3, 7, 8, 1, 8, 6, 3, 6, 7, 4, 2, 5, 3, 8, 9, 8, 1, 7, 6, 6, 9, 2, 1, 1, 8, 6, 9, 9, 1, 5, 6, 8, 4, 1, 7, 9, 7, 6, 1, 1, 4, 7, 4, 10, 8, 5, 4, 2, 9, 7, 4, 5, 4, 3, 9, 7, 6, 3, 8, 6, 9, 7, 5, 2, 8, 0];
rr = array2d(1..4, 1..92, [0, 3, 9, 0, 0, 8, 0, 5, 0, 5, 9, 5, 0, 1, 0, 0, 0, 0, 6, 0, 9, 10, 0, 9, 10, 6, 6, 4, 0, 8, 0, 0, 10, 9, 10, 0, 0, 3, 2, 9, 0, 9, 3, 0, 0, 0, 2, 4, 6, 4, 5, 3, 0, 0, 0, 5, 0, 0, 0, 0, 0, 0, 4, 7, 0, 0, 0, 1, 0, 0, 0, 6, 7, 0, 7, 0, 0, 0, 0, 3, 0, 0, 0, 0, 5, 1, 0, 8, 1, 3, 0, 0, 0, 0, 7, 0, 0, 4, 1, 8, 1, 0, 7, 0, 0, 7, 2, 5, 0, 0, 0, 9, 0, 2, 9, 6, 4, 0, 10, 3, 0, 6, 10, 2, 0, 3, 0, 0, 10, 0, 0, 4, 0, 8, 0, 0, 6, 0, 0, 0, 4, 10, 9, 0, 9, 10, 9, 0, 0, 0, 8, 2, 8, 3, 8, 10, 0, 1, 0, 5, 5, 4, 0, 0, 0, 0, 9, 6, 0, 0, 0, 0, 9, 10, 0, 0, 10, 0, 0, 9, 0, 10, 0, 0, 0, 8, 6, 4, 2, 0, 0, 0, 0, 0, 1, 0, 0, 0, 0, 3, 0, 0, 5, 0, 0, 10, 0, 0, 4, 0, 1, 0, 0, 9, 9, 1, 0, 3, 0, 1, 0, 7, 0, 1, 6, 0, 0, 2, 0, 2, 10, 0, 0, 9, 0, 0, 3, 0, 0, 10, 8, 0, 0, 0, 0, 6, 0, 0, 7, 0, 0, 0, 0, 0, 0, 5, 10, 4, 10, 4, 9, 0, 4, 9, 0, 5, 8, 6, 0, 6, 3, 0, 0, 7, 7, 0, 0, 10, 2, 0, 9, 0, 8, 0, 0, 8, 5, 0, 6, 2, 0, 4, 10, 8, 0, 10, 6, 0, 3, 0, 5, 0, 0, 0, 1, 5, 0, 10, 6, 7, 8, 0, 0, 0, 0, 6, 1, 6, 0, 9, 0, 9, 0, 9, 0, 8, 0, 9, 1, 10, 10, 3, 2, 5, 0, 0, 6, 0, 0, 0, 0, 0, 8, 1, 0, 9, 2, 1, 7, 0, 0, 5, 3, 3, 0, 0, 0, 0, 0, 7, 0, 0, 2, 0, 9, 0, 0, 0]);

suc = [
   {2, 3, 4},
   {5, 7},
   {32, 43},
   {12, 6, 7},
   {8, 28, 6},
   {9, 82},
   {10, 85, 78},
   {14},
   {37, 11, 13},
   {50, 38, 31},
   {16, 27, 54},
   {16, 65, 56},
   {25, 38, 15},
   {56, 23},
   {17, 21, 22},
   {48, 18, 20},
   {80, 41, 19},
   {39, 29, 23},
   {48, 36},
   {24, 73},
   {48, 76},
   {32},
   {67},
   {34, 60, 53},
   {57, 26, 44},
   {62, 29, 30},
   {33, 58},
   {41, 44, 63},
   {69, 52, 61},
   {33, 35, 61},
   {40, 82, 64},
   {33, 54, 79},
   {49, 45, 47},
   {58, 75, 46},
   {60, 54, 87},
   {40, 42, 39},
   {65, 59, 39},
   {80, 49, 42},
   {68, 63},
   {73, 71},
   {77, 47},
   {71, 47},
   {50, 46, 55},
   {49, 59, 55},
   {51, 77, 46},
   {80, 52, 70},
   {55},
   {71},
   {66, 51, 52},
   {81, 82, 51},
   {64, 74},
   {64, 74},
   {69, 61, 62},
   {70},
   {56},
   {72, 68, 84},
   {65, 58, 59},
   {72, 89, 74},
   {91, 60, 62},
   {67},
   {66, 63},
   {83, 78},
   {85},
   {91},
   {66, 67, 68},
   {84},
   {69, 70},
   {73},
   {78},
   {81, 76, 85},
   {72, 83, 75},
   {87},
   {86},
   {76},
   {81, 77, 79},
   {83},
   {86},
   {90, 79},
   {84},
   {89},
   {90},
   {88, 86},
   {88},
   {89},
   {88},
   {87},
   {91},
   {90},
   {92},
   {92},
   {92},
   {  } ];

deadline = array2d(1..92, 1..3, [12, 5, 5, 22, 3, 4, 23, 2, 3, 36, 0, 0, 38, 5, 0, 38, 5, 4, 41, 2, 5, 57, 3, 2, 59, 1, 4, 64, 1, 5, 67, 2, 4, 69, 4, 0, 70, 4, 4, 74, 1, 1, 77, 5, 2, 81, 1, 2, 96, 0, 4, 99, 4, 4, 104, 3, 4, 104, 2, 5, 110, 1, 5, 111, 0, 1, 124, 3, 1, 125, 0, 4, 125, 2, 1, 125, 3, 2, 126, 5, 3, 128, 2, 0, 135, 3, 2, 136, 2, 3, 138, 5, 2, 139, 5, 2, 139, 1, 2, 141, 2, 5, 143, 5, 3, 143, 3, 5, 145, 0, 0, 145, 3, 5, 146, 0, 3, 152, 5, 2, 155, 2, 5, 162, 2, 4, 168, 3, 1, 171, 4, 2, 172, 5, 1, 178, 3, 4, 181, 4, 2, 181, 0, 5, 184, 4, 4, 184, 4, 1, 187, 5, 1, 191, 4, 5, 194, 0, 1, 198, 1, 5, 201, 0, 0, 203, 3, 5, 204, 5, 3, 206, 2, 1, 207, 0, 4, 213, 2, 4, 216, 5, 3, 216, 3, 4, 219, 1, 2, 222, 4, 5, 226, 1, 1, 228, 2, 5, 228, 5, 0, 229, 5, 2, 229, 1, 1, 229, 0, 1, 230, 0, 5, 240, 5, 1, 240, 3, 5, 243, 0, 5, 245, 5, 0, 249, 5, 4, 252, 2, 0, 257, 3, 5, 266, 1, 0, 266, 4, 2, 267, 3, 2, 269, 0, 4, 273, 3, 3, 279, 2, 2, 281, 1, 4, 282, 3, 0, 287, 2, 5, 288, 4, 3, 288, 0, 2, 293, 0, 4, 296, 1, 2, 296, 2, 3]);
