n_res = 4;
rc = [ 23, 22, 19, 18 ];
n_tasks = 92;
d = [0, 2, 7, 10, 4, 10, 9, 6, 6, 8, 7, 9, 6, 8, 1, 7, 9, 3, 5, 5, 1, 3, 5, 1, 5, 4, 2, 1, 1, 10, 5, 4, 10, 7, 1, 1, 1, 10, 10, 2, 6, 3, 7, 7, 5, 7, 8, 3, 7, 7, 5, 1, 4, 9, 10, 5, 8, 10, 3, 10, 6, 7, 3, 10, 7, 10, 2, 1, 8, 1, 8, 5, 8, 8, 7, 4, 3, 4, 5, 9, 9, 5, 4, 4, 5, 1, 3, 7, 1, 7, 5, 0];
rr = array2d(1..4, 1..92, [0, 0, 8, 0, 1, 0, 0, 0, 0, 0, 0, 0, 7, 0, 0, 10, 10, 0, 0, 4, 10, 0, 3, 0, 0, 0, 0, 0, 1, 0, 8, 0, 0, 0, 5, 0, 0, 4, 3, 0, 6, 0, 0, 6, 0, 7, 0, 0, 5, 0, 0, 0, 0, 0, 0, 0, 0, 0, 0, 0, 2, 0, 2, 0, 0, 0, 2, 8, 0, 0, 0, 0, 8, 0, 0, 10, 0, 0, 0, 0, 0, 0, 0, 0, 6, 3, 0, 2, 2, 0, 0, 0, 0, 0, 0, 0, 0, 0, 3, 0, 5, 0, 0, 8, 0, 0, 6, 0, 0, 0, 0, 0, 0, 3, 0, 0, 3, 4, 0, 0, 0, 6, 0, 0, 3, 0, 0, 0, 0, 0, 0, 0, 0, 0, 3, 0, 9, 0, 0, 0, 0, 0, 0, 0, 0, 4, 1, 1, 0, 0, 0, 7, 0, 0, 0, 8, 0, 8, 0, 0, 0, 0, 0, 0, 0, 0, 4, 0, 0, 5, 10, 8, 6, 0, 10, 0, 0, 0, 10, 0, 0, 0, 6, 0, 0, 2, 0, 0, 0, 9, 0, 9, 0, 0, 0, 0, 0, 10, 0, 0, 0, 0, 0, 0, 0, 0, 0, 2, 0, 0, 0, 6, 0, 0, 0, 8, 0, 2, 0, 0, 4, 0, 0, 0, 0, 0, 0, 0, 0, 0, 5, 9, 0, 0, 0, 4, 7, 0, 0, 0, 0, 4, 9, 0, 0, 0, 0, 0, 0, 0, 0, 0, 5, 4, 0, 0, 0, 0, 0, 0, 6, 0, 0, 0, 0, 8, 0, 0, 0, 0, 0, 0, 0, 2, 0, 0, 0, 0, 0, 5, 0, 0, 0, 0, 0, 9, 5, 0, 0, 0, 0, 0, 0, 2, 4, 0, 0, 0, 0, 0, 0, 0, 6, 0, 0, 0, 0, 0, 0, 0, 0, 9, 0, 0, 0, 4, 0, 2, 0, 0, 0, 0, 0, 0, 0, 7, 10, 0, 0, 0, 0, 0, 7, 0, 0, 0, 0, 10, 0, 0, 5, 0, 0, 0, 0, 0, 10, 9, 0, 2, 0, 0, 0, 0, 0, 0, 0, 0, 0, 4, 0, 0, 0, 0, 0, 0, 0, 0]);

suc = [
   {2, 3, 4},
   {17, 10, 30},
   {5, 15},
   {8, 6, 7},
   {58, 11, 21},
   {16, 68},
   {20, 12, 13},
   {32, 9, 38},
   {79},
   {66, 45},
   {49, 18, 19},
   {40, 52, 63},
   {14},
   {60},
   {35, 26, 27},
   {27, 53},
   {85, 36, 61},
   {29},
   {80, 29},
   {24, 26, 31},
   {33, 28, 22},
   {87, 23},
   {56, 25, 43},
   {67, 86},
   {64, 54},
   {41, 83, 55},
   {41, 42, 51},
   {34, 76, 46},
   {61, 46},
   {62},
   {37},
   {59, 34, 35},
   {69, 53},
   {48, 44, 69},
   {52, 71},
   {75},
   {65, 39},
   {70, 47},
   {57, 54, 86},
   {53},
   {60, 46},
   {79},
   {64, 57},
   {71},
   {65},
   {78},
   {74, 61},
   {72, 82},
   {50},
   {67, 78},
   {65, 66},
   {60, 77, 84},
   {78},
   {59, 70},
   {75},
   {73, 90},
   {90},
   {76, 63},
   {63},
   {89},
   {72},
   {90},
   {73, 68},
   {76},
   {69, 79, 71},
   {67, 70},
   {72, 75},
   {82},
   {81, 73},
   {74, 77},
   {74, 83},
   {84, 87},
   {77},
   {81, 84},
   {80},
   {81, 82},
   {80},
   {86},
   {88},
   {88},
   {85},
   {83, 85},
   {91},
   {91},
   {88},
   {91, 87},
   {89},
   {89},
   {92},
   {92},
   {92},
   {  } ];

deadline = array2d(1..92, 1..3, [4, 1, 5, 5, 5, 3, 5, 4, 0, 7, 5, 0, 14, 4, 1, 14, 5, 1, 15, 5, 3, 16, 2, 4, 18, 4, 3, 19, 1, 0, 19, 1, 3, 20, 0, 1, 22, 2, 1, 25, 0, 5, 29, 2, 3, 30, 3, 0, 33, 0, 4, 37, 0, 4, 39, 0, 4, 39, 3, 0, 41, 3, 5, 42, 0, 2, 42, 2, 5, 43, 0, 3, 45, 3, 5, 46, 4, 0, 52, 0, 1, 52, 1, 3, 54, 2, 1, 59, 2, 3, 61, 3, 5, 67, 2, 2, 69, 3, 4, 70, 5, 1, 70, 1, 5, 71, 1, 5, 73, 4, 4, 73, 5, 5, 77, 0, 3, 79, 2, 3, 80, 2, 4, 82, 4, 2, 84, 4, 5, 86, 3, 1, 87, 2, 5, 91, 0, 4, 95, 3, 3, 101, 1, 1, 105, 1, 0, 105, 2, 5, 105, 3, 2, 111, 4, 5, 115, 0, 3, 119, 2, 4, 120, 4, 4, 120, 3, 3, 124, 2, 5, 124, 0, 4, 128, 0, 5, 129, 5, 3, 129, 2, 2, 131, 4, 2, 136, 1, 2, 137, 0, 1, 138, 3, 0, 140, 2, 0, 144, 0, 3, 145, 5, 3, 150, 5, 2, 152, 2, 2, 153, 0, 1, 154, 2, 1, 159, 5, 5, 159, 3, 2, 161, 3, 4, 164, 3, 4, 165, 4, 2, 168, 5, 3, 169, 4, 5, 170, 4, 0, 179, 2, 2, 179, 0, 0, 184, 0, 5, 185, 5, 1, 185, 0, 4, 197, 0, 1, 199, 3, 4, 200, 5, 2, 204, 3, 0, 204, 2, 5, 207, 5, 5, 207, 2, 5]);
