n_res = 4;
rc = [ 30, 44, 32, 39 ];
n_tasks = 92;
d = [0, 4, 1, 4, 5, 2, 2, 8, 2, 8, 4, 6, 7, 10, 3, 6, 9, 3, 6, 6, 7, 3, 1, 1, 6, 7, 9, 9, 9, 10, 7, 4, 10, 2, 2, 5, 10, 5, 2, 2, 7, 10, 2, 10, 4, 5, 4, 9, 5, 9, 10, 10, 10, 8, 1, 4, 9, 10, 6, 10, 8, 7, 5, 8, 5, 10, 9, 7, 8, 2, 6, 2, 5, 9, 5, 8, 6, 3, 1, 7, 6, 2, 7, 5, 6, 1, 10, 5, 2, 10, 2, 0];
rr = array2d(1..4, 1..92, [0, 0, 0, 0, 3, 3, 3, 1, 2, 10, 8, 0, 6, 1, 8, 0, 2, 0, 0, 0, 0, 0, 0, 0, 0, 0, 10, 0, 5, 0, 0, 9, 7, 5, 0, 0, 0, 5, 10, 7, 6, 0, 0, 3, 0, 0, 2, 1, 0, 0, 1, 7, 8, 0, 0, 3, 0, 0, 7, 0, 4, 0, 6, 10, 0, 10, 0, 0, 0, 0, 9, 0, 0, 6, 1, 0, 1, 1, 0, 2, 9, 0, 0, 0, 0, 0, 0, 0, 1, 4, 4, 0, 0, 6, 9, 5, 6, 0, 0, 0, 7, 9, 0, 0, 1, 0, 0, 0, 0, 4, 0, 3, 5, 0, 1, 3, 0, 6, 0, 8, 0, 2, 2, 9, 0, 0, 0, 10, 9, 6, 9, 1, 9, 0, 0, 0, 0, 1, 0, 6, 10, 10, 2, 9, 0, 0, 2, 0, 10, 3, 0, 7, 0, 9, 3, 5, 3, 0, 0, 5, 4, 10, 2, 10, 5, 0, 3, 5, 0, 0, 0, 0, 0, 0, 4, 0, 0, 0, 0, 3, 3, 2, 0, 0, 0, 7, 0, 0, 0, 6, 6, 0, 0, 4, 0, 7, 0, 0, 3, 0, 0, 4, 7, 0, 9, 10, 0, 1, 3, 0, 0, 0, 2, 0, 6, 5, 0, 0, 10, 4, 4, 0, 0, 1, 10, 9, 4, 0, 0, 9, 0, 0, 0, 4, 9, 0, 0, 0, 0, 0, 3, 0, 0, 0, 0, 5, 7, 0, 7, 0, 0, 0, 0, 0, 0, 3, 7, 0, 3, 0, 0, 0, 4, 0, 0, 5, 0, 6, 0, 5, 9, 5, 0, 0, 0, 0, 0, 10, 10, 5, 5, 0, 5, 0, 0, 0, 0, 9, 7, 4, 10, 10, 10, 7, 10, 0, 0, 8, 9, 5, 7, 0, 3, 1, 8, 0, 9, 5, 5, 3, 0, 0, 7, 3, 6, 0, 7, 0, 0, 0, 9, 0, 0, 0, 0, 0, 9, 8, 7, 3, 3, 2, 0, 3, 10, 1, 1, 0, 0, 0, 6, 0, 9, 7, 0, 8, 0, 0, 0, 0, 4, 9, 8, 0, 0, 0, 0, 2, 0, 0, 9, 9, 0, 4, 0, 5, 5, 0]);

suc = [
   {2, 3, 4},
   {17, 12, 13},
   {12, 14},
   {17, 13, 5},
   {10, 6, 23},
   {8, 9, 7},
   {65, 18, 20},
   {89, 41},
   {40, 74, 19},
   {24, 74, 11},
   {88, 42, 61},
   {43, 23, 15},
   {32, 49},
   {29, 46, 31},
   {16, 22, 30},
   {27, 28},
   {25, 28, 70},
   {28, 21, 39},
   {32, 34, 36},
   {42, 38},
   {33, 22},
   {72, 59, 44},
   {81, 57, 26},
   {76, 30, 39},
   {64, 26, 46},
   {54},
   {49, 45},
   {32, 41, 37},
   {58, 35, 68},
   {37, 78},
   {42, 35},
   {56, 33, 57},
   {52, 38},
   {65, 76},
   {59, 53, 62},
   {51, 37, 47},
   {58, 66, 53},
   {48, 79, 63},
   {48, 72, 87},
   {57, 52, 45},
   {71},
   {90, 44, 70},
   {50, 60, 45},
   {51},
   {84, 55},
   {51, 69},
   {49, 60, 62},
   {58, 68, 86},
   {56, 71, 63},
   {75, 68, 55},
   {56},
   {76, 61, 84},
   {83, 61, 63},
   {72, 60},
   {65, 69},
   {77},
   {88, 67},
   {64, 81},
   {66, 67, 74},
   {73, 82, 67},
   {64},
   {66, 75},
   {80, 84},
   {85},
   {83},
   {91, 69},
   {77},
   {78},
   {80, 73, 71},
   {73},
   {83},
   {86},
   {77},
   {75},
   {80, 87},
   {82, 78, 79},
   {79},
   {91},
   {85, 87},
   {81},
   {82},
   {90},
   {86},
   {91, 85},
   {89},
   {88},
   {89},
   {90},
   {92},
   {92},
   {92},
   {  } ];

deadline = array2d(1..92, 1..3, [2, 2, 3, 6, 1, 5, 6, 5, 3, 8, 5, 4, 12, 5, 2, 15, 0, 5, 15, 0, 5, 18, 5, 0, 19, 3, 5, 20, 5, 1, 22, 2, 0, 24, 2, 3, 25, 2, 1, 26, 3, 1, 28, 4, 3, 30, 0, 0, 31, 2, 3, 32, 2, 4, 36, 5, 5, 38, 1, 1, 42, 2, 0, 45, 5, 2, 47, 1, 2, 51, 4, 0, 51, 2, 4, 57, 2, 1, 58, 5, 1, 61, 5, 4, 63, 3, 0, 64, 1, 3, 65, 4, 2, 66, 5, 4, 68, 2, 0, 70, 5, 5, 70, 5, 0, 82, 2, 3, 82, 2, 4, 88, 1, 0, 89, 5, 5, 92, 4, 4, 96, 2, 0, 96, 3, 0, 98, 4, 0, 100, 5, 5, 101, 4, 5, 103, 3, 5, 103, 1, 5, 104, 0, 1, 110, 1, 2, 112, 1, 3, 113, 2, 4, 114, 0, 1, 118, 4, 4, 123, 0, 0, 125, 4, 5, 126, 2, 2, 127, 4, 3, 129, 4, 5, 135, 1, 2, 136, 4, 3, 141, 2, 2, 142, 1, 5, 155, 1, 4, 155, 0, 5, 159, 4, 4, 159, 2, 3, 159, 4, 3, 163, 3, 3, 165, 3, 3, 166, 2, 3, 167, 0, 5, 170, 5, 2, 172, 3, 3, 174, 3, 2, 174, 1, 0, 175, 3, 1, 186, 4, 2, 187, 2, 4, 189, 2, 3, 192, 1, 3, 192, 2, 2, 192, 3, 5, 194, 2, 3, 196, 1, 3, 196, 4, 4, 198, 0, 5, 198, 2, 4, 198, 3, 4, 200, 4, 2, 204, 3, 5, 207, 2, 2, 209, 2, 3]);
