n_res = 4;
rc = [ 22, 30, 26, 21 ];
n_tasks = 92;
d = [0, 4, 1, 5, 7, 3, 5, 1, 1, 8, 6, 4, 3, 1, 2, 5, 9, 10, 8, 7, 10, 8, 3, 3, 9, 7, 6, 2, 2, 3, 10, 3, 4, 9, 4, 7, 3, 9, 5, 4, 7, 1, 4, 6, 5, 6, 6, 7, 3, 3, 1, 6, 6, 5, 8, 8, 5, 1, 6, 4, 5, 9, 10, 5, 2, 4, 9, 2, 10, 3, 6, 6, 10, 9, 2, 9, 7, 10, 1, 4, 10, 3, 3, 4, 4, 3, 5, 2, 6, 4, 9, 0];
rr = array2d(1..4, 1..92, [0, 6, 0, 0, 0, 0, 0, 0, 0, 1, 0, 0, 0, 9, 0, 0, 5, 0, 0, 6, 0, 0, 0, 4, 2, 0, 0, 0, 0, 0, 1, 0, 0, 0, 10, 0, 0, 0, 9, 0, 0, 0, 0, 6, 0, 0, 6, 0, 0, 8, 3, 0, 0, 0, 3, 0, 0, 0, 0, 0, 0, 6, 0, 7, 0, 5, 0, 0, 0, 0, 0, 0, 2, 1, 0, 0, 0, 0, 0, 7, 0, 0, 0, 0, 0, 0, 0, 0, 0, 0, 0, 0, 0, 0, 0, 0, 0, 6, 5, 0, 0, 0, 0, 0, 0, 0, 0, 0, 0, 1, 10, 0, 2, 10, 0, 0, 0, 2, 0, 5, 1, 0, 0, 0, 0, 0, 0, 9, 0, 0, 0, 10, 0, 0, 0, 0, 0, 6, 0, 0, 8, 0, 0, 0, 0, 4, 0, 0, 0, 0, 0, 0, 0, 0, 5, 0, 5, 0, 6, 9, 3, 0, 6, 0, 0, 0, 0, 0, 8, 0, 0, 0, 0, 0, 8, 8, 0, 0, 0, 0, 0, 2, 8, 0, 0, 0, 0, 9, 6, 0, 0, 2, 0, 0, 0, 0, 0, 0, 6, 3, 0, 0, 0, 0, 0, 0, 0, 0, 0, 0, 0, 0, 0, 1, 0, 9, 0, 0, 0, 0, 0, 4, 0, 0, 2, 0, 0, 0, 8, 0, 0, 0, 0, 0, 0, 0, 0, 0, 0, 6, 0, 0, 6, 0, 0, 0, 0, 0, 0, 0, 0, 0, 0, 6, 0, 0, 0, 0, 6, 1, 0, 7, 1, 0, 8, 0, 0, 0, 0, 1, 6, 3, 6, 0, 0, 0, 0, 0, 5, 0, 0, 0, 0, 0, 10, 0, 3, 3, 8, 0, 0, 0, 0, 0, 0, 0, 0, 0, 1, 0, 0, 0, 3, 0, 0, 0, 0, 0, 2, 10, 0, 0, 1, 0, 0, 0, 0, 2, 2, 0, 0, 0, 0, 6, 0, 0, 0, 10, 10, 0, 0, 0, 2, 3, 0, 6, 1, 0, 0, 0, 0, 0, 0, 0, 0, 0, 0, 2, 0, 0, 0, 0, 0, 0, 0, 0, 0, 10, 0, 0, 7, 0, 0, 0, 0, 0, 0, 0]);

suc = [
   {2, 3, 4},
   {19, 12, 6},
   {30, 22, 7},
   {9, 13, 5},
   {72},
   {16, 17, 15},
   {8},
   {26, 34, 37},
   {18, 10, 11},
   {45},
   {43},
   {91},
   {20, 77, 14},
   {80, 63},
   {24, 33},
   {66},
   {36, 23},
   {32, 25},
   {42, 79},
   {21, 22},
   {52},
   {52},
   {50},
   {82},
   {48, 43, 39},
   {35, 27, 28},
   {46},
   {51, 29, 31},
   {65, 60},
   {70},
   {44},
   {86},
   {65, 38, 47},
   {79},
   {75, 60, 84},
   {73},
   {57},
   {44},
   {40, 41, 52},
   {73, 53, 54},
   {75},
   {61, 46},
   {55},
   {62},
   {58},
   {63},
   {88, 50},
   {49, 78},
   {83},
   {72, 55},
   {56, 89},
   {55},
   {64},
   {65, 63},
   {67, 71},
   {75},
   {59},
   {89},
   {76, 69},
   {68},
   {66},
   {87},
   {74, 70},
   {86},
   {87},
   {71},
   {70},
   {82},
   {84},
   {83},
   {90},
   {79},
   {74},
   {83, 78},
   {91},
   {84},
   {88},
   {81},
   {85},
   {82},
   {89},
   {88},
   {85},
   {86},
   {87},
   {90},
   {91},
   {90},
   {92},
   {92},
   {92},
   {  } ];

deadline = array2d(1..92, 1..3, [3, 4, 4, 3, 3, 1, 13, 4, 3, 14, 4, 5, 14, 4, 2, 18, 3, 3, 19, 5, 1, 20, 2, 1, 21, 5, 1, 23, 0, 3, 24, 5, 2, 24, 2, 5, 26, 5, 3, 26, 3, 3, 27, 4, 4, 28, 5, 1, 33, 5, 2, 34, 2, 2, 36, 4, 1, 43, 0, 1, 43, 2, 2, 44, 1, 4, 47, 3, 2, 55, 1, 4, 57, 2, 0, 59, 4, 1, 59, 1, 1, 63, 3, 1, 66, 0, 4, 67, 1, 5, 67, 3, 1, 77, 4, 3, 78, 4, 4, 80, 2, 4, 80, 2, 2, 82, 0, 5, 82, 5, 1, 84, 1, 1, 84, 0, 5, 86, 4, 1, 87, 4, 4, 87, 3, 2, 89, 3, 3, 91, 5, 2, 93, 5, 3, 99, 2, 0, 104, 2, 0, 109, 4, 1, 114, 2, 3, 117, 5, 1, 121, 4, 4, 121, 1, 2, 123, 4, 3, 124, 0, 0, 127, 2, 5, 127, 4, 1, 130, 5, 1, 130, 0, 0, 132, 0, 5, 139, 4, 0, 141, 4, 4, 142, 1, 3, 145, 1, 4, 150, 2, 2, 151, 5, 0, 156, 1, 0, 156, 5, 2, 157, 2, 2, 159, 1, 1, 162, 2, 3, 164, 5, 4, 165, 4, 0, 171, 4, 2, 175, 4, 1, 176, 1, 2, 180, 0, 0, 181, 4, 1, 184, 1, 0, 186, 1, 1, 191, 1, 5, 195, 3, 0, 196, 5, 5, 198, 5, 5, 198, 3, 5, 199, 3, 0, 201, 0, 5, 205, 0, 2, 205, 0, 4, 206, 1, 1, 206, 1, 3, 206, 0, 2, 206, 3, 1]);
