n_res = 4;
rc = [ 70, 76, 70, 70 ];
n_tasks = 92;
d = [0, 5, 3, 7, 6, 8, 3, 2, 3, 9, 3, 6, 7, 7, 6, 10, 10, 9, 7, 1, 2, 9, 3, 3, 3, 2, 10, 1, 7, 5, 7, 9, 5, 9, 8, 10, 6, 3, 8, 1, 9, 5, 3, 8, 8, 7, 5, 2, 2, 4, 1, 10, 1, 1, 1, 10, 5, 3, 1, 9, 9, 5, 5, 8, 5, 3, 9, 1, 8, 6, 5, 10, 2, 8, 1, 1, 4, 1, 4, 10, 10, 8, 5, 8, 8, 4, 3, 10, 6, 9, 5, 0];
rr = array2d(1..4, 1..92, [0, 8, 1, 8, 10, 1, 5, 7, 1, 2, 5, 10, 3, 2, 9, 6, 3, 8, 2, 7, 5, 3, 9, 7, 4, 2, 10, 5, 3, 3, 6, 6, 3, 10, 5, 8, 10, 10, 1, 8, 2, 9, 3, 8, 2, 5, 8, 6, 1, 8, 7, 8, 9, 7, 10, 8, 7, 10, 7, 7, 2, 6, 3, 3, 8, 4, 2, 10, 2, 3, 9, 10, 2, 10, 1, 4, 10, 1, 7, 8, 10, 8, 8, 2, 8, 10, 8, 5, 1, 3, 2, 0, 0, 7, 9, 3, 1, 4, 8, 1, 6, 3, 8, 8, 5, 5, 3, 8, 8, 6, 10, 9, 7, 10, 10, 10, 2, 9, 2, 3, 10, 8, 3, 8, 6, 10, 4, 10, 4, 7, 10, 8, 9, 4, 9, 9, 10, 10, 1, 4, 10, 1, 10, 4, 9, 9, 2, 6, 9, 6, 5, 9, 6, 8, 1, 9, 8, 1, 2, 4, 4, 6, 2, 10, 4, 1, 1, 9, 1, 8, 7, 5, 5, 10, 6, 7, 7, 5, 6, 3, 2, 1, 7, 0, 0, 2, 1, 3, 7, 5, 5, 9, 10, 1, 3, 2, 7, 10, 4, 2, 7, 1, 9, 1, 6, 10, 5, 6, 2, 1, 9, 6, 6, 2, 7, 8, 2, 5, 2, 5, 2, 2, 6, 8, 6, 9, 4, 4, 6, 9, 5, 2, 3, 3, 4, 8, 6, 1, 5, 8, 9, 4, 3, 10, 5, 5, 10, 1, 4, 5, 3, 2, 3, 8, 5, 4, 8, 4, 9, 8, 10, 4, 1, 6, 5, 4, 5, 7, 10, 2, 5, 9, 4, 10, 7, 0, 0, 9, 5, 9, 7, 6, 1, 9, 8, 9, 6, 5, 1, 7, 8, 10, 8, 2, 6, 4, 1, 5, 8, 9, 4, 9, 10, 6, 9, 6, 8, 7, 10, 3, 9, 7, 10, 5, 5, 8, 3, 7, 5, 1, 6, 3, 10, 8, 1, 8, 5, 4, 6, 10, 8, 10, 6, 3, 1, 6, 7, 2, 8, 8, 1, 9, 3, 8, 1, 9, 2, 2, 5, 1, 4, 9, 6, 9, 9, 5, 9, 4, 3, 9, 9, 10, 5, 10, 8, 7, 6, 0]);

suc = [
   {2, 3, 4},
   {5},
   {72, 45, 6},
   {8, 18, 38},
   {10, 13, 7},
   {82, 21},
   {9, 52, 30},
   {11, 12, 20},
   {16, 19, 71},
   {17, 91, 14},
   {59, 15},
   {24, 36, 44},
   {27},
   {86},
   {51},
   {26, 83},
   {58},
   {57, 31, 23},
   {47},
   {22},
   {41, 84},
   {59, 69, 29},
   {89, 73, 50},
   {25, 74},
   {43, 79},
   {34},
   {32, 33, 28},
   {42, 70},
   {39},
   {88, 58, 66},
   {80, 35, 60},
   {49},
   {59},
   {48, 63},
   {37, 46, 55},
   {56},
   {44},
   {53},
   {40, 78},
   {65},
   {88},
   {56},
   {46},
   {65},
   {52},
   {77},
   {77},
   {91},
   {64},
   {65},
   {72},
   {54},
   {61},
   {62},
   {67, 68},
   {64},
   {75, 61},
   {70},
   {90},
   {73},
   {80},
   {63},
   {68},
   {81, 87},
   {66},
   {75, 68},
   {72},
   {77},
   {76},
   {80},
   {78},
   {89},
   {81},
   {85},
   {85},
   {81, 79},
   {84},
   {82},
   {82},
   {83},
   {84},
   {88, 89},
   {85},
   {86},
   {87},
   {90},
   {90},
   {91},
   {92},
   {92},
   {92},
   {  } ];

deadline = array2d(1..92, 1..3, [1, 4, 5, 2, 2, 5, 2, 2, 3, 2, 5, 4, 2, 1, 1, 2, 4, 4, 4, 5, 3, 6, 3, 4, 7, 0, 2, 8, 1, 3, 9, 2, 1, 10, 4, 1, 12, 5, 0, 13, 5, 0, 13, 4, 2, 15, 3, 0, 15, 0, 0, 19, 4, 2, 22, 1, 3, 24, 4, 5, 33, 2, 4, 34, 5, 1, 35, 1, 4, 42, 1, 1, 43, 4, 3, 44, 0, 5, 46, 4, 0, 53, 4, 0, 57, 3, 5, 60, 0, 1, 61, 0, 5, 63, 4, 2, 67, 5, 1, 71, 3, 1, 74, 5, 2, 75, 2, 3, 77, 1, 4, 81, 2, 3, 85, 3, 1, 87, 3, 3, 103, 5, 3, 103, 2, 0, 104, 3, 4, 107, 4, 4, 115, 4, 1, 116, 4, 5, 116, 2, 3, 118, 0, 0, 119, 4, 4, 120, 2, 4, 120, 1, 0, 123, 2, 5, 124, 0, 0, 124, 0, 1, 124, 1, 3, 127, 4, 2, 127, 2, 3, 127, 2, 0, 132, 0, 2, 132, 0, 5, 139, 5, 5, 142, 1, 1, 146, 0, 0, 147, 0, 2, 148, 0, 2, 148, 3, 2, 150, 3, 2, 150, 0, 0, 151, 4, 3, 153, 3, 4, 154, 1, 1, 159, 0, 0, 161, 4, 5, 162, 2, 2, 163, 2, 3, 163, 3, 5, 166, 1, 3, 167, 2, 5, 167, 5, 2, 167, 3, 0, 170, 4, 3, 173, 2, 0, 178, 5, 5, 178, 1, 0, 179, 0, 4, 181, 0, 0, 181, 3, 1, 184, 0, 2, 188, 3, 0, 194, 0, 2, 203, 2, 3, 205, 5, 3]);
