n_res = 4;
rc = [ 28, 23, 28, 29 ];
n_tasks = 92;
d = [0, 8, 6, 4, 1, 10, 4, 2, 4, 1, 5, 7, 9, 2, 6, 2, 5, 9, 9, 4, 3, 7, 10, 3, 3, 3, 10, 3, 1, 10, 4, 4, 10, 7, 3, 10, 5, 9, 2, 9, 3, 8, 3, 5, 1, 6, 5, 3, 10, 7, 4, 7, 8, 9, 10, 10, 8, 1, 3, 2, 1, 10, 1, 5, 2, 7, 1, 1, 9, 8, 3, 10, 6, 7, 3, 10, 2, 2, 2, 3, 9, 9, 4, 4, 4, 4, 4, 7, 6, 8, 1, 0];
rr = array2d(1..4, 1..92, [0, 0, 2, 0, 4, 4, 0, 8, 0, 0, 0, 9, 0, 2, 0, 0, 0, 0, 0, 0, 6, 2, 0, 3, 0, 2, 0, 0, 0, 0, 8, 2, 0, 0, 0, 0, 0, 0, 0, 4, 0, 6, 0, 0, 0, 0, 10, 0, 0, 9, 0, 0, 1, 5, 3, 0, 0, 0, 0, 0, 0, 0, 7, 0, 0, 2, 0, 1, 0, 0, 0, 0, 0, 0, 8, 0, 0, 2, 0, 9, 0, 0, 5, 8, 0, 0, 0, 4, 0, 0, 0, 0, 0, 0, 0, 0, 0, 0, 0, 0, 10, 3, 0, 0, 0, 0, 7, 0, 1, 0, 1, 0, 0, 0, 0, 0, 0, 0, 0, 0, 0, 10, 0, 0, 0, 6, 0, 9, 0, 3, 0, 0, 0, 0, 0, 0, 0, 0, 0, 1, 9, 0, 0, 0, 0, 0, 0, 0, 0, 0, 8, 0, 0, 0, 0, 0, 0, 0, 0, 0, 2, 0, 0, 0, 0, 0, 0, 0, 0, 0, 5, 0, 0, 0, 0, 0, 0, 0, 4, 0, 0, 10, 0, 0, 0, 10, 0, 0, 0, 0, 0, 0, 0, 0, 0, 0, 0, 0, 0, 9, 0, 0, 0, 0, 0, 0, 5, 0, 8, 0, 2, 2, 1, 0, 0, 0, 0, 0, 0, 0, 8, 0, 5, 0, 0, 0, 5, 0, 0, 0, 0, 0, 0, 0, 0, 1, 0, 0, 0, 2, 6, 4, 0, 0, 0, 0, 0, 0, 8, 0, 0, 0, 0, 9, 0, 0, 6, 10, 0, 10, 0, 0, 0, 0, 1, 0, 0, 0, 2, 0, 0, 0, 9, 0, 6, 0, 0, 0, 0, 9, 0, 0, 3, 0, 0, 0, 3, 0, 6, 0, 0, 0, 0, 3, 0, 2, 0, 0, 0, 0, 0, 0, 0, 0, 0, 0, 0, 0, 3, 0, 6, 0, 0, 0, 0, 0, 5, 0, 0, 4, 3, 8, 0, 0, 0, 0, 7, 0, 0, 0, 0, 0, 0, 0, 0, 10, 6, 9, 0, 7, 0, 0, 10, 0, 0, 0, 9, 5, 0, 0, 0, 0, 5, 0, 0, 0, 0, 6, 0, 0, 0, 3, 0, 0, 0, 0, 0, 0]);

suc = [
   {2, 3, 4},
   {43, 11, 22},
   {9, 5, 38},
   {15, 62, 7},
   {10, 26, 6},
   {8, 19, 20},
   {72, 18, 55},
   {24},
   {27, 13},
   {16, 12, 14},
   {80, 17},
   {42},
   {21},
   {72, 30},
   {34, 35, 63},
   {28, 36, 23},
   {73, 25, 83},
   {57},
   {31},
   {48},
   {32, 50, 82},
   {52, 37},
   {41},
   {29, 70},
   {40, 36, 71},
   {32, 70},
   {60, 85, 87},
   {33, 44, 45},
   {41},
   {59},
   {39},
   {74},
   {51},
   {67, 53},
   {81, 54},
   {53},
   {61, 79},
   {88},
   {46},
   {75},
   {49},
   {48, 49},
   {66},
   {47},
   {52, 53, 46},
   {56},
   {56},
   {64, 58},
   {83},
   {83},
   {69},
   {74, 60},
   {65},
   {65},
   {79},
   {76},
   {59},
   {84},
   {74},
   {89, 70},
   {68},
   {78},
   {78},
   {85},
   {75, 86},
   {77},
   {79},
   {76},
   {87},
   {77},
   {81},
   {75},
   {84},
   {91},
   {76, 84},
   {91},
   {86},
   {85},
   {82},
   {81},
   {90},
   {87},
   {91},
   {88},
   {86},
   {90},
   {89},
   {89},
   {92},
   {92},
   {92},
   {  } ];

deadline = array2d(1..92, 1..3, [1, 5, 0, 3, 5, 1, 3, 4, 1, 4, 4, 4, 8, 4, 0, 8, 2, 3, 8, 4, 0, 11, 1, 2, 15, 1, 1, 17, 0, 0, 17, 5, 2, 19, 0, 0, 20, 5, 1, 21, 3, 0, 25, 3, 1, 28, 0, 5, 29, 1, 2, 30, 4, 3, 30, 3, 4, 32, 4, 2, 32, 3, 3, 33, 5, 0, 36, 2, 0, 37, 3, 4, 38, 2, 0, 40, 1, 2, 41, 1, 1, 41, 3, 4, 43, 0, 0, 43, 2, 3, 47, 4, 2, 47, 3, 1, 52, 1, 3, 54, 2, 0, 57, 3, 0, 59, 5, 3, 61, 4, 3, 65, 3, 0, 67, 1, 0, 71, 1, 2, 72, 5, 2, 74, 4, 4, 74, 3, 0, 75, 5, 1, 76, 1, 0, 77, 5, 3, 78, 1, 3, 84, 5, 2, 87, 3, 2, 87, 2, 4, 90, 4, 1, 92, 3, 4, 95, 4, 0, 96, 1, 4, 96, 5, 0, 96, 3, 4, 97, 2, 5, 99, 5, 5, 99, 3, 2, 100, 3, 3, 101, 2, 4, 101, 1, 1, 106, 1, 0, 108, 5, 0, 109, 5, 3, 109, 5, 3, 111, 3, 5, 113, 2, 0, 113, 0, 3, 114, 1, 2, 119, 1, 5, 120, 3, 1, 121, 2, 1, 123, 1, 5, 127, 3, 0, 128, 4, 3, 129, 1, 5, 129, 5, 1, 131, 1, 3, 132, 2, 2, 134, 1, 0, 135, 0, 5, 136, 2, 0, 142, 0, 0, 142, 4, 4, 143, 5, 0, 143, 1, 1, 146, 1, 4, 146, 2, 5, 146, 3, 0, 147, 2, 5, 149, 5, 0]);
