n_res = 4;
rc = [ 24, 20, 23, 20 ];
n_tasks = 92;
d = [0, 4, 2, 6, 6, 8, 6, 4, 2, 5, 1, 1, 7, 5, 7, 7, 5, 4, 10, 8, 10, 5, 1, 9, 2, 5, 2, 1, 10, 1, 10, 4, 4, 9, 4, 5, 8, 3, 6, 2, 9, 3, 9, 9, 8, 4, 5, 8, 7, 2, 5, 3, 3, 5, 1, 2, 1, 8, 8, 10, 2, 2, 1, 2, 10, 3, 2, 1, 2, 8, 8, 1, 5, 1, 8, 9, 5, 6, 10, 3, 3, 1, 4, 5, 3, 4, 10, 6, 4, 8, 9, 0];
rr = array2d(1..4, 1..92, [0, 5, 8, 6, 6, 3, 8, 10, 9, 8, 9, 9, 9, 4, 9, 3, 4, 7, 7, 9, 8, 10, 1, 3, 10, 10, 2, 5, 6, 4, 7, 4, 7, 9, 9, 5, 1, 6, 3, 9, 5, 3, 7, 3, 9, 2, 9, 7, 7, 8, 9, 8, 3, 8, 7, 4, 7, 3, 9, 3, 6, 2, 3, 8, 6, 9, 7, 6, 8, 2, 4, 1, 1, 3, 9, 5, 10, 7, 1, 5, 3, 6, 4, 9, 5, 4, 8, 8, 6, 8, 5, 0, 0, 5, 2, 3, 6, 2, 2, 9, 5, 6, 1, 1, 5, 6, 9, 7, 3, 4, 1, 7, 10, 9, 4, 7, 7, 4, 2, 9, 1, 8, 6, 3, 10, 5, 5, 6, 10, 6, 8, 10, 5, 3, 6, 5, 1, 4, 4, 2, 7, 2, 7, 8, 3, 2, 3, 9, 6, 1, 4, 6, 6, 2, 4, 5, 9, 1, 9, 7, 2, 5, 1, 10, 3, 7, 9, 4, 1, 3, 8, 5, 2, 10, 4, 9, 7, 6, 8, 5, 7, 3, 10, 0, 0, 4, 9, 7, 9, 10, 7, 3, 8, 6, 9, 3, 2, 6, 2, 5, 3, 4, 3, 5, 9, 1, 3, 6, 5, 6, 4, 6, 8, 1, 4, 4, 10, 10, 7, 3, 6, 8, 9, 6, 9, 9, 9, 8, 5, 9, 6, 1, 6, 2, 9, 5, 2, 9, 7, 6, 8, 3, 5, 8, 10, 3, 5, 5, 7, 7, 1, 4, 4, 8, 8, 1, 4, 2, 1, 5, 9, 7, 9, 4, 1, 10, 4, 10, 6, 7, 7, 7, 3, 2, 8, 0, 0, 5, 3, 2, 1, 4, 3, 1, 5, 9, 6, 3, 5, 3, 5, 10, 6, 9, 1, 9, 9, 1, 4, 7, 1, 2, 6, 7, 4, 7, 6, 1, 3, 8, 6, 5, 8, 7, 10, 5, 2, 9, 8, 1, 1, 7, 4, 3, 5, 8, 10, 4, 3, 3, 8, 5, 7, 9, 6, 4, 9, 5, 7, 5, 9, 5, 5, 2, 7, 5, 9, 4, 10, 1, 10, 5, 7, 3, 1, 10, 3, 5, 3, 3, 5, 9, 7, 5, 6, 2, 2, 0]);

suc = [
   {2, 3, 4},
   {42, 21, 14},
   {8, 69, 5},
   {9, 54, 7},
   {11, 6, 15},
   {16, 24, 19},
   {26, 28},
   {10, 86},
   {57},
   {20, 12, 13},
   {18},
   {89},
   {33},
   {38, 17, 22},
   {25, 23},
   {17},
   {64, 82},
   {67},
   {32, 27},
   {48, 39},
   {90},
   {30},
   {51},
   {36, 37},
   {43},
   {44, 29, 78},
   {73, 49},
   {79, 31},
   {40, 61, 46},
   {67, 45},
   {72},
   {41, 34, 87},
   {66, 68, 47},
   {58, 35},
   {59},
   {64},
   {56, 63},
   {84},
   {50},
   {80},
   {55, 47},
   {56},
   {77},
   {81},
   {61},
   {53},
   {74},
   {71},
   {72},
   {51},
   {52},
   {66},
   {60, 62, 84},
   {88},
   {56},
   {72},
   {79},
   {75},
   {73},
   {83},
   {65, 75, 70},
   {64},
   {79},
   {71},
   {85},
   {78},
   {75},
   {76, 71},
   {83},
   {81, 76},
   {87},
   {74, 83},
   {77, 78},
   {81},
   {85},
   {88},
   {82, 90},
   {80},
   {80},
   {90},
   {85},
   {84},
   {89, 91},
   {88},
   {89},
   {87},
   {91},
   {91},
   {92},
   {92},
   {92},
   {  } ];

deadline = array2d(1..92, 1..3, [4, 1, 4, 4, 3, 3, 4, 1, 5, 10, 3, 2, 13, 3, 5, 15, 4, 1, 15, 5, 5, 18, 3, 0, 19, 0, 0, 20, 1, 0, 26, 4, 0, 30, 1, 0, 31, 0, 2, 32, 0, 1, 36, 4, 5, 36, 5, 5, 37, 3, 4, 37, 1, 0, 39, 2, 5, 43, 2, 3, 43, 4, 1, 44, 1, 3, 45, 1, 5, 45, 0, 5, 52, 2, 2, 52, 1, 0, 54, 2, 2, 60, 2, 5, 61, 0, 3, 64, 5, 3, 66, 5, 5, 72, 4, 4, 73, 2, 3, 75, 3, 2, 84, 5, 2, 89, 0, 3, 90, 1, 3, 91, 1, 0, 94, 5, 1, 96, 2, 3, 101, 1, 4, 103, 1, 3, 105, 2, 2, 109, 2, 4, 111, 5, 1, 112, 1, 4, 115, 0, 1, 118, 5, 5, 118, 3, 2, 120, 2, 4, 121, 0, 4, 121, 5, 4, 123, 0, 3, 126, 3, 3, 128, 5, 2, 131, 1, 1, 132, 3, 5, 137, 5, 3, 143, 0, 0, 143, 3, 4, 145, 1, 1, 149, 1, 2, 155, 1, 1, 155, 3, 3, 155, 4, 0, 157, 3, 3, 160, 1, 3, 163, 0, 1, 163, 4, 2, 168, 2, 3, 170, 0, 4, 174, 4, 5, 175, 3, 3, 175, 2, 3, 175, 3, 0, 176, 1, 3, 178, 0, 4, 179, 5, 4, 179, 5, 5, 180, 0, 5, 183, 5, 2, 184, 0, 3, 187, 1, 5, 187, 5, 0, 188, 5, 2, 191, 5, 0, 195, 4, 0, 197, 3, 1, 198, 4, 3, 199, 2, 2, 202, 1, 3, 204, 3, 3]);
