n_res = 4;
rc = [ 16, 18, 21, 18 ];
n_tasks = 92;
d = [0, 10, 5, 10, 3, 8, 2, 6, 6, 1, 9, 2, 8, 9, 6, 8, 7, 10, 6, 4, 1, 8, 2, 10, 6, 5, 3, 7, 6, 9, 5, 3, 2, 8, 4, 10, 6, 3, 8, 5, 3, 6, 8, 7, 8, 2, 10, 4, 8, 3, 7, 4, 10, 8, 8, 4, 5, 6, 1, 2, 2, 5, 5, 9, 5, 4, 5, 9, 9, 8, 10, 10, 10, 1, 9, 5, 2, 6, 7, 8, 4, 2, 7, 1, 7, 6, 4, 9, 7, 8, 9, 0];
rr = array2d(1..4, 1..92, [0, 5, 6, 0, 0, 7, 0, 0, 4, 3, 6, 0, 5, 1, 8, 8, 4, 0, 2, 2, 8, 0, 0, 7, 0, 5, 7, 9, 3, 7, 2, 4, 2, 3, 0, 6, 0, 0, 6, 4, 8, 3, 5, 0, 4, 0, 5, 0, 9, 6, 5, 7, 0, 1, 5, 3, 9, 1, 4, 0, 5, 0, 10, 7, 8, 7, 5, 0, 4, 4, 0, 6, 4, 0, 4, 0, 3, 1, 2, 10, 9, 2, 10, 3, 1, 10, 5, 6, 0, 2, 8, 0, 0, 0, 0, 4, 6, 3, 4, 6, 0, 0, 1, 6, 4, 3, 10, 4, 5, 0, 8, 4, 4, 9, 1, 4, 0, 4, 0, 3, 0, 0, 4, 2, 8, 8, 2, 4, 9, 5, 0, 0, 3, 0, 0, 5, 0, 5, 0, 0, 6, 4, 5, 3, 1, 6, 9, 2, 9, 5, 9, 6, 0, 6, 5, 4, 6, 0, 0, 2, 8, 2, 4, 9, 2, 0, 0, 3, 3, 7, 9, 3, 4, 10, 5, 9, 6, 4, 0, 0, 9, 2, 8, 0, 0, 1, 4, 0, 6, 0, 2, 0, 3, 10, 7, 0, 4, 3, 0, 8, 10, 4, 7, 5, 0, 4, 4, 4, 6, 5, 5, 6, 0, 6, 6, 0, 7, 8, 5, 10, 0, 4, 2, 6, 0, 5, 0, 9, 1, 10, 0, 5, 2, 8, 0, 0, 0, 0, 4, 3, 10, 6, 6, 0, 2, 1, 5, 1, 9, 10, 1, 5, 6, 7, 0, 1, 5, 10, 7, 5, 1, 9, 10, 4, 3, 5, 2, 0, 1, 1, 7, 0, 9, 6, 8, 0, 0, 6, 10, 0, 8, 7, 0, 0, 8, 0, 8, 8, 2, 0, 0, 0, 2, 3, 6, 8, 9, 0, 5, 3, 7, 1, 3, 9, 9, 0, 2, 1, 1, 8, 5, 9, 0, 8, 2, 0, 7, 4, 2, 0, 7, 10, 4, 5, 8, 2, 8, 2, 4, 2, 0, 3, 8, 0, 2, 5, 0, 3, 0, 2, 6, 6, 10, 0, 4, 0, 3, 3, 0, 0, 10, 1, 1, 7, 0, 0, 10, 7, 0, 9, 1, 4, 10, 7, 1, 8, 4, 0]);

suc = [
   {2, 3, 4},
   {16, 26, 20},
   {24, 9, 23},
   {12, 5, 6},
   {17, 11},
   {8, 10, 7},
   {21, 15},
   {17, 11, 43},
   {69, 29, 46},
   {89, 50, 53},
   {51, 35, 37},
   {18, 19, 13},
   {67, 53, 14},
   {42, 36, 74},
   {40, 26, 47},
   {42, 29},
   {32, 67, 23},
   {48, 45, 22},
   {54, 49, 30},
   {41, 34, 39},
   {43, 55, 31},
   {90, 59},
   {64, 25, 28},
   {40, 62, 38},
   {65, 34, 82},
   {27, 28, 38},
   {35, 44, 52},
   {79, 62, 39},
   {45},
   {33, 57},
   {57, 85, 77},
   {81, 60, 70},
   {64, 69, 70},
   {44, 62},
   {49, 50, 55},
   {59},
   {41, 83, 53},
   {55, 46, 39},
   {65, 58},
   {74, 44, 61},
   {57, 42, 52},
   {58, 46},
   {54, 79},
   {48, 50, 84},
   {56, 59, 63},
   {60, 70},
   {66, 74, 61},
   {49},
   {56, 73},
   {88},
   {66, 60},
   {68, 61, 71},
   {65, 78, 63},
   {68, 84, 76},
   {73, 66},
   {76, 79},
   {78},
   {75},
   {71},
   {88, 71},
   {64, 87, 63},
   {89},
   {91},
   {86},
   {69},
   {75, 67, 76},
   {72, 80},
   {72, 73},
   {77},
   {80},
   {72},
   {82},
   {81, 91, 77},
   {83, 75, 78},
   {80, 84},
   {83},
   {86},
   {91},
   {81},
   {82},
   {87},
   {85},
   {85, 86},
   {90},
   {87},
   {88},
   {89},
   {90},
   {92},
   {92},
   {92},
   {  } ];

deadline = array2d(1..92, 1..3, [5, 5, 5, 5, 5, 5, 11, 5, 5, 14, 1, 5, 16, 3, 0, 18, 2, 2, 18, 4, 4, 23, 4, 2, 24, 3, 2, 27, 0, 1, 41, 2, 0, 43, 1, 2, 50, 3, 3, 52, 2, 1, 55, 1, 2, 58, 5, 0, 63, 3, 4, 64, 2, 2, 66, 2, 2, 67, 5, 1, 68, 2, 4, 70, 5, 0, 71, 3, 5, 72, 0, 5, 75, 3, 4, 77, 3, 0, 78, 2, 2, 82, 1, 2, 89, 1, 0, 93, 1, 4, 96, 1, 0, 97, 3, 2, 97, 0, 4, 103, 3, 0, 103, 4, 4, 105, 3, 3, 121, 5, 3, 123, 0, 1, 130, 2, 5, 132, 0, 5, 132, 5, 0, 133, 1, 0, 138, 3, 1, 138, 3, 1, 140, 1, 3, 141, 1, 2, 143, 3, 3, 143, 3, 0, 144, 5, 5, 144, 0, 5, 153, 0, 0, 163, 3, 0, 167, 2, 5, 169, 3, 4, 170, 4, 5, 170, 0, 1, 181, 4, 0, 181, 3, 0, 182, 1, 4, 192, 3, 4, 192, 1, 4, 198, 0, 1, 198, 2, 1, 201, 1, 2, 207, 5, 5, 212, 4, 0, 214, 2, 5, 215, 3, 2, 216, 0, 4, 216, 3, 5, 217, 5, 1, 218, 3, 5, 218, 0, 5, 220, 2, 2, 223, 4, 1, 223, 0, 3, 225, 4, 2, 225, 4, 1, 229, 0, 5, 231, 5, 1, 233, 2, 5, 234, 0, 2, 235, 1, 0, 235, 2, 0, 239, 5, 5, 245, 5, 4, 246, 2, 5, 248, 1, 4, 255, 5, 5, 256, 5, 5, 257, 2, 2, 261, 4, 2]);
