n_res = 4;
rc = [ 45, 48, 40, 35 ];
n_tasks = 92;
d = [0, 5, 3, 2, 10, 9, 4, 4, 4, 8, 7, 5, 7, 10, 6, 10, 8, 5, 1, 1, 7, 8, 6, 5, 10, 7, 6, 1, 8, 9, 8, 10, 8, 8, 10, 1, 7, 1, 1, 2, 4, 10, 7, 6, 6, 3, 6, 4, 8, 9, 10, 4, 5, 8, 7, 5, 6, 2, 4, 3, 1, 5, 10, 7, 3, 3, 9, 4, 5, 7, 9, 1, 2, 3, 10, 2, 2, 4, 8, 4, 9, 4, 7, 9, 2, 8, 5, 10, 1, 3, 5, 0];
rr = array2d(1..4, 1..92, [0, 0, 2, 8, 5, 3, 5, 0, 7, 0, 8, 8, 10, 9, 1, 0, 8, 9, 10, 3, 5, 10, 5, 0, 7, 4, 0, 9, 0, 2, 10, 1, 0, 7, 6, 0, 0, 0, 0, 6, 9, 9, 9, 2, 0, 9, 8, 8, 2, 3, 3, 9, 2, 0, 0, 4, 7, 1, 7, 0, 0, 0, 8, 0, 1, 7, 1, 0, 9, 10, 9, 3, 8, 3, 6, 4, 6, 10, 10, 3, 10, 1, 0, 0, 4, 1, 1, 8, 6, 5, 2, 0, 0, 4, 0, 10, 5, 5, 8, 8, 6, 8, 6, 10, 7, 4, 0, 9, 10, 4, 1, 0, 3, 7, 0, 0, 4, 0, 4, 2, 9, 9, 1, 6, 5, 9, 3, 6, 4, 8, 8, 0, 5, 4, 3, 0, 5, 0, 4, 0, 2, 5, 0, 2, 0, 7, 1, 9, 2, 0, 4, 1, 4, 5, 2, 2, 9, 9, 4, 0, 5, 0, 6, 6, 2, 0, 0, 0, 8, 0, 9, 8, 5, 0, 7, 9, 1, 0, 0, 0, 6, 0, 1, 0, 0, 6, 5, 9, 1, 2, 10, 7, 0, 8, 1, 6, 0, 5, 4, 1, 8, 0, 9, 2, 7, 9, 4, 5, 2, 0, 3, 0, 0, 10, 6, 4, 0, 2, 4, 3, 10, 6, 2, 8, 7, 3, 2, 7, 6, 0, 5, 0, 3, 10, 0, 0, 1, 5, 0, 0, 0, 3, 6, 9, 9, 7, 2, 5, 5, 2, 8, 4, 0, 0, 4, 3, 3, 3, 4, 1, 7, 8, 1, 10, 2, 0, 4, 4, 10, 8, 0, 3, 10, 10, 8, 0, 0, 0, 8, 3, 0, 2, 1, 0, 4, 0, 8, 6, 10, 6, 0, 0, 0, 3, 5, 10, 7, 5, 6, 0, 3, 7, 3, 2, 0, 0, 4, 10, 8, 7, 0, 4, 1, 0, 9, 9, 0, 8, 1, 4, 8, 8, 3, 3, 6, 0, 6, 7, 0, 0, 5, 0, 0, 8, 6, 1, 6, 0, 5, 6, 4, 9, 7, 10, 0, 8, 5, 10, 0, 5, 4, 0, 0, 7, 0, 4, 7, 7, 5, 9, 9, 7, 9, 6, 0, 9, 4, 0]);

suc = [
   {2, 3, 4},
   {49, 47, 15},
   {89, 66, 11},
   {29, 5, 6},
   {8, 44, 7},
   {17, 13, 23},
   {16, 10, 18},
   {9, 50, 45},
   {80, 21},
   {25, 47, 31},
   {12, 52, 31},
   {28, 14, 22},
   {58, 27, 20},
   {41, 35, 53},
   {42, 19, 38},
   {28, 37},
   {26, 35, 36},
   {49, 52},
   {57, 30},
   {81, 57, 54},
   {40, 58},
   {64, 51, 86},
   {24, 54, 63},
   {65, 59, 31},
   {42, 35, 46},
   {32, 48, 72},
   {71, 38, 39},
   {41, 50, 51},
   {68, 53},
   {56, 58, 67},
   {56},
   {33, 51, 53},
   {34, 42, 47},
   {82, 44, 60},
   {50, 78},
   {48, 62, 55},
   {41, 77, 55},
   {80, 45},
   {74, 43, 85},
   {65, 76, 61},
   {73},
   {61, 62, 55},
   {49, 66, 78},
   {87},
   {66, 54},
   {48, 67},
   {64, 74},
   {73, 59, 52},
   {80},
   {76, 69},
   {74, 67, 85},
   {60},
   {75, 70},
   {69, 70},
   {56, 82},
   {64, 60},
   {61, 62, 87},
   {65, 59, 68},
   {69, 87, 71},
   {88},
   {71, 70, 63},
   {75, 84, 63},
   {68},
   {79},
   {72, 81, 77},
   {72, 73},
   {91},
   {77, 79},
   {75, 84},
   {78},
   {83},
   {86},
   {81},
   {76, 79},
   {82},
   {91},
   {83},
   {86},
   {88},
   {83},
   {84},
   {85},
   {89},
   {88},
   {90},
   {90},
   {89, 91},
   {90},
   {92},
   {92},
   {92},
   {  } ];

deadline = array2d(1..92, 1..3, [2, 3, 4, 6, 1, 1, 8, 0, 4, 8, 1, 0, 8, 2, 0, 11, 5, 2, 13, 4, 0, 15, 3, 0, 16, 4, 0, 20, 0, 2, 23, 3, 2, 23, 2, 0, 26, 3, 5, 31, 1, 3, 31, 1, 5, 33, 5, 0, 34, 1, 0, 36, 3, 2, 37, 4, 2, 38, 2, 3, 39, 5, 3, 42, 0, 0, 46, 5, 1, 48, 5, 2, 50, 5, 1, 55, 5, 5, 56, 0, 4, 64, 1, 4, 69, 0, 2, 78, 0, 0, 84, 2, 0, 86, 0, 4, 86, 1, 4, 91, 3, 3, 97, 1, 4, 99, 3, 1, 101, 5, 2, 102, 4, 5, 105, 4, 1, 107, 2, 0, 109, 2, 3, 112, 5, 1, 114, 0, 4, 115, 5, 5, 116, 1, 4, 118, 2, 2, 119, 2, 0, 121, 1, 5, 121, 1, 1, 121, 2, 5, 122, 0, 3, 124, 4, 4, 128, 1, 0, 131, 5, 5, 136, 2, 5, 137, 0, 3, 140, 3, 4, 140, 2, 4, 141, 5, 4, 143, 1, 1, 146, 0, 3, 148, 3, 0, 150, 3, 3, 152, 5, 3, 154, 3, 2, 162, 3, 4, 162, 1, 5, 166, 0, 1, 170, 0, 0, 183, 3, 2, 185, 1, 5, 186, 1, 3, 187, 1, 2, 188, 5, 4, 193, 4, 5, 195, 0, 2, 200, 1, 4, 201, 3, 0, 202, 2, 1, 203, 1, 5, 209, 3, 0, 213, 1, 4, 213, 5, 3, 217, 2, 0, 218, 1, 4, 218, 2, 5, 219, 5, 3, 220, 4, 3, 228, 0, 0, 228, 1, 5, 228, 2, 3, 229, 0, 5]);
