n_res = 4;
rc = [ 27, 23, 19, 20 ];
n_tasks = 92;
d = [0, 7, 7, 9, 7, 5, 1, 8, 10, 5, 10, 8, 10, 6, 7, 10, 6, 7, 7, 4, 6, 3, 4, 5, 4, 1, 10, 5, 5, 4, 3, 1, 3, 6, 5, 1, 8, 10, 4, 9, 8, 6, 7, 5, 3, 3, 10, 5, 7, 7, 10, 9, 8, 7, 8, 7, 8, 10, 10, 9, 1, 3, 3, 4, 5, 9, 3, 4, 5, 4, 10, 2, 9, 7, 8, 4, 8, 6, 5, 1, 6, 6, 3, 3, 5, 4, 1, 8, 9, 8, 9, 0];
rr = array2d(1..4, 1..92, [0, 1, 0, 10, 0, 0, 4, 8, 1, 0, 4, 7, 0, 0, 0, 3, 0, 0, 0, 1, 0, 1, 5, 3, 0, 0, 10, 0, 0, 6, 0, 0, 0, 0, 0, 0, 0, 0, 0, 0, 0, 0, 0, 0, 0, 0, 0, 0, 0, 0, 0, 0, 0, 9, 0, 0, 7, 0, 0, 10, 4, 0, 0, 5, 1, 5, 0, 0, 0, 0, 4, 0, 0, 0, 0, 0, 4, 0, 0, 7, 0, 6, 1, 7, 0, 10, 3, 0, 5, 0, 7, 0, 0, 0, 0, 0, 3, 0, 0, 0, 0, 0, 0, 0, 0, 0, 8, 0, 0, 0, 0, 0, 0, 0, 0, 0, 0, 0, 0, 0, 0, 0, 0, 10, 2, 0, 0, 7, 3, 6, 7, 0, 7, 0, 0, 0, 0, 4, 0, 6, 0, 0, 0, 3, 0, 0, 10, 2, 0, 9, 0, 0, 0, 2, 0, 0, 0, 0, 0, 0, 9, 0, 0, 9, 8, 0, 0, 0, 0, 2, 7, 0, 6, 0, 0, 0, 0, 0, 0, 0, 0, 0, 0, 0, 0, 0, 10, 0, 0, 3, 0, 0, 0, 2, 0, 0, 0, 0, 0, 0, 0, 8, 9, 0, 0, 0, 0, 0, 2, 0, 0, 3, 6, 0, 0, 0, 0, 6, 0, 0, 0, 0, 0, 2, 0, 9, 3, 0, 0, 0, 0, 0, 1, 9, 4, 0, 0, 0, 0, 0, 0, 0, 4, 0, 0, 0, 8, 0, 0, 0, 0, 0, 0, 7, 0, 0, 0, 8, 0, 0, 0, 0, 0, 0, 0, 0, 0, 0, 4, 0, 0, 4, 0, 8, 0, 0, 0, 0, 0, 0, 0, 0, 0, 0, 0, 0, 0, 0, 7, 4, 0, 0, 7, 0, 0, 0, 6, 0, 0, 0, 0, 8, 0, 0, 0, 0, 9, 0, 0, 0, 4, 0, 0, 0, 0, 0, 0, 0, 0, 10, 5, 0, 8, 0, 0, 0, 0, 0, 6, 0, 0, 0, 0, 0, 0, 0, 0, 0, 0, 0, 0, 0, 2, 9, 0, 0, 0, 0, 0, 0, 1, 4, 0, 0, 0, 0, 0, 0, 0, 0, 0, 0, 0, 0, 0, 0, 0, 0]);

suc = [
   {2, 3, 4},
   {26, 13, 7},
   {21, 5, 70},
   {8, 17, 50},
   {19, 20, 6},
   {9, 61, 39},
   {35, 28, 29},
   {11, 46},
   {10, 12, 62},
   {16, 81, 53},
   {63, 14, 15},
   {89},
   {25, 22, 23},
   {24, 18, 32},
   {30},
   {18},
   {40, 83},
   {51, 34, 27},
   {34, 71},
   {33, 37},
   {48, 74, 86},
   {77},
   {42, 47, 31},
   {69, 45},
   {48, 46, 79},
   {36, 87, 55},
   {28, 44},
   {43, 55},
   {58, 77, 47},
   {59},
   {41, 85, 38},
   {42, 51},
   {76},
   {72},
   {40, 53},
   {58, 59, 47},
   {49, 67},
   {64, 65, 54},
   {82, 51, 54},
   {61},
   {63},
   {53},
   {56, 52},
   {49, 75},
   {59, 78},
   {67},
   {84},
   {72, 68},
   {56, 83},
   {64, 52},
   {71},
   {57},
   {76, 71},
   {75},
   {60},
   {66, 90},
   {68},
   {82, 60, 63},
   {73},
   {73, 74},
   {65},
   {64, 74},
   {88, 81, 70},
   {67},
   {88, 68, 79},
   {91, 76},
   {72, 86},
   {75},
   {82, 83},
   {79},
   {73},
   {80},
   {91, 84},
   {85},
   {77},
   {80},
   {80},
   {81, 87},
   {90},
   {87},
   {91},
   {85},
   {84},
   {86},
   {90},
   {88},
   {89},
   {89},
   {92},
   {92},
   {92},
   {  } ];

deadline = array2d(1..92, 1..3, [2, 4, 1, 4, 1, 5, 8, 4, 4, 20, 0, 5, 28, 4, 0, 29, 5, 4, 30, 0, 4, 35, 4, 5, 36, 5, 1, 37, 0, 3, 37, 2, 4, 38, 2, 4, 39, 1, 2, 52, 2, 0, 54, 5, 2, 55, 1, 1, 59, 5, 2, 59, 4, 5, 63, 3, 5, 64, 5, 4, 66, 3, 5, 69, 2, 3, 69, 0, 1, 73, 2, 4, 75, 4, 1, 77, 5, 4, 80, 3, 3, 80, 1, 1, 84, 5, 3, 92, 5, 1, 95, 2, 3, 104, 3, 4, 105, 0, 3, 105, 4, 5, 115, 1, 1, 122, 5, 1, 122, 0, 4, 126, 3, 2, 130, 3, 0, 133, 3, 3, 134, 5, 1, 141, 1, 5, 143, 0, 5, 145, 4, 2, 145, 1, 2, 147, 4, 2, 148, 4, 0, 149, 4, 2, 151, 3, 4, 152, 0, 2, 153, 4, 1, 162, 0, 4, 167, 4, 2, 169, 4, 5, 177, 1, 2, 177, 5, 0, 178, 4, 1, 179, 1, 1, 184, 3, 0, 184, 5, 5, 187, 3, 2, 187, 3, 3, 189, 2, 4, 197, 1, 4, 202, 0, 0, 208, 3, 1, 209, 0, 3, 213, 5, 0, 215, 3, 5, 218, 5, 2, 219, 4, 2, 222, 2, 3, 234, 5, 4, 238, 1, 5, 249, 0, 3, 251, 2, 4, 252, 3, 0, 257, 0, 4, 259, 0, 4, 262, 1, 1, 264, 0, 1, 265, 0, 5, 270, 3, 3, 273, 3, 0, 277, 5, 5, 281, 4, 1, 287, 0, 0, 287, 4, 2, 293, 1, 4, 295, 2, 0, 299, 5, 1, 300, 2, 0]);
