n_res = 4;
rc = [ 27, 29, 31, 31 ];
n_tasks = 92;
d = [0, 10, 6, 6, 3, 3, 7, 8, 9, 7, 10, 5, 9, 6, 4, 7, 8, 6, 8, 3, 3, 5, 1, 7, 4, 9, 4, 3, 1, 9, 5, 7, 7, 1, 2, 6, 3, 3, 8, 2, 9, 2, 4, 8, 1, 9, 9, 7, 7, 8, 8, 10, 8, 4, 8, 8, 6, 9, 1, 4, 4, 6, 9, 10, 8, 1, 8, 1, 4, 10, 10, 4, 2, 9, 7, 1, 4, 5, 10, 8, 5, 6, 10, 2, 7, 9, 7, 2, 10, 3, 4, 0];
rr = array2d(1..4, 1..92, [0, 1, 0, 6, 7, 3, 0, 5, 0, 0, 0, 4, 0, 2, 1, 0, 4, 9, 0, 0, 0, 0, 0, 2, 0, 0, 0, 8, 0, 4, 0, 0, 0, 0, 0, 6, 0, 7, 4, 0, 0, 0, 8, 10, 0, 0, 9, 0, 4, 3, 0, 2, 3, 0, 2, 5, 0, 0, 1, 6, 8, 0, 7, 0, 6, 8, 0, 1, 6, 0, 10, 5, 0, 0, 8, 6, 0, 5, 4, 0, 0, 0, 3, 7, 9, 1, 0, 0, 0, 10, 0, 0, 0, 0, 7, 0, 6, 0, 0, 0, 2, 8, 0, 0, 0, 0, 1, 7, 0, 10, 0, 0, 1, 0, 5, 0, 10, 0, 0, 0, 7, 5, 0, 0, 6, 4, 0, 3, 3, 8, 0, 0, 1, 0, 2, 0, 0, 1, 4, 10, 6, 0, 0, 6, 0, 6, 7, 3, 6, 2, 0, 0, 0, 7, 10, 9, 0, 0, 0, 0, 5, 0, 8, 0, 0, 8, 0, 0, 0, 8, 0, 0, 0, 7, 5, 0, 0, 7, 7, 0, 7, 7, 0, 0, 0, 8, 7, 0, 0, 0, 0, 7, 1, 7, 10, 6, 0, 0, 8, 1, 1, 0, 8, 1, 0, 8, 10, 0, 10, 2, 2, 5, 0, 9, 2, 9, 0, 4, 8, 6, 0, 7, 0, 0, 9, 5, 0, 8, 1, 0, 1, 8, 0, 7, 8, 0, 1, 10, 0, 6, 0, 8, 0, 1, 1, 7, 7, 10, 0, 6, 7, 0, 9, 5, 0, 7, 2, 0, 0, 0, 0, 0, 3, 10, 6, 0, 2, 0, 0, 0, 0, 5, 0, 0, 2, 0, 0, 0, 9, 0, 0, 4, 5, 0, 0, 0, 7, 0, 5, 0, 2, 1, 0, 10, 0, 0, 0, 4, 1, 0, 0, 0, 6, 10, 0, 0, 0, 0, 6, 0, 0, 4, 6, 0, 0, 6, 1, 2, 0, 0, 0, 10, 0, 6, 0, 6, 0, 4, 3, 0, 0, 0, 0, 4, 0, 0, 4, 6, 5, 6, 0, 1, 7, 0, 0, 0, 0, 3, 8, 0, 0, 2, 10, 0, 7, 0, 0, 9, 1, 4, 0, 0, 8, 2, 0, 9, 0, 0]);

suc = [
   {2, 3, 4},
   {17, 11, 7},
   {9, 12, 6},
   {8, 21, 5},
   {32, 73, 45},
   {26, 19, 22},
   {10, 51, 15},
   {16, 35, 14},
   {41, 29, 13},
   {20, 45},
   {16, 58, 68},
   {48, 57, 87},
   {48, 63, 23},
   {41, 20, 71},
   {33, 18, 42},
   {40, 37, 38},
   {65, 25, 43},
   {27, 28, 36},
   {74, 53, 30},
   {75, 69},
   {86},
   {25, 85, 29},
   {24, 42, 78},
   {64, 37, 47},
   {90, 39},
   {69, 37, 55},
   {50, 74, 31},
   {89, 58, 68},
   {34, 52, 68},
   {33, 41},
   {73, 35, 45},
   {58, 35, 39},
   {75, 54},
   {56, 79, 55},
   {56, 67, 54},
   {40, 52, 70},
   {74, 67, 52},
   {56, 50, 44},
   {40, 69, 46},
   {81, 57, 78},
   {59, 61, 47},
   {85},
   {60, 76, 63},
   {48, 51, 85},
   {88, 49, 59},
   {49, 55},
   {49, 66, 77},
   {60, 61, 78},
   {57, 79},
   {62, 53, 54},
   {67, 62},
   {84},
   {76, 61, 70},
   {63},
   {60},
   {64, 59},
   {91},
   {66},
   {65},
   {88},
   {72, 73, 77},
   {82, 70},
   {71},
   {65, 66},
   {72, 80},
   {87},
   {80},
   {72},
   {86},
   {71},
   {87},
   {83},
   {81},
   {75, 76},
   {88, 84, 77},
   {81, 83},
   {83},
   {79},
   {80},
   {82},
   {82},
   {84, 86},
   {90},
   {89},
   {89},
   {91},
   {90},
   {91},
   {92},
   {92},
   {92},
   {  } ];

deadline = array2d(1..92, 1..3, [4, 2, 1, 5, 5, 0, 6, 2, 4, 11, 2, 3, 13, 1, 0, 13, 5, 4, 14, 0, 0, 15, 4, 3, 17, 2, 1, 23, 0, 0, 23, 4, 5, 27, 3, 1, 28, 4, 1, 29, 4, 2, 29, 4, 0, 34, 3, 3, 34, 3, 3, 40, 3, 5, 40, 0, 0, 43, 2, 5, 47, 0, 1, 54, 0, 3, 54, 3, 1, 67, 0, 4, 67, 2, 1, 68, 3, 0, 69, 2, 1, 69, 5, 1, 73, 0, 5, 78, 4, 3, 80, 1, 1, 81, 2, 3, 83, 2, 1, 84, 1, 4, 85, 5, 0, 87, 1, 5, 90, 0, 2, 94, 4, 3, 104, 5, 5, 105, 3, 4, 106, 1, 5, 107, 4, 4, 108, 5, 2, 110, 0, 1, 110, 2, 2, 114, 3, 0, 117, 4, 1, 118, 4, 2, 119, 5, 5, 119, 1, 0, 119, 5, 5, 122, 0, 3, 135, 0, 5, 139, 0, 1, 142, 2, 3, 143, 0, 2, 144, 4, 3, 145, 4, 3, 145, 1, 0, 146, 1, 5, 150, 4, 4, 152, 0, 5, 153, 3, 5, 163, 3, 1, 166, 4, 2, 166, 2, 1, 166, 5, 4, 169, 2, 4, 171, 4, 1, 172, 1, 0, 172, 1, 1, 176, 3, 2, 179, 0, 3, 180, 4, 0, 186, 0, 5, 187, 2, 5, 191, 0, 5, 193, 5, 3, 196, 2, 1, 197, 3, 5, 201, 4, 5, 204, 1, 4, 205, 5, 0, 205, 4, 3, 209, 3, 4, 210, 3, 1, 212, 5, 5, 213, 2, 3, 214, 3, 0, 221, 5, 2, 223, 2, 5, 224, 2, 3]);
