n_res = 4;
rc = [ 25, 21, 23, 18 ];
n_tasks = 92;
d = [0, 3, 1, 5, 10, 7, 7, 9, 1, 2, 7, 1, 7, 8, 5, 7, 8, 8, 8, 7, 5, 7, 4, 2, 3, 4, 2, 5, 9, 4, 1, 3, 2, 10, 4, 1, 10, 4, 1, 10, 1, 9, 10, 10, 8, 7, 7, 6, 8, 9, 8, 6, 3, 2, 8, 9, 10, 4, 9, 5, 4, 2, 5, 7, 3, 5, 6, 10, 2, 10, 2, 2, 6, 7, 3, 8, 7, 2, 1, 10, 6, 7, 4, 6, 3, 7, 6, 7, 7, 7, 6, 0];
rr = array2d(1..4, 1..92, [0, 0, 0, 0, 7, 0, 0, 7, 0, 0, 0, 0, 0, 0, 0, 0, 1, 0, 0, 0, 0, 0, 0, 0, 0, 0, 0, 0, 8, 7, 8, 0, 0, 7, 0, 8, 0, 0, 5, 0, 0, 0, 0, 0, 0, 0, 0, 7, 0, 0, 0, 0, 0, 0, 0, 0, 0, 9, 0, 0, 7, 0, 0, 2, 0, 0, 0, 0, 0, 6, 0, 10, 1, 0, 0, 0, 1, 0, 0, 0, 0, 3, 6, 7, 0, 0, 0, 1, 0, 0, 1, 0, 0, 0, 0, 0, 0, 0, 0, 0, 3, 6, 0, 1, 6, 10, 0, 7, 0, 0, 0, 0, 4, 0, 0, 0, 0, 4, 0, 0, 0, 0, 0, 0, 0, 0, 9, 0, 0, 0, 0, 6, 8, 8, 0, 0, 5, 0, 3, 0, 0, 0, 0, 0, 0, 0, 6, 0, 0, 0, 0, 0, 0, 0, 3, 0, 0, 0, 0, 0, 0, 0, 1, 0, 0, 0, 7, 0, 0, 0, 0, 0, 0, 0, 0, 0, 0, 0, 0, 0, 0, 1, 0, 0, 0, 9, 0, 5, 0, 0, 0, 0, 0, 0, 0, 0, 0, 0, 0, 0, 0, 1, 6, 4, 0, 8, 1, 3, 0, 0, 0, 6, 0, 0, 0, 7, 4, 0, 0, 0, 4, 0, 0, 0, 0, 0, 9, 10, 0, 10, 0, 0, 0, 0, 0, 0, 0, 0, 0, 6, 1, 0, 0, 0, 0, 4, 0, 0, 7, 3, 0, 0, 10, 0, 0, 0, 0, 0, 0, 1, 0, 0, 2, 2, 2, 0, 0, 0, 0, 3, 7, 0, 2, 0, 0, 0, 0, 0, 8, 0, 0, 8, 3, 0, 0, 0, 5, 0, 0, 0, 5, 0, 0, 0, 0, 0, 0, 0, 0, 0, 1, 0, 7, 0, 0, 0, 0, 0, 0, 0, 0, 0, 0, 3, 0, 0, 0, 0, 0, 0, 0, 0, 0, 0, 3, 4, 6, 9, 1, 8, 0, 0, 0, 0, 9, 6, 0, 0, 0, 0, 0, 0, 4, 3, 0, 0, 0, 0, 0, 8, 0, 0, 0, 9, 0, 0, 0, 0, 0, 0, 6, 0, 0, 0, 0, 0, 0, 0]);

suc = [
   {2, 3, 4},
   {35, 5, 6},
   {17, 12, 39},
   {16, 32, 7},
   {8, 9, 13},
   {27, 11, 39},
   {48},
   {24, 10, 19},
   {41, 11, 15},
   {23},
   {18, 61, 29},
   {49, 53, 14},
   {20, 22, 30},
   {21},
   {19, 28, 52},
   {82},
   {51, 44, 37},
   {40, 33, 65},
   {72, 25},
   {34, 47},
   {25, 70},
   {25},
   {48, 50, 43},
   {57, 26, 31},
   {59, 78},
   {60, 62},
   {65},
   {42, 36},
   {89},
   {54},
   {56},
   {67, 43, 63},
   {54, 43, 38},
   {40, 57, 59},
   {46},
   {54},
   {72, 84, 45},
   {56, 63},
   {64},
   {46},
   {87, 55},
   {58},
   {59},
   {83},
   {66},
   {63},
   {70, 66, 62},
   {64, 85},
   {55},
   {74, 68},
   {68},
   {88, 66, 69},
   {64},
   {79},
   {73, 67},
   {81, 71},
   {58, 82},
   {69, 70},
   {80},
   {91, 75, 69},
   {80},
   {74, 82, 78},
   {85},
   {73, 67},
   {79, 71},
   {81, 75, 78},
   {74, 76},
   {76, 77},
   {90},
   {72, 76},
   {91, 83, 87},
   {75, 85},
   {83, 77, 79},
   {84},
   {77},
   {80},
   {86},
   {86},
   {84},
   {81},
   {91},
   {90, 87},
   {90},
   {88},
   {86},
   {89},
   {88},
   {89},
   {92},
   {92},
   {92},
   {  } ];

deadline = array2d(1..92, 1..3, [2, 2, 3, 3, 2, 5, 4, 3, 5, 7, 3, 1, 9, 4, 0, 13, 4, 3, 15, 0, 5, 16, 1, 5, 21, 0, 4, 25, 0, 3, 26, 3, 4, 26, 5, 1, 30, 5, 0, 36, 0, 5, 42, 3, 5, 43, 2, 1, 45, 4, 4, 48, 1, 5, 48, 5, 1, 56, 1, 2, 62, 3, 2, 66, 3, 2, 69, 1, 1, 79, 3, 4, 79, 5, 1, 81, 3, 1, 82, 4, 4, 83, 3, 2, 83, 1, 4, 88, 0, 2, 90, 5, 1, 95, 3, 1, 95, 4, 2, 97, 5, 2, 104, 5, 4, 106, 4, 0, 108, 4, 2, 108, 3, 3, 109, 1, 4, 109, 5, 3, 115, 2, 3, 124, 3, 5, 124, 2, 0, 132, 3, 1, 134, 4, 1, 135, 2, 4, 136, 5, 3, 144, 4, 3, 147, 4, 5, 151, 3, 2, 151, 5, 2, 154, 2, 4, 155, 2, 1, 157, 1, 2, 158, 1, 5, 158, 2, 1, 159, 2, 4, 163, 4, 1, 164, 4, 1, 167, 2, 4, 169, 5, 1, 170, 3, 2, 170, 4, 5, 172, 1, 1, 175, 5, 3, 175, 2, 2, 178, 4, 3, 179, 5, 3, 180, 0, 5, 181, 5, 1, 184, 0, 3, 187, 0, 1, 190, 5, 3, 191, 1, 4, 192, 1, 1, 194, 5, 3, 195, 3, 3, 200, 5, 1, 201, 2, 4, 204, 5, 1, 205, 2, 2, 209, 5, 4, 214, 2, 3, 214, 1, 1, 217, 2, 1, 217, 0, 0, 217, 3, 2, 223, 0, 2, 223, 5, 1, 225, 0, 4, 225, 4, 2, 227, 2, 4]);
