n_res = 4;
rc = [ 21, 19, 34, 20 ];
n_tasks = 92;
d = [0, 10, 6, 9, 10, 9, 6, 6, 9, 9, 6, 10, 9, 3, 6, 7, 4, 1, 6, 8, 8, 7, 3, 10, 6, 10, 7, 6, 9, 4, 2, 4, 8, 4, 9, 4, 10, 4, 3, 3, 1, 4, 9, 4, 10, 1, 1, 2, 7, 6, 4, 6, 3, 10, 1, 8, 2, 8, 6, 3, 9, 7, 5, 8, 8, 1, 10, 6, 5, 1, 10, 4, 1, 6, 1, 7, 8, 4, 9, 4, 8, 5, 1, 4, 8, 10, 6, 8, 10, 7, 6, 0];
rr = array2d(1..4, 1..92, [0, 0, 0, 0, 0, 0, 0, 4, 0, 0, 10, 0, 0, 0, 0, 10, 9, 0, 3, 0, 0, 3, 0, 0, 2, 0, 0, 0, 2, 7, 0, 6, 0, 0, 2, 10, 0, 2, 0, 5, 0, 0, 0, 0, 0, 0, 0, 0, 0, 0, 0, 0, 0, 8, 0, 0, 0, 0, 0, 0, 0, 0, 0, 0, 0, 4, 0, 0, 0, 0, 9, 0, 4, 0, 0, 0, 0, 6, 0, 7, 0, 0, 4, 0, 4, 0, 9, 3, 0, 9, 0, 0, 0, 4, 7, 7, 9, 0, 5, 0, 0, 7, 0, 0, 0, 0, 1, 0, 0, 0, 0, 0, 0, 0, 0, 0, 0, 0, 0, 0, 0, 0, 0, 0, 0, 4, 0, 0, 0, 0, 0, 0, 0, 2, 0, 0, 0, 0, 10, 9, 0, 0, 0, 0, 0, 0, 6, 0, 0, 0, 3, 0, 10, 7, 0, 10, 0, 0, 0, 0, 0, 0, 0, 0, 0, 0, 0, 0, 0, 0, 0, 0, 2, 4, 0, 0, 0, 0, 0, 0, 0, 0, 10, 0, 0, 0, 0, 0, 0, 0, 0, 0, 3, 0, 0, 0, 0, 7, 0, 0, 0, 7, 0, 0, 5, 0, 9, 0, 0, 9, 8, 3, 0, 0, 0, 0, 7, 0, 0, 0, 2, 0, 0, 0, 10, 0, 9, 0, 7, 7, 0, 0, 3, 4, 8, 0, 0, 0, 0, 5, 2, 10, 0, 0, 0, 0, 4, 0, 0, 0, 0, 3, 1, 1, 0, 0, 0, 2, 5, 0, 4, 0, 0, 0, 0, 0, 0, 4, 0, 8, 0, 0, 0, 0, 0, 0, 0, 0, 0, 0, 0, 2, 0, 0, 0, 0, 0, 1, 10, 0, 0, 0, 0, 0, 0, 2, 0, 0, 0, 9, 0, 0, 0, 0, 0, 0, 3, 0, 0, 0, 0, 0, 0, 0, 4, 0, 0, 0, 0, 8, 0, 0, 0, 0, 0, 0, 0, 10, 2, 0, 0, 0, 0, 0, 0, 2, 0, 0, 0, 0, 8, 0, 7, 0, 0, 0, 0, 4, 0, 0, 0, 4, 0, 0, 4, 0, 0, 0, 0, 0, 0, 0, 0, 0, 10, 0, 0, 0]);

suc = [
   {2, 3, 4},
   {20, 6, 15},
   {24, 25, 12},
   {8, 5, 7},
   {9},
   {75, 46},
   {23},
   {64, 10, 26},
   {45, 22},
   {43, 11, 13},
   {89, 17},
   {19, 52, 14},
   {88, 39},
   {48, 56, 21},
   {16, 18},
   {42, 27, 23},
   {28},
   {32},
   {23},
   {58, 35},
   {30},
   {31},
   {78, 29, 38},
   {40},
   {67, 44, 63},
   {33, 77},
   {41, 34},
   {36},
   {57, 74, 47},
   {40, 49},
   {84},
   {73},
   {40, 59, 69},
   {37},
   {65, 77, 54},
   {53, 62},
   {66, 71},
   {80},
   {50},
   {78},
   {80},
   {61},
   {81, 82, 51},
   {59},
   {72, 57},
   {88},
   {85},
   {65},
   {88},
   {60},
   {91, 60},
   {55},
   {63},
   {79},
   {66, 60},
   {82},
   {83},
   {70},
   {72},
   {68},
   {81, 78},
   {79},
   {77},
   {74},
   {69},
   {74, 68},
   {86},
   {72},
   {80},
   {90},
   {76, 87},
   {76},
   {82},
   {87},
   {76},
   {86},
   {84},
   {79},
   {91},
   {84},
   {85},
   {83},
   {86},
   {91},
   {87},
   {89},
   {89},
   {90},
   {92},
   {92},
   {92},
   {  } ];

deadline = array2d(1..92, 1..3, [2, 1, 1, 3, 2, 2, 5, 5, 4, 5, 5, 0, 14, 5, 5, 16, 0, 2, 18, 4, 3, 22, 0, 0, 22, 0, 4, 23, 3, 5, 27, 3, 4, 31, 5, 2, 31, 2, 5, 32, 3, 1, 34, 5, 0, 38, 5, 1, 40, 2, 1, 41, 2, 2, 42, 5, 1, 42, 0, 0, 45, 1, 3, 53, 3, 2, 56, 5, 0, 59, 5, 5, 73, 1, 0, 73, 5, 0, 76, 2, 3, 77, 5, 5, 78, 3, 0, 78, 3, 2, 81, 3, 3, 81, 1, 0, 82, 1, 3, 83, 5, 5, 84, 0, 4, 85, 5, 4, 87, 3, 0, 87, 0, 0, 88, 5, 1, 89, 0, 1, 90, 5, 2, 94, 2, 3, 95, 1, 2, 95, 4, 5, 97, 5, 0, 98, 0, 3, 101, 3, 5, 101, 3, 3, 104, 3, 4, 104, 3, 3, 105, 3, 2, 107, 4, 0, 108, 0, 3, 109, 1, 4, 115, 5, 5, 116, 4, 1, 120, 4, 5, 123, 5, 1, 127, 0, 4, 127, 0, 0, 128, 4, 3, 129, 3, 2, 129, 1, 4, 131, 3, 3, 131, 5, 4, 131, 4, 1, 134, 2, 3, 135, 4, 5, 141, 4, 1, 144, 2, 2, 145, 4, 5, 145, 4, 4, 148, 4, 4, 154, 0, 2, 158, 4, 0, 158, 1, 5, 159, 4, 3, 166, 0, 1, 167, 2, 5, 168, 4, 2, 173, 5, 0, 175, 4, 3, 181, 0, 5, 185, 4, 5, 188, 4, 2, 188, 0, 1, 189, 0, 5, 193, 1, 1, 194, 4, 5, 198, 0, 1, 202, 1, 2, 203, 3, 3]);
