n_res = 4;
rc = [ 79, 45, 72, 59 ];
n_tasks = 92;
d = [0, 8, 1, 9, 8, 8, 8, 5, 4, 4, 5, 2, 5, 8, 10, 1, 1, 1, 7, 9, 6, 5, 6, 6, 1, 7, 2, 9, 10, 9, 9, 4, 8, 1, 7, 7, 5, 1, 2, 2, 1, 1, 4, 4, 2, 8, 5, 1, 4, 9, 8, 10, 5, 7, 4, 3, 10, 3, 9, 5, 8, 3, 8, 3, 5, 3, 10, 5, 5, 10, 8, 2, 10, 10, 6, 5, 4, 2, 7, 7, 10, 1, 10, 10, 1, 8, 1, 10, 3, 8, 4, 0];
rr = array2d(1..4, 1..92, [0, 0, 0, 4, 8, 0, 0, 5, 10, 0, 0, 7, 10, 3, 0, 3, 0, 0, 10, 1, 1, 7, 0, 2, 0, 9, 8, 7, 0, 10, 3, 0, 0, 0, 0, 0, 0, 9, 0, 0, 0, 0, 0, 4, 0, 7, 0, 5, 6, 9, 0, 7, 0, 2, 4, 8, 9, 0, 6, 0, 1, 0, 2, 0, 10, 0, 0, 4, 5, 0, 6, 6, 10, 5, 7, 6, 0, 7, 0, 9, 7, 7, 0, 0, 0, 0, 7, 0, 0, 0, 1, 0, 0, 0, 0, 5, 0, 5, 3, 0, 0, 3, 0, 0, 0, 0, 0, 0, 3, 5, 7, 0, 0, 0, 0, 5, 7, 6, 0, 2, 3, 0, 0, 2, 6, 0, 0, 0, 1, 3, 0, 7, 0, 1, 2, 7, 0, 1, 2, 0, 0, 0, 0, 0, 1, 0, 0, 6, 0, 7, 0, 0, 0, 0, 0, 0, 0, 0, 5, 0, 2, 9, 3, 0, 10, 0, 3, 10, 0, 9, 2, 0, 8, 1, 6, 3, 0, 9, 4, 1, 0, 3, 0, 0, 0, 3, 5, 0, 5, 3, 10, 4, 7, 0, 0, 4, 0, 0, 5, 0, 10, 2, 0, 0, 0, 10, 6, 8, 10, 6, 0, 2, 0, 0, 0, 10, 9, 0, 0, 0, 4, 0, 7, 0, 3, 0, 8, 0, 10, 8, 0, 9, 0, 0, 2, 1, 0, 0, 0, 0, 2, 5, 7, 6, 9, 0, 7, 10, 0, 8, 4, 5, 0, 7, 0, 6, 0, 8, 3, 10, 0, 0, 0, 0, 6, 0, 0, 0, 2, 0, 0, 10, 0, 2, 1, 0, 0, 5, 9, 0, 6, 0, 8, 0, 0, 8, 10, 9, 0, 1, 1, 5, 8, 0, 2, 5, 4, 0, 1, 0, 0, 0, 0, 0, 0, 0, 0, 1, 0, 2, 4, 8, 0, 0, 6, 9, 0, 0, 0, 0, 0, 0, 0, 7, 0, 0, 6, 0, 3, 9, 0, 0, 0, 2, 7, 6, 2, 3, 9, 0, 0, 0, 0, 7, 0, 2, 3, 0, 5, 7, 10, 4, 8, 7, 0, 0, 0, 0, 6, 0, 0, 0, 1, 0, 7, 0, 2, 0]);

suc = [
   {2, 3, 4},
   {80, 9, 7},
   {37, 5, 71},
   {8, 16, 6},
   {14},
   {56, 11, 23},
   {25, 26, 13},
   {17, 12, 41},
   {24, 10, 19},
   {35, 29},
   {40, 45, 15},
   {49, 22},
   {18},
   {88, 27, 52},
   {73, 43, 20},
   {57, 21, 30},
   {32},
   {61, 38, 31},
   {34, 28, 42},
   {64, 57, 58},
   {44, 79},
   {59},
   {82},
   {68},
   {66},
   {50, 62, 63},
   {33, 74},
   {79},
   {39},
   {83},
   {55},
   {85, 39},
   {48, 36, 54},
   {46},
   {52},
   {47},
   {63},
   {78},
   {48},
   {76},
   {69, 53, 76},
   {51, 60},
   {89},
   {65},
   {70},
   {78},
   {64},
   {63},
   {82},
   {52},
   {79},
   {67},
   {73},
   {61, 62},
   {73},
   {60, 77},
   {91},
   {83},
   {81},
   {68},
   {65},
   {78},
   {70},
   {80},
   {76},
   {75},
   {86},
   {83},
   {75, 84},
   {90},
   {72},
   {82},
   {89},
   {80},
   {81, 85},
   {81},
   {90},
   {87},
   {85},
   {87},
   {87},
   {86},
   {88, 86},
   {90},
   {88},
   {89},
   {91},
   {91},
   {92},
   {92},
   {92},
   {  } ];

deadline = array2d(1..92, 1..3, [3, 1, 2, 5, 1, 2, 8, 0, 3, 13, 0, 3, 13, 5, 0, 14, 1, 1, 19, 0, 4, 20, 2, 2, 20, 3, 3, 20, 5, 2, 21, 2, 2, 24, 5, 4, 25, 2, 4, 26, 1, 0, 28, 3, 2, 29, 2, 3, 29, 4, 2, 29, 0, 1, 39, 3, 4, 40, 3, 2, 41, 1, 3, 42, 2, 5, 45, 2, 4, 48, 4, 2, 49, 5, 2, 50, 2, 4, 50, 0, 1, 54, 2, 5, 55, 1, 1, 57, 2, 3, 58, 3, 2, 59, 0, 5, 60, 1, 5, 61, 3, 5, 63, 3, 5, 65, 5, 4, 65, 0, 2, 65, 4, 0, 72, 0, 3, 76, 3, 0, 79, 5, 1, 80, 4, 2, 80, 5, 1, 80, 1, 3, 81, 5, 5, 83, 5, 0, 86, 0, 4, 89, 5, 5, 89, 4, 0, 90, 0, 1, 90, 4, 4, 93, 1, 3, 95, 0, 1, 99, 4, 4, 104, 0, 2, 105, 5, 3, 105, 2, 3, 105, 1, 3, 105, 1, 0, 106, 2, 2, 108, 5, 0, 108, 2, 4, 110, 5, 3, 110, 0, 2, 111, 4, 2, 112, 4, 3, 116, 1, 1, 119, 4, 2, 119, 3, 4, 120, 4, 2, 122, 4, 1, 124, 5, 0, 126, 5, 2, 127, 0, 4, 128, 2, 4, 128, 0, 0, 134, 4, 4, 135, 4, 0, 138, 4, 4, 138, 4, 3, 139, 4, 3, 140, 3, 1, 144, 4, 0, 146, 2, 5, 148, 3, 2, 149, 3, 4, 149, 1, 1, 151, 2, 2, 160, 1, 1, 161, 0, 3, 163, 4, 1, 170, 3, 2]);
