n_res = 4;
rc = [ 47, 42, 42, 39 ];
n_tasks = 92;
d = [0, 3, 10, 5, 9, 10, 2, 8, 2, 5, 4, 5, 9, 1, 10, 8, 3, 8, 1, 3, 10, 5, 7, 5, 7, 5, 3, 1, 7, 3, 5, 5, 4, 4, 5, 9, 1, 9, 4, 8, 6, 6, 8, 7, 7, 8, 3, 6, 8, 9, 10, 2, 3, 3, 1, 9, 1, 4, 6, 7, 4, 3, 4, 9, 1, 4, 9, 3, 8, 3, 7, 7, 3, 2, 5, 4, 10, 8, 3, 9, 5, 8, 6, 10, 7, 10, 2, 7, 8, 1, 10, 0];
rr = array2d(1..4, 1..92, [0, 8, 4, 5, 10, 4, 3, 2, 10, 8, 6, 1, 6, 6, 10, 2, 7, 7, 9, 8, 1, 7, 6, 1, 8, 9, 8, 10, 3, 1, 1, 4, 10, 1, 4, 4, 3, 4, 9, 2, 9, 4, 1, 5, 2, 5, 1, 10, 9, 2, 6, 8, 7, 7, 6, 9, 10, 7, 6, 7, 9, 4, 3, 1, 6, 3, 1, 2, 10, 9, 2, 2, 5, 4, 4, 5, 6, 5, 6, 6, 6, 2, 2, 1, 4, 9, 4, 7, 5, 3, 9, 0, 0, 5, 9, 10, 5, 5, 9, 4, 9, 7, 10, 1, 8, 10, 4, 5, 9, 4, 6, 6, 3, 6, 1, 8, 6, 8, 8, 3, 2, 5, 9, 8, 7, 6, 6, 10, 8, 6, 3, 4, 3, 6, 8, 6, 2, 7, 10, 4, 8, 6, 10, 7, 3, 5, 3, 5, 2, 4, 4, 5, 9, 9, 7, 4, 6, 5, 1, 9, 9, 7, 10, 1, 8, 7, 8, 8, 4, 3, 2, 2, 8, 4, 7, 3, 5, 7, 4, 9, 6, 6, 9, 0, 0, 1, 5, 10, 7, 9, 8, 9, 4, 1, 7, 2, 1, 1, 9, 3, 2, 6, 9, 7, 5, 2, 5, 9, 9, 2, 9, 6, 8, 6, 2, 7, 2, 6, 4, 5, 8, 9, 2, 7, 7, 2, 9, 10, 8, 6, 9, 1, 6, 2, 8, 1, 5, 1, 3, 4, 9, 7, 4, 8, 8, 8, 4, 2, 10, 6, 10, 10, 1, 9, 2, 1, 5, 3, 6, 8, 9, 7, 9, 8, 10, 5, 1, 2, 3, 3, 4, 8, 10, 3, 10, 0, 0, 1, 2, 1, 10, 8, 2, 3, 10, 3, 5, 7, 1, 4, 10, 8, 5, 8, 10, 7, 1, 2, 2, 3, 7, 3, 8, 2, 6, 8, 8, 2, 8, 8, 3, 2, 8, 3, 1, 3, 9, 2, 9, 6, 3, 6, 4, 9, 4, 4, 2, 7, 4, 3, 4, 5, 4, 8, 1, 3, 5, 1, 6, 3, 6, 10, 9, 3, 1, 6, 9, 1, 6, 7, 7, 3, 10, 3, 9, 10, 2, 3, 2, 9, 9, 3, 7, 1, 2, 2, 1, 0]);

suc = [
   {2, 3, 4},
   {9, 27, 21},
   {24, 5, 6},
   {8, 20, 71},
   {10, 26, 15},
   {11, 30, 7},
   {16, 72, 39},
   {19, 12, 52},
   {13},
   {11, 79},
   {17, 34, 61},
   {57, 44, 14},
   {40, 65, 22},
   {58, 35, 28},
   {88},
   {48, 18, 37},
   {29, 38},
   {75},
   {32, 41, 55},
   {25, 74, 69},
   {39},
   {82, 23},
   {56, 36, 38},
   {33, 60, 54},
   {73},
   {31},
   {64, 51, 36},
   {36},
   {46},
   {43, 84, 37},
   {72, 81, 66},
   {67, 53},
   {84},
   {58, 46},
   {77},
   {49},
   {70, 47},
   {43},
   {40, 61, 47},
   {48, 42},
   {50, 47},
   {59},
   {77, 45},
   {55},
   {75},
   {64, 65},
   {49, 63},
   {63},
   {73},
   {69},
   {59},
   {55},
   {79},
   {65, 58, 62},
   {72, 66},
   {71},
   {89, 62},
   {81, 68},
   {82},
   {68, 69, 78},
   {88},
   {67, 84},
   {64, 80, 67},
   {73},
   {68, 77},
   {74, 90, 86},
   {81, 76},
   {91, 85, 70},
   {83, 79},
   {88},
   {76, 78},
   {74, 76},
   {75},
   {78},
   {85},
   {83},
   {85},
   {87},
   {80, 87},
   {82, 91},
   {83},
   {89},
   {90, 86},
   {86},
   {87},
   {91},
   {89},
   {90},
   {92},
   {92},
   {92},
   {  } ];

deadline = array2d(1..92, 1..3, [11, 3, 3, 12, 4, 0, 19, 4, 0, 22, 4, 0, 22, 3, 4, 24, 5, 0, 24, 0, 0, 26, 4, 2, 26, 1, 1, 29, 0, 2, 35, 2, 1, 42, 1, 5, 43, 0, 4, 44, 4, 1, 44, 5, 4, 44, 0, 3, 46, 3, 4, 55, 5, 3, 56, 5, 2, 60, 1, 3, 62, 0, 0, 62, 4, 3, 63, 5, 5, 64, 4, 1, 64, 3, 5, 67, 5, 5, 67, 2, 4, 69, 5, 1, 73, 1, 3, 74, 3, 5, 80, 2, 5, 80, 1, 3, 81, 0, 0, 83, 0, 1, 86, 5, 1, 89, 2, 2, 89, 3, 2, 96, 4, 1, 97, 3, 3, 100, 4, 4, 102, 5, 5, 103, 2, 2, 104, 5, 4, 107, 2, 3, 109, 4, 0, 110, 1, 3, 110, 3, 3, 113, 3, 3, 113, 1, 1, 117, 2, 3, 122, 1, 4, 123, 5, 2, 123, 2, 4, 124, 3, 0, 127, 3, 1, 128, 4, 5, 129, 2, 3, 130, 2, 1, 132, 3, 1, 133, 0, 5, 137, 3, 0, 137, 5, 2, 137, 5, 0, 140, 0, 3, 141, 1, 2, 147, 0, 0, 150, 3, 5, 150, 3, 5, 154, 3, 5, 154, 1, 4, 156, 3, 4, 159, 5, 1, 161, 1, 5, 167, 1, 2, 167, 4, 0, 168, 2, 1, 172, 2, 1, 172, 4, 2, 176, 0, 5, 179, 4, 5, 181, 5, 1, 181, 2, 3, 185, 2, 0, 185, 0, 1, 188, 4, 5, 191, 2, 5, 195, 3, 2, 196, 4, 3, 197, 2, 5, 201, 0, 0, 208, 1, 4, 209, 5, 2]);
