n_res = 4;
rc = [ 52, 56, 45, 63 ];
n_tasks = 92;
d = [0, 8, 4, 9, 7, 5, 7, 3, 3, 8, 10, 2, 1, 10, 1, 4, 1, 4, 9, 7, 1, 9, 2, 9, 3, 7, 4, 3, 6, 7, 5, 8, 9, 10, 5, 10, 2, 10, 9, 1, 9, 8, 9, 8, 10, 5, 8, 4, 6, 5, 7, 3, 10, 10, 3, 5, 8, 4, 6, 9, 3, 10, 3, 8, 10, 6, 2, 2, 7, 6, 6, 3, 5, 8, 10, 8, 9, 3, 8, 5, 4, 1, 5, 5, 6, 2, 7, 3, 7, 5, 4, 0];
rr = array2d(1..4, 1..92, [0, 8, 2, 2, 3, 5, 0, 4, 0, 7, 8, 0, 3, 1, 3, 1, 6, 0, 8, 5, 2, 9, 0, 2, 9, 1, 8, 6, 10, 9, 9, 8, 0, 0, 9, 10, 2, 7, 0, 6, 2, 1, 0, 5, 1, 0, 7, 10, 4, 0, 0, 1, 7, 10, 4, 5, 9, 9, 0, 6, 2, 2, 8, 5, 7, 2, 2, 2, 5, 2, 4, 9, 6, 4, 0, 8, 9, 2, 10, 0, 7, 9, 0, 0, 0, 2, 0, 4, 0, 9, 2, 0, 0, 9, 5, 8, 1, 0, 9, 9, 9, 6, 10, 7, 0, 1, 2, 5, 0, 0, 0, 9, 0, 6, 5, 6, 6, 8, 6, 0, 4, 9, 9, 5, 2, 1, 6, 0, 1, 3, 7, 6, 1, 6, 10, 3, 6, 8, 7, 0, 0, 0, 9, 7, 0, 0, 1, 3, 3, 0, 3, 7, 2, 3, 6, 7, 4, 1, 3, 9, 0, 0, 6, 8, 1, 1, 7, 0, 8, 10, 4, 6, 9, 6, 3, 0, 9, 4, 0, 0, 0, 10, 0, 0, 0, 0, 9, 5, 1, 0, 0, 2, 7, 3, 3, 8, 6, 9, 0, 10, 8, 0, 0, 0, 9, 8, 3, 0, 6, 5, 1, 0, 0, 2, 3, 0, 0, 1, 2, 4, 1, 0, 1, 8, 4, 4, 4, 0, 10, 0, 0, 0, 5, 7, 5, 3, 3, 2, 5, 10, 2, 10, 8, 4, 0, 1, 0, 0, 10, 5, 0, 10, 0, 9, 4, 0, 0, 2, 8, 6, 8, 10, 0, 8, 9, 0, 4, 3, 0, 7, 1, 1, 0, 3, 3, 0, 0, 0, 7, 2, 4, 7, 4, 1, 0, 8, 3, 6, 0, 10, 4, 0, 0, 8, 7, 6, 0, 4, 2, 0, 0, 8, 2, 0, 2, 6, 8, 0, 0, 8, 2, 8, 8, 10, 10, 5, 9, 2, 1, 8, 1, 10, 10, 8, 4, 8, 9, 10, 2, 3, 8, 1, 4, 8, 9, 9, 7, 5, 5, 1, 0, 0, 10, 2, 1, 5, 0, 8, 0, 7, 8, 4, 9, 0, 0, 4, 0, 7, 8, 9, 7, 3, 6, 0, 3, 6, 10, 0]);

suc = [
   {2, 3, 4},
   {9, 10, 15},
   {14, 87},
   {13, 5, 6},
   {45, 11, 37},
   {8, 32, 7},
   {33, 21},
   {12, 46},
   {65},
   {64, 19},
   {16, 83},
   {41, 30},
   {40, 42},
   {17, 20, 23},
   {18, 29},
   {52},
   {49, 85, 71},
   {53},
   {57},
   {22},
   {24, 25, 26},
   {56, 27, 44},
   {35, 29},
   {28},
   {56, 86, 47},
   {50},
   {48, 74, 35},
   {59},
   {54, 43, 38},
   {36, 68, 31},
   {90},
   {80, 82},
   {73, 34, 77},
   {60},
   {76, 53, 39},
   {58},
   {50},
   {80},
   {70},
   {49},
   {91},
   {55},
   {72, 60},
   {57, 70},
   {51},
   {49},
   {66},
   {91},
   {69},
   {88},
   {84, 69},
   {70},
   {63},
   {58},
   {82, 62},
   {67, 61},
   {67},
   {62},
   {62},
   {78},
   {79},
   {75},
   {64},
   {89, 78},
   {79},
   {67},
   {81},
   {82},
   {86},
   {73},
   {73},
   {74, 77},
   {75},
   {76},
   {88},
   {81},
   {85},
   {80},
   {81},
   {83},
   {84},
   {84},
   {90},
   {89},
   {89},
   {90},
   {88},
   {91},
   {92},
   {92},
   {92},
   {  } ];

deadline = array2d(1..92, 1..3, [1, 5, 2, 3, 5, 0, 4, 1, 2, 5, 5, 5, 6, 0, 4, 6, 0, 0, 13, 2, 4, 20, 2, 5, 21, 0, 4, 24, 1, 4, 28, 2, 1, 28, 0, 2, 31, 3, 0, 37, 4, 4, 39, 3, 4, 41, 1, 2, 44, 0, 3, 44, 4, 2, 45, 3, 1, 46, 0, 0, 48, 4, 0, 52, 2, 2, 52, 4, 5, 52, 0, 0, 58, 2, 3, 61, 5, 5, 63, 0, 0, 64, 4, 0, 64, 5, 3, 65, 2, 5, 68, 5, 2, 69, 2, 1, 74, 2, 4, 79, 3, 1, 82, 3, 2, 86, 4, 1, 86, 1, 2, 92, 1, 5, 94, 4, 0, 96, 0, 4, 96, 0, 0, 99, 4, 2, 101, 0, 0, 103, 4, 3, 104, 4, 4, 104, 3, 1, 105, 0, 0, 107, 1, 3, 110, 3, 1, 111, 5, 5, 112, 3, 5, 115, 3, 1, 115, 5, 1, 115, 1, 2, 115, 1, 3, 115, 5, 1, 118, 1, 3, 118, 0, 4, 118, 1, 2, 120, 5, 5, 120, 1, 2, 122, 4, 0, 122, 2, 3, 122, 1, 4, 124, 0, 4, 125, 3, 4, 125, 2, 3, 128, 1, 3, 129, 3, 3, 133, 0, 5, 133, 3, 2, 133, 4, 3, 134, 2, 0, 137, 4, 5, 141, 1, 4, 142, 4, 0, 143, 3, 1, 147, 1, 1, 150, 1, 4, 155, 4, 3, 156, 4, 1, 161, 1, 2, 162, 4, 4, 163, 3, 5, 169, 2, 5, 171, 5, 4, 173, 3, 3, 174, 2, 1, 178, 4, 1, 180, 3, 5, 187, 2, 4, 195, 0, 3]);
