n_res = 4;
rc = [ 43, 38, 38, 35 ];
n_tasks = 92;
d = [0, 5, 4, 8, 6, 2, 3, 3, 8, 4, 5, 3, 10, 2, 8, 1, 3, 7, 5, 4, 10, 4, 3, 8, 3, 4, 5, 10, 2, 5, 8, 9, 4, 9, 8, 1, 6, 10, 5, 9, 2, 6, 10, 6, 7, 7, 5, 10, 1, 5, 10, 9, 4, 9, 3, 9, 8, 5, 10, 8, 8, 9, 10, 3, 5, 8, 6, 9, 7, 7, 2, 4, 4, 10, 1, 1, 9, 8, 2, 10, 1, 6, 2, 8, 5, 2, 10, 7, 5, 9, 6, 0];
rr = array2d(1..4, 1..92, [0, 9, 10, 8, 0, 0, 0, 5, 6, 0, 7, 7, 0, 9, 0, 2, 0, 4, 7, 7, 9, 4, 0, 10, 0, 0, 8, 4, 6, 10, 9, 2, 3, 8, 0, 0, 2, 8, 6, 7, 7, 4, 0, 1, 10, 1, 2, 5, 5, 0, 7, 2, 0, 2, 3, 6, 7, 7, 4, 4, 0, 2, 3, 4, 1, 3, 9, 9, 2, 5, 0, 2, 2, 0, 1, 6, 7, 2, 0, 8, 0, 5, 5, 9, 2, 0, 0, 4, 6, 4, 10, 0, 0, 0, 0, 0, 0, 7, 5, 0, 5, 2, 5, 0, 3, 8, 0, 0, 7, 1, 9, 10, 8, 3, 0, 0, 6, 5, 0, 7, 6, 0, 8, 9, 4, 6, 1, 0, 4, 0, 9, 0, 3, 0, 10, 10, 0, 9, 5, 3, 1, 9, 6, 6, 1, 0, 0, 8, 1, 0, 8, 1, 0, 0, 7, 4, 8, 0, 10, 0, 8, 0, 9, 8, 7, 6, 7, 2, 3, 1, 4, 5, 4, 0, 0, 0, 0, 8, 2, 0, 7, 0, 1, 0, 0, 9, 2, 9, 1, 0, 4, 0, 7, 5, 10, 10, 5, 10, 9, 8, 5, 1, 0, 6, 3, 4, 8, 6, 0, 7, 0, 1, 7, 5, 1, 1, 7, 1, 3, 3, 0, 7, 0, 6, 3, 10, 3, 10, 9, 10, 0, 4, 5, 0, 0, 10, 0, 0, 3, 10, 3, 10, 2, 3, 7, 6, 10, 7, 1, 4, 10, 0, 6, 4, 4, 0, 2, 4, 0, 0, 0, 5, 5, 10, 10, 0, 7, 1, 4, 3, 1, 10, 6, 9, 4, 0, 0, 4, 10, 5, 0, 3, 6, 6, 5, 7, 5, 1, 4, 0, 8, 2, 1, 1, 0, 10, 6, 5, 0, 1, 10, 7, 4, 0, 4, 9, 0, 0, 10, 0, 5, 0, 6, 9, 0, 6, 0, 2, 9, 10, 0, 1, 3, 7, 8, 6, 8, 1, 10, 0, 3, 1, 0, 2, 10, 3, 1, 10, 5, 1, 1, 7, 10, 3, 8, 8, 9, 0, 8, 2, 7, 9, 0, 10, 2, 2, 9, 4, 6, 0, 10, 10, 3, 6, 5, 0, 5, 0]);

suc = [
   {2, 3, 4},
   {14, 22},
   {25, 19, 5},
   {9, 66, 35},
   {13, 6, 7},
   {8, 89, 15},
   {49, 10, 66},
   {12, 21, 23},
   {11, 22},
   {18, 44},
   {26, 20, 31},
   {28, 30, 55},
   {38, 22},
   {34, 43, 62},
   {16, 17, 36},
   {37},
   {67, 78},
   {56, 57},
   {24, 47},
   {42, 27, 39},
   {49},
   {30, 79},
   {46},
   {33},
   {45, 84, 29},
   {44},
   {64, 65},
   {48, 41, 71},
   {50, 67, 54},
   {32},
   {75, 39},
   {53, 63},
   {58, 53, 63},
   {40},
   {55},
   {52},
   {72, 57},
   {56, 63},
   {76},
   {66, 84},
   {65, 69},
   {85, 45, 46},
   {77},
   {48, 64, 60},
   {79, 55},
   {69},
   {75},
   {90, 53},
   {88},
   {64, 57, 51},
   {56, 58},
   {78},
   {80},
   {58, 69},
   {59},
   {74, 83},
   {73, 61},
   {91},
   {73},
   {74, 61, 62},
   {75, 86, 79},
   {65},
   {71},
   {71},
   {82, 67},
   {73, 68, 77},
   {72, 76, 77},
   {85, 70},
   {72, 81, 80},
   {89},
   {76, 78},
   {88},
   {80, 74},
   {86, 87},
   {82},
   {81},
   {81},
   {83},
   {87},
   {91},
   {83},
   {85, 87},
   {86},
   {89},
   {88},
   {90},
   {91},
   {90},
   {92},
   {92},
   {92},
   {  } ];

deadline = array2d(1..92, 1..3, [4, 2, 0, 6, 5, 2, 12, 3, 4, 13, 5, 1, 16, 3, 3, 17, 1, 4, 18, 5, 0, 19, 1, 2, 24, 4, 1, 24, 3, 4, 27, 1, 5, 29, 3, 5, 34, 1, 2, 40, 3, 3, 42, 4, 0, 45, 2, 1, 50, 5, 3, 52, 1, 2, 56, 0, 4, 57, 4, 3, 57, 1, 0, 57, 0, 3, 58, 5, 3, 59, 1, 4, 59, 5, 0, 59, 3, 4, 66, 2, 2, 69, 4, 2, 70, 2, 1, 70, 3, 4, 71, 4, 4, 72, 4, 4, 75, 0, 4, 76, 2, 1, 76, 4, 3, 80, 3, 0, 81, 3, 1, 83, 4, 4, 92, 1, 2, 96, 5, 4, 98, 0, 2, 104, 2, 2, 106, 1, 4, 107, 2, 0, 109, 4, 2, 112, 0, 0, 112, 0, 4, 112, 0, 4, 115, 3, 1, 118, 0, 5, 122, 3, 2, 122, 0, 3, 123, 0, 4, 124, 4, 1, 125, 2, 4, 127, 5, 1, 127, 0, 5, 129, 3, 1, 130, 1, 5, 130, 1, 1, 131, 4, 0, 137, 0, 4, 138, 2, 4, 139, 2, 0, 140, 2, 5, 141, 1, 2, 145, 4, 4, 146, 5, 4, 155, 2, 2, 156, 1, 4, 156, 1, 5, 157, 5, 2, 160, 4, 4, 165, 4, 2, 165, 4, 3, 167, 4, 1, 170, 2, 5, 171, 0, 2, 175, 4, 0, 179, 2, 2, 189, 0, 4, 189, 5, 5, 190, 1, 1, 190, 1, 1, 194, 5, 0, 194, 0, 4, 200, 0, 2, 200, 4, 1, 202, 3, 3, 203, 0, 5, 204, 2, 3, 205, 3, 3]);
