n_res = 4;
rc = [ 15, 14, 14, 15 ];
n_tasks = 92;
d = [0, 8, 7, 7, 10, 10, 4, 9, 3, 6, 3, 9, 3, 10, 1, 5, 3, 4, 5, 10, 6, 10, 10, 6, 1, 2, 10, 3, 10, 10, 4, 4, 6, 3, 5, 10, 7, 8, 9, 10, 1, 4, 2, 10, 9, 1, 1, 6, 10, 10, 10, 1, 10, 9, 3, 9, 3, 4, 8, 10, 7, 8, 5, 5, 9, 2, 8, 9, 1, 3, 1, 5, 5, 3, 5, 10, 5, 3, 5, 4, 6, 5, 9, 9, 3, 6, 7, 8, 8, 4, 6, 0];
rr = array2d(1..4, 1..92, [0, 0, 0, 1, 0, 0, 0, 0, 0, 0, 0, 0, 0, 8, 0, 0, 0, 0, 0, 0, 0, 2, 0, 0, 5, 0, 10, 0, 5, 10, 0, 0, 9, 0, 0, 0, 0, 0, 3, 7, 0, 0, 4, 2, 8, 0, 0, 6, 0, 0, 1, 0, 0, 0, 0, 0, 0, 8, 0, 6, 0, 0, 0, 0, 0, 0, 0, 0, 0, 0, 9, 0, 0, 0, 0, 0, 0, 0, 0, 0, 0, 3, 0, 0, 0, 6, 0, 0, 0, 0, 0, 0, 0, 0, 0, 0, 0, 1, 0, 7, 0, 0, 0, 0, 3, 0, 3, 4, 6, 0, 3, 9, 0, 0, 0, 0, 0, 0, 0, 0, 0, 0, 0, 0, 0, 0, 0, 10, 0, 10, 0, 0, 0, 10, 0, 0, 0, 0, 4, 0, 7, 0, 0, 0, 0, 0, 0, 5, 0, 0, 0, 0, 0, 0, 0, 0, 0, 1, 5, 0, 0, 0, 0, 6, 0, 0, 5, 0, 8, 0, 0, 0, 0, 0, 0, 0, 0, 0, 0, 3, 7, 7, 3, 0, 0, 2, 5, 0, 0, 0, 4, 0, 0, 6, 0, 6, 0, 0, 0, 0, 0, 4, 0, 0, 0, 0, 0, 1, 0, 8, 0, 0, 0, 0, 0, 0, 0, 0, 0, 0, 10, 0, 0, 0, 0, 0, 0, 0, 0, 10, 0, 0, 0, 0, 0, 4, 0, 9, 0, 0, 0, 0, 10, 0, 0, 10, 3, 8, 3, 0, 0, 4, 10, 0, 0, 0, 9, 4, 0, 1, 0, 0, 5, 0, 4, 0, 0, 0, 0, 0, 0, 0, 0, 0, 0, 0, 0, 0, 0, 0, 8, 0, 0, 0, 9, 0, 6, 0, 0, 0, 0, 0, 0, 0, 0, 0, 8, 0, 4, 0, 0, 0, 0, 6, 0, 0, 2, 10, 0, 8, 9, 0, 0, 0, 0, 0, 10, 0, 0, 0, 0, 0, 0, 0, 0, 8, 0, 0, 10, 0, 2, 0, 7, 0, 0, 0, 1, 0, 0, 0, 0, 0, 0, 0, 0, 9, 0, 0, 0, 0, 0, 0, 0, 6, 0, 8, 0, 0, 6, 6, 7, 0, 6, 0, 0, 0, 0, 0]);

suc = [
   {2, 3, 4},
   {8, 50, 6},
   {59, 52, 5},
   {9, 12, 7},
   {24, 17, 11},
   {10, 53, 29},
   {27},
   {41, 63},
   {26, 21, 14},
   {20, 22, 15},
   {81, 83, 13},
   {16, 49, 64},
   {58, 55},
   {43, 19},
   {23},
   {40, 37},
   {33, 18, 46},
   {28, 69},
   {62},
   {25, 34, 44},
   {76},
   {38},
   {60, 37, 39},
   {32, 30},
   {87},
   {57, 35, 30},
   {31},
   {31},
   {36, 45},
   {43},
   {61, 78, 71},
   {49},
   {61},
   {63},
   {56, 80},
   {47},
   {80},
   {56},
   {46},
   {72, 42},
   {54},
   {66},
   {48, 51},
   {68},
   {57},
   {72, 49},
   {90},
   {73},
   {75, 77},
   {67},
   {58},
   {65, 78},
   {58},
   {80},
   {72},
   {81},
   {74},
   {68},
   {89},
   {66},
   {70},
   {63},
   {76},
   {70},
   {88, 84},
   {71},
   {79},
   {74, 86},
   {76},
   {84},
   {90},
   {73},
   {89},
   {75},
   {87},
   {91, 79},
   {83, 86},
   {84},
   {81},
   {87},
   {82},
   {85},
   {85},
   {89},
   {88},
   {91},
   {88},
   {90},
   {92},
   {92},
   {92},
   {  } ];

deadline = array2d(1..92, 1..3, [3, 5, 5, 4, 1, 2, 5, 3, 1, 6, 4, 4, 8, 0, 0, 8, 5, 0, 9, 3, 2, 9, 3, 2, 17, 4, 5, 17, 1, 5, 25, 4, 2, 26, 1, 0, 29, 3, 2, 29, 2, 1, 30, 4, 5, 30, 5, 4, 32, 5, 4, 32, 3, 0, 36, 2, 2, 38, 4, 0, 40, 2, 5, 42, 5, 1, 44, 2, 3, 47, 0, 2, 48, 3, 3, 48, 3, 2, 49, 4, 0, 49, 3, 1, 58, 5, 0, 59, 5, 3, 59, 3, 3, 62, 0, 2, 65, 4, 4, 67, 5, 5, 69, 1, 4, 76, 2, 4, 78, 3, 2, 81, 1, 3, 87, 0, 0, 90, 3, 1, 92, 3, 3, 98, 1, 3, 100, 4, 2, 102, 0, 4, 103, 3, 0, 103, 2, 4, 103, 1, 4, 108, 1, 2, 109, 4, 1, 111, 3, 3, 115, 2, 0, 115, 0, 4, 119, 5, 0, 123, 3, 0, 125, 0, 1, 128, 5, 1, 140, 5, 4, 143, 3, 0, 144, 0, 2, 147, 5, 5, 149, 1, 2, 159, 1, 5, 160, 3, 1, 161, 1, 5, 162, 5, 1, 166, 5, 5, 167, 1, 1, 172, 5, 0, 174, 4, 4, 177, 0, 2, 179, 2, 3, 183, 0, 0, 184, 3, 5, 186, 5, 4, 187, 5, 1, 191, 3, 5, 193, 3, 3, 194, 4, 4, 194, 1, 0, 195, 3, 3, 196, 5, 5, 198, 1, 1, 199, 2, 1, 202, 2, 2, 203, 0, 0, 204, 4, 1, 206, 2, 2, 206, 2, 0, 206, 1, 5, 207, 0, 0, 211, 3, 1, 212, 2, 2]);
