n_res = 4;
rc = [ 44, 51, 46, 51 ];
n_tasks = 92;
d = [0, 7, 6, 2, 4, 1, 4, 4, 6, 7, 9, 8, 10, 6, 1, 4, 6, 3, 10, 5, 6, 10, 3, 8, 4, 4, 8, 5, 8, 5, 7, 7, 3, 6, 7, 5, 3, 8, 8, 9, 6, 3, 8, 9, 6, 5, 6, 8, 3, 2, 10, 4, 7, 7, 1, 2, 3, 2, 6, 5, 10, 2, 6, 4, 3, 10, 5, 8, 3, 3, 9, 2, 7, 10, 5, 10, 3, 7, 8, 9, 10, 1, 2, 8, 10, 1, 3, 5, 1, 4, 6, 0];
rr = array2d(1..4, 1..92, [0, 9, 7, 9, 5, 3, 7, 10, 3, 10, 6, 1, 2, 9, 4, 7, 4, 7, 1, 3, 3, 3, 2, 5, 5, 1, 10, 8, 9, 1, 7, 10, 7, 6, 10, 9, 5, 4, 7, 2, 4, 9, 10, 5, 2, 1, 10, 4, 1, 10, 2, 8, 7, 3, 8, 10, 10, 1, 2, 8, 4, 6, 6, 1, 8, 5, 2, 8, 8, 5, 9, 3, 8, 5, 3, 1, 8, 1, 4, 10, 4, 9, 8, 10, 2, 1, 3, 10, 10, 4, 5, 0, 0, 8, 9, 8, 4, 3, 6, 9, 1, 7, 1, 7, 8, 4, 3, 1, 7, 10, 4, 3, 2, 4, 4, 8, 7, 10, 7, 1, 7, 6, 5, 10, 1, 6, 9, 1, 6, 4, 8, 5, 1, 9, 10, 1, 5, 4, 9, 10, 6, 8, 1, 8, 3, 6, 7, 7, 10, 6, 2, 3, 6, 8, 8, 3, 8, 3, 10, 5, 7, 3, 5, 8, 10, 10, 5, 6, 3, 8, 8, 8, 10, 3, 6, 3, 9, 2, 3, 7, 5, 3, 1, 0, 0, 7, 4, 6, 8, 3, 3, 5, 7, 7, 5, 5, 9, 4, 3, 6, 7, 9, 2, 3, 2, 5, 1, 4, 9, 5, 1, 9, 8, 6, 6, 8, 9, 2, 1, 5, 10, 10, 8, 8, 8, 10, 5, 3, 2, 7, 2, 8, 7, 8, 8, 8, 10, 7, 9, 10, 9, 10, 1, 5, 10, 1, 5, 5, 2, 4, 2, 10, 5, 3, 10, 4, 10, 7, 6, 4, 5, 8, 7, 6, 2, 6, 5, 4, 7, 9, 8, 2, 3, 4, 3, 0, 0, 1, 3, 6, 8, 1, 9, 6, 7, 10, 4, 6, 7, 6, 4, 6, 9, 10, 7, 2, 7, 10, 3, 8, 4, 6, 2, 5, 2, 8, 10, 6, 7, 7, 4, 9, 6, 9, 7, 5, 6, 2, 8, 6, 5, 7, 1, 10, 10, 3, 10, 7, 5, 8, 5, 6, 5, 1, 6, 4, 4, 5, 4, 5, 5, 3, 1, 9, 4, 7, 4, 3, 8, 9, 9, 10, 3, 4, 5, 7, 6, 7, 6, 8, 3, 5, 6, 7, 8, 9, 6, 0]);

suc = [
   {2, 3, 4},
   {8, 10, 5},
   {90, 21, 71},
   {57, 36, 46},
   {16, 46, 6},
   {9, 11, 7},
   {12, 44, 39},
   {26, 52, 23},
   {13, 14, 30},
   {56, 80, 29},
   {25, 21, 22},
   {18, 61, 54},
   {17, 19, 15},
   {89, 45},
   {34, 42, 22},
   {33, 27, 20},
   {64, 58, 62},
   {24, 43, 35},
   {57, 84, 31},
   {65, 38},
   {58, 44},
   {41, 66, 54},
   {60, 71},
   {73, 33, 49},
   {32, 56, 39},
   {58, 70, 47},
   {50, 28, 53},
   {37, 55},
   {34, 36, 50},
   {49, 31},
   {47, 37, 39},
   {48},
   {68},
   {41},
   {49, 51, 36},
   {48, 42, 77},
   {66, 61},
   {40, 41, 70},
   {64, 77, 78},
   {59, 44},
   {72, 59, 45},
   {52, 69, 60},
   {73, 76, 47},
   {50, 66},
   {74, 51, 60},
   {82, 69},
   {51},
   {68, 63},
   {65, 55},
   {73, 63},
   {86},
   {65},
   {74, 78, 55},
   {67},
   {56, 62},
   {67, 68},
   {80, 59, 63},
   {67},
   {64, 61},
   {85, 62},
   {74, 78},
   {84, 87},
   {72},
   {83, 85, 71},
   {72, 81},
   {80, 75, 76},
   {75},
   {82, 69},
   {81, 70},
   {88, 84},
   {75, 86, 79},
   {86},
   {88},
   {85, 76, 77},
   {88},
   {82, 79},
   {79},
   {87},
   {87},
   {81, 83},
   {89},
   {83},
   {91},
   {90},
   {90},
   {91},
   {91},
   {89},
   {92},
   {92},
   {92},
   {  } ];

deadline = array2d(1..92, 1..3, [1, 4, 0, 7, 3, 4, 8, 1, 5, 10, 0, 4, 11, 3, 1, 16, 3, 4, 17, 2, 3, 18, 0, 4, 19, 2, 1, 20, 5, 5, 21, 2, 0, 23, 3, 2, 23, 0, 2, 24, 2, 2, 28, 4, 0, 30, 1, 1, 31, 1, 2, 32, 3, 2, 42, 2, 5, 44, 3, 5, 49, 2, 5, 51, 4, 4, 52, 1, 4, 54, 1, 4, 57, 4, 4, 61, 4, 2, 62, 0, 0, 63, 1, 5, 64, 5, 4, 65, 0, 0, 65, 3, 4, 70, 0, 0, 76, 1, 5, 79, 5, 4, 80, 5, 4, 80, 4, 0, 81, 2, 0, 82, 2, 1, 92, 2, 1, 94, 4, 1, 95, 2, 1, 96, 0, 0, 97, 1, 4, 97, 5, 0, 97, 2, 3, 99, 0, 0, 103, 2, 1, 105, 0, 2, 106, 3, 5, 106, 0, 3, 109, 4, 0, 123, 3, 4, 124, 2, 2, 127, 4, 4, 128, 5, 4, 131, 2, 3, 138, 2, 4, 141, 5, 2, 144, 2, 1, 150, 2, 2, 151, 0, 1, 154, 0, 5, 154, 4, 3, 154, 5, 4, 164, 2, 3, 164, 0, 5, 169, 4, 2, 169, 1, 5, 171, 1, 0, 173, 4, 4, 174, 0, 0, 175, 3, 3, 183, 1, 2, 184, 1, 5, 184, 0, 0, 186, 0, 2, 189, 1, 3, 196, 0, 4, 197, 2, 2, 198, 2, 4, 202, 3, 4, 204, 2, 3, 211, 4, 2, 219, 3, 4, 225, 0, 3, 225, 3, 0, 227, 5, 4, 230, 0, 3, 234, 2, 0, 242, 5, 1, 242, 5, 3, 242, 2, 0]);
