n_res = 4;
rc = [ 79, 80, 91, 81 ];
n_tasks = 92;
d = [0, 9, 3, 7, 8, 5, 6, 5, 4, 8, 5, 1, 2, 2, 10, 2, 10, 9, 10, 7, 10, 4, 8, 10, 6, 10, 8, 1, 8, 10, 8, 6, 6, 9, 3, 10, 4, 1, 6, 7, 9, 8, 2, 6, 9, 5, 10, 2, 2, 6, 5, 2, 4, 6, 7, 3, 6, 7, 3, 4, 9, 1, 5, 10, 7, 5, 3, 8, 6, 10, 3, 10, 10, 4, 10, 7, 5, 4, 3, 2, 3, 3, 10, 5, 2, 9, 1, 2, 1, 2, 5, 0];
rr = array2d(1..4, 1..92, [0, 9, 9, 1, 3, 2, 9, 4, 5, 3, 1, 2, 9, 8, 8, 10, 10, 1, 10, 2, 4, 3, 6, 4, 9, 4, 10, 5, 2, 1, 7, 10, 10, 8, 8, 8, 7, 3, 8, 9, 2, 10, 1, 1, 2, 7, 5, 6, 8, 10, 2, 10, 3, 4, 6, 5, 6, 2, 8, 4, 1, 9, 7, 6, 9, 8, 5, 2, 4, 1, 6, 5, 7, 10, 5, 2, 1, 2, 6, 5, 3, 4, 5, 8, 1, 9, 4, 9, 9, 4, 8, 0, 0, 8, 8, 5, 8, 4, 1, 5, 8, 5, 5, 8, 10, 1, 3, 10, 3, 9, 8, 3, 6, 2, 4, 1, 3, 7, 3, 3, 8, 3, 5, 5, 4, 1, 8, 2, 1, 5, 2, 9, 5, 1, 3, 5, 2, 9, 5, 1, 10, 2, 9, 4, 9, 4, 9, 4, 6, 5, 3, 4, 2, 9, 9, 2, 6, 9, 5, 9, 2, 6, 6, 6, 4, 2, 5, 8, 3, 5, 1, 9, 3, 7, 5, 7, 6, 9, 9, 1, 3, 6, 10, 0, 0, 1, 8, 9, 8, 5, 5, 1, 6, 5, 9, 9, 7, 9, 7, 4, 1, 10, 8, 4, 6, 4, 7, 1, 6, 1, 10, 8, 9, 7, 5, 1, 1, 2, 3, 10, 9, 6, 10, 9, 8, 8, 3, 3, 5, 4, 9, 8, 6, 5, 5, 2, 10, 3, 2, 4, 8, 5, 3, 8, 4, 7, 3, 6, 4, 6, 1, 2, 5, 10, 4, 8, 3, 4, 2, 3, 1, 9, 4, 10, 4, 2, 9, 1, 7, 9, 3, 1, 5, 4, 3, 0, 0, 3, 10, 10, 1, 8, 7, 8, 3, 6, 8, 6, 5, 7, 7, 7, 6, 7, 7, 2, 3, 10, 1, 5, 2, 2, 4, 3, 3, 8, 8, 3, 3, 2, 10, 7, 5, 7, 5, 1, 5, 4, 1, 2, 7, 8, 6, 10, 4, 6, 9, 9, 8, 7, 6, 2, 6, 9, 4, 6, 7, 3, 5, 2, 2, 1, 9, 7, 4, 4, 1, 7, 10, 9, 4, 3, 3, 8, 10, 10, 9, 2, 7, 6, 6, 5, 3, 6, 10, 5, 6, 0]);

suc = [
   {2, 3, 4},
   {16, 5, 7},
   {9, 28, 22},
   {20, 6, 44},
   {76, 53},
   {11, 62},
   {8, 12, 15},
   {24, 58},
   {10, 19, 13},
   {50, 45},
   {25, 27, 23},
   {32, 18, 14},
   {64, 17, 26},
   {46},
   {46, 21, 38},
   {35, 27, 36},
   {41, 18, 52},
   {33, 37, 31},
   {91},
   {43, 30},
   {71, 70, 63},
   {48},
   {49, 34, 52},
   {63},
   {28, 36},
   {73, 43, 39},
   {29, 55},
   {86},
   {89, 47},
   {56, 54},
   {76, 54},
   {57},
   {42, 50},
   {40, 75, 60},
   {39},
   {85},
   {65},
   {69},
   {49, 46},
   {42, 84},
   {45},
   {83, 51},
   {60},
   {73, 65},
   {67, 61},
   {71},
   {56, 78},
   {50, 67, 68},
   {60, 78},
   {81, 82},
   {56, 91},
   {65, 66, 70},
   {69, 79},
   {72},
   {59},
   {82, 77},
   {61},
   {80, 62},
   {88, 70},
   {67, 77, 71},
   {80, 68, 78},
   {68},
   {66},
   {72, 74},
   {74},
   {76, 87, 79},
   {72, 74},
   {79},
   {73},
   {91},
   {85},
   {80, 83},
   {75},
   {87},
   {81, 87},
   {84, 77},
   {90},
   {82},
   {83},
   {81, 84},
   {85},
   {88},
   {86},
   {86},
   {89},
   {89, 90},
   {88},
   {90},
   {92},
   {92},
   {92},
   {  } ];

deadline = array2d(1..92, 1..3, [1, 2, 5, 1, 4, 5, 1, 3, 0, 3, 3, 2, 4, 4, 4, 10, 4, 1, 10, 5, 3, 13, 3, 4, 15, 5, 4, 16, 1, 4, 18, 3, 1, 19, 1, 1, 21, 5, 5, 23, 5, 2, 24, 0, 3, 26, 0, 3, 29, 3, 0, 29, 1, 3, 30, 5, 4, 30, 0, 2, 30, 0, 1, 30, 0, 3, 33, 1, 3, 35, 3, 5, 37, 5, 4, 44, 5, 2, 46, 5, 4, 46, 5, 4, 50, 2, 2, 51, 5, 5, 55, 3, 1, 56, 0, 0, 62, 4, 1, 69, 1, 2, 70, 2, 4, 71, 0, 4, 73, 1, 1, 73, 0, 4, 79, 0, 2, 85, 2, 2, 89, 0, 0, 90, 5, 2, 93, 2, 5, 95, 1, 0, 96, 1, 4, 97, 1, 4, 104, 1, 2, 107, 3, 5, 107, 5, 3, 109, 2, 2, 110, 0, 4, 112, 5, 0, 112, 2, 3, 113, 4, 3, 115, 4, 2, 117, 2, 5, 120, 5, 5, 120, 0, 1, 120, 0, 5, 124, 5, 1, 126, 4, 4, 127, 3, 4, 132, 2, 0, 134, 3, 2, 134, 2, 0, 136, 1, 4, 136, 4, 4, 137, 0, 5, 139, 4, 1, 139, 4, 2, 145, 2, 3, 147, 1, 0, 156, 4, 4, 158, 4, 2, 159, 1, 2, 162, 3, 0, 163, 1, 4, 166, 0, 3, 167, 0, 1, 173, 5, 4, 174, 0, 2, 176, 0, 0, 176, 0, 0, 178, 4, 5, 178, 4, 2, 185, 2, 0, 186, 4, 5, 188, 0, 2, 190, 3, 2, 190, 4, 3, 190, 4, 4, 194, 0, 1]);
