n_res = 4;
rc = [ 43, 45, 53, 51 ];
n_tasks = 92;
d = [0, 10, 4, 2, 1, 6, 5, 6, 2, 8, 9, 9, 8, 9, 6, 7, 7, 1, 6, 3, 10, 6, 2, 7, 8, 5, 5, 3, 4, 2, 9, 9, 6, 7, 6, 8, 9, 5, 6, 1, 2, 8, 4, 4, 6, 5, 3, 6, 3, 9, 8, 9, 8, 9, 4, 3, 1, 9, 3, 9, 6, 8, 5, 5, 6, 1, 10, 7, 6, 7, 10, 9, 10, 6, 1, 7, 5, 8, 1, 6, 8, 6, 1, 5, 10, 10, 6, 3, 2, 9, 3, 0];
rr = array2d(1..4, 1..92, [0, 7, 6, 4, 4, 4, 1, 4, 8, 2, 4, 2, 8, 2, 7, 7, 10, 8, 10, 8, 8, 3, 8, 4, 1, 5, 9, 10, 8, 6, 4, 7, 1, 6, 6, 10, 2, 5, 3, 6, 1, 5, 7, 5, 3, 6, 5, 4, 6, 3, 3, 8, 8, 5, 7, 2, 7, 9, 5, 2, 2, 5, 6, 1, 10, 6, 10, 3, 9, 10, 5, 10, 5, 10, 4, 5, 1, 5, 2, 3, 9, 5, 2, 3, 7, 4, 8, 10, 1, 10, 7, 0, 0, 8, 4, 5, 8, 4, 9, 4, 2, 1, 9, 3, 6, 5, 8, 6, 7, 5, 6, 10, 6, 10, 2, 4, 4, 8, 8, 9, 3, 8, 6, 1, 2, 6, 1, 8, 1, 8, 4, 1, 7, 3, 10, 8, 6, 7, 10, 4, 3, 1, 6, 4, 4, 7, 7, 5, 8, 4, 8, 10, 5, 3, 9, 2, 4, 7, 5, 5, 2, 9, 7, 7, 7, 9, 2, 8, 1, 7, 8, 2, 2, 6, 8, 2, 10, 4, 3, 10, 8, 9, 2, 0, 0, 5, 2, 3, 5, 4, 1, 1, 5, 5, 7, 1, 6, 3, 4, 10, 6, 1, 2, 4, 8, 6, 8, 2, 6, 2, 10, 8, 6, 7, 5, 5, 5, 5, 6, 4, 9, 2, 6, 6, 7, 9, 5, 10, 3, 6, 8, 6, 10, 2, 1, 10, 9, 2, 4, 2, 10, 4, 6, 1, 6, 1, 8, 5, 8, 8, 8, 3, 6, 1, 1, 5, 10, 9, 4, 7, 1, 8, 3, 6, 7, 1, 7, 9, 8, 4, 8, 9, 9, 4, 7, 0, 0, 1, 3, 10, 3, 5, 1, 2, 4, 3, 10, 10, 5, 8, 9, 8, 6, 4, 10, 5, 8, 3, 7, 4, 8, 5, 2, 5, 7, 4, 6, 5, 3, 1, 7, 4, 5, 7, 3, 10, 9, 6, 7, 9, 3, 7, 5, 8, 3, 6, 2, 2, 4, 6, 7, 1, 7, 5, 7, 3, 3, 7, 5, 6, 10, 10, 1, 10, 8, 2, 10, 4, 2, 7, 2, 4, 9, 3, 1, 4, 10, 3, 10, 1, 4, 5, 4, 3, 9, 1, 7, 0]);

suc = [
   {2, 3, 4},
   {8, 82, 6},
   {32, 5, 7},
   {25, 20, 23},
   {10, 27},
   {24, 35, 30},
   {17, 26, 29},
   {40, 9, 11},
   {38, 45, 14},
   {37, 13, 31},
   {88, 50, 12},
   {16, 18, 15},
   {66, 52, 71},
   {76, 63, 47},
   {81, 65, 68},
   {49, 36, 57},
   {33, 69, 53},
   {19, 21, 22},
   {20, 79},
   {90, 27, 47},
   {83, 77},
   {74, 52, 37},
   {72, 34, 61},
   {89, 28, 61},
   {72},
   {82, 28, 44},
   {43, 55},
   {33, 49, 39},
   {39, 37, 31},
   {41, 59, 31},
   {34, 51, 46},
   {48, 33, 41},
   {56, 42, 58},
   {73, 63},
   {43, 44, 39},
   {65, 42, 62},
   {58, 45, 79},
   {65},
   {42, 66, 45},
   {78},
   {56, 60, 76},
   {74, 54},
   {64, 68, 46},
   {73, 59, 47},
   {54},
   {60, 69, 62},
   {49, 51, 53},
   {70},
   {54},
   {57, 51, 52},
   {78, 71},
   {61, 60, 53},
   {58, 87, 55},
   {83, 68},
   {78},
   {64, 88},
   {73, 59, 76},
   {64, 85},
   {62},
   {67},
   {90},
   {84, 70},
   {66, 75, 70},
   {67},
   {71},
   {67, 69},
   {81},
   {86},
   {86},
   {74, 87},
   {75, 85},
   {80, 82},
   {75, 85, 77},
   {81},
   {84},
   {77, 87},
   {79},
   {80},
   {80},
   {84},
   {91},
   {88, 83},
   {86},
   {89},
   {91},
   {91},
   {89},
   {90},
   {92},
   {92},
   {92},
   {  } ];

deadline = array2d(1..92, 1..3, [2, 0, 1, 4, 4, 0, 5, 5, 3, 8, 4, 3, 12, 1, 4, 13, 2, 5, 16, 3, 2, 20, 0, 1, 22, 2, 0, 23, 5, 5, 23, 2, 5, 25, 5, 1, 26, 1, 5, 27, 0, 3, 33, 4, 3, 33, 4, 3, 35, 1, 0, 35, 2, 4, 36, 3, 0, 37, 5, 2, 37, 2, 1, 37, 4, 3, 46, 5, 5, 62, 2, 4, 63, 3, 2, 65, 5, 0, 66, 3, 5, 67, 2, 0, 70, 0, 1, 71, 5, 3, 81, 1, 2, 81, 5, 0, 85, 2, 2, 87, 5, 3, 90, 4, 4, 90, 1, 4, 94, 3, 2, 97, 5, 4, 99, 0, 3, 100, 4, 1, 106, 0, 2, 109, 4, 5, 111, 2, 1, 111, 1, 1, 111, 1, 2, 113, 1, 3, 117, 4, 1, 117, 3, 3, 124, 2, 4, 126, 5, 5, 127, 2, 5, 132, 3, 2, 135, 4, 3, 137, 0, 4, 141, 4, 0, 144, 3, 0, 152, 5, 5, 153, 2, 2, 155, 5, 0, 158, 1, 2, 158, 0, 4, 160, 3, 0, 165, 3, 0, 169, 2, 3, 169, 0, 5, 173, 1, 4, 174, 0, 0, 179, 2, 0, 181, 2, 4, 185, 1, 2, 187, 1, 2, 188, 2, 0, 189, 4, 1, 190, 4, 0, 196, 1, 5, 198, 2, 5, 198, 4, 5, 199, 0, 5, 200, 0, 4, 201, 4, 0, 206, 2, 1, 207, 0, 4, 209, 5, 1, 210, 1, 3, 210, 3, 2, 211, 1, 3, 211, 5, 4, 221, 2, 2, 226, 4, 1, 227, 2, 3, 229, 4, 1, 231, 0, 2]);
