n_res = 4;
rc = [ 54, 57, 54, 59 ];
n_tasks = 92;
d = [0, 2, 5, 8, 6, 10, 5, 5, 2, 8, 3, 7, 9, 1, 5, 10, 6, 8, 3, 10, 1, 9, 1, 1, 5, 3, 7, 1, 4, 5, 6, 4, 3, 1, 1, 7, 5, 8, 7, 7, 5, 3, 2, 10, 10, 8, 3, 3, 9, 4, 5, 5, 5, 4, 10, 4, 7, 7, 5, 2, 6, 3, 4, 10, 10, 8, 4, 8, 3, 5, 9, 8, 6, 7, 3, 4, 10, 5, 8, 6, 3, 2, 2, 6, 6, 9, 2, 10, 6, 8, 9, 0];
rr = array2d(1..4, 1..92, [0, 8, 5, 3, 9, 6, 7, 2, 3, 0, 0, 2, 9, 2, 7, 0, 0, 0, 8, 3, 1, 2, 0, 2, 3, 0, 6, 8, 0, 1, 0, 0, 9, 2, 0, 0, 4, 0, 5, 8, 0, 7, 9, 5, 0, 9, 6, 6, 5, 5, 0, 2, 5, 9, 0, 0, 7, 1, 0, 1, 7, 0, 6, 8, 8, 0, 3, 9, 0, 1, 0, 9, 6, 7, 3, 6, 9, 0, 10, 0, 5, 8, 3, 4, 9, 0, 9, 7, 10, 9, 4, 0, 0, 8, 5, 8, 0, 0, 0, 5, 3, 4, 0, 0, 3, 10, 0, 7, 5, 0, 8, 4, 5, 0, 3, 0, 4, 2, 9, 3, 4, 8, 8, 1, 3, 0, 5, 5, 0, 9, 7, 0, 6, 4, 9, 5, 4, 4, 4, 0, 0, 1, 0, 0, 2, 0, 0, 10, 3, 0, 8, 3, 10, 8, 10, 4, 1, 10, 0, 5, 10, 2, 8, 7, 5, 3, 1, 9, 5, 4, 8, 5, 6, 10, 2, 0, 1, 7, 5, 7, 0, 0, 3, 0, 0, 4, 7, 4, 0, 8, 1, 4, 6, 7, 7, 3, 7, 6, 3, 2, 9, 0, 9, 1, 8, 8, 5, 8, 0, 0, 0, 4, 3, 6, 3, 0, 3, 0, 10, 0, 1, 7, 5, 4, 1, 0, 9, 3, 10, 5, 5, 1, 4, 0, 5, 0, 10, 3, 5, 10, 6, 1, 1, 10, 10, 4, 10, 9, 2, 1, 7, 0, 1, 2, 10, 0, 9, 7, 6, 1, 0, 8, 0, 7, 8, 0, 8, 7, 2, 4, 1, 3, 10, 7, 7, 0, 0, 5, 0, 5, 7, 0, 9, 0, 8, 0, 0, 2, 9, 0, 5, 0, 5, 1, 10, 6, 3, 3, 4, 5, 0, 1, 4, 0, 5, 0, 0, 5, 5, 0, 9, 10, 10, 0, 10, 6, 5, 9, 7, 2, 1, 5, 7, 4, 6, 6, 3, 9, 0, 8, 4, 1, 0, 0, 5, 3, 3, 8, 0, 0, 3, 3, 7, 4, 0, 8, 4, 3, 0, 8, 8, 2, 8, 3, 6, 0, 6, 10, 0, 6, 3, 8, 0, 10, 1, 9, 0, 0]);

suc = [
   {2, 3, 4},
   {64, 33, 5},
   {16, 72, 7},
   {65, 19, 6},
   {16, 10, 29},
   {8, 9, 15},
   {18, 11, 21},
   {12, 23},
   {35, 36, 13},
   {50},
   {14, 31},
   {25, 28, 30},
   {17, 42, 38},
   {32, 49, 20},
   {41, 22},
   {48},
   {47, 39},
   {24, 27, 23},
   {62},
   {73, 79},
   {65, 46},
   {34, 53},
   {44, 77, 54},
   {51, 78},
   {26, 37},
   {88, 71},
   {32, 35},
   {32, 40, 46},
   {83, 59},
   {43},
   {49, 45, 71},
   {39},
   {55},
   {68},
   {38},
   {40},
   {56, 66, 51},
   {73, 77},
   {61},
   {57, 66, 47},
   {50},
   {69, 70, 79},
   {87},
   {82},
   {80, 74, 63},
   {61, 87},
   {72, 53, 63},
   {56, 51, 55},
   {82, 52},
   {52, 61},
   {74, 52},
   {67},
   {71},
   {85},
   {58, 68, 62},
   {84},
   {79, 63},
   {65, 60},
   {70, 69, 62},
   {75},
   {77},
   {85},
   {69},
   {66, 70},
   {67},
   {80, 76},
   {88, 73},
   {75},
   {75},
   {72},
   {91, 84},
   {80, 88},
   {86},
   {81, 76},
   {84, 86, 87},
   {83, 86},
   {81, 82},
   {83},
   {81},
   {90},
   {89},
   {90},
   {89},
   {85},
   {90},
   {91},
   {89},
   {91},
   {92},
   {92},
   {92},
   {  } ];

deadline = array2d(1..92, 1..3, [1, 1, 4, 2, 0, 0, 4, 1, 2, 5, 1, 1, 13, 5, 1, 18, 2, 2, 22, 3, 4, 23, 4, 0, 24, 3, 0, 24, 1, 2, 30, 3, 5, 37, 3, 5, 39, 0, 4, 43, 3, 1, 44, 3, 3, 45, 5, 3, 49, 0, 4, 50, 5, 2, 53, 2, 3, 55, 4, 4, 55, 3, 3, 55, 3, 3, 56, 1, 3, 57, 0, 4, 58, 0, 4, 61, 2, 5, 69, 2, 0, 70, 5, 4, 71, 0, 2, 73, 4, 0, 73, 3, 5, 78, 1, 3, 82, 2, 3, 82, 5, 0, 85, 3, 2, 86, 5, 5, 86, 2, 3, 87, 3, 4, 87, 2, 4, 88, 3, 2, 91, 1, 5, 91, 4, 2, 92, 3, 1, 92, 2, 3, 93, 3, 3, 94, 0, 0, 94, 2, 0, 95, 4, 4, 97, 0, 2, 98, 0, 0, 102, 2, 4, 105, 1, 0, 108, 5, 1, 112, 4, 5, 115, 4, 3, 115, 4, 1, 131, 2, 2, 132, 3, 5, 133, 2, 0, 135, 5, 2, 136, 0, 0, 137, 3, 1, 144, 1, 1, 149, 5, 0, 150, 4, 4, 150, 0, 3, 150, 4, 5, 150, 2, 5, 153, 0, 1, 155, 0, 3, 157, 4, 3, 158, 0, 2, 159, 5, 3, 164, 5, 2, 165, 1, 0, 165, 4, 5, 165, 1, 2, 165, 3, 2, 170, 5, 2, 170, 0, 5, 172, 2, 1, 174, 5, 1, 178, 3, 1, 179, 1, 4, 179, 2, 1, 182, 0, 2, 184, 0, 5, 184, 2, 4, 187, 3, 1, 188, 4, 3, 190, 3, 3, 192, 5, 2]);
