n_res = 4;
rc = [ 57, 66, 42, 76 ];
n_tasks = 92;
d = [0, 2, 5, 4, 10, 3, 10, 10, 5, 5, 8, 3, 10, 1, 4, 6, 8, 2, 10, 2, 10, 2, 5, 2, 4, 5, 10, 5, 7, 6, 3, 1, 8, 5, 3, 7, 4, 7, 1, 9, 5, 7, 7, 1, 10, 3, 2, 3, 3, 8, 7, 6, 3, 3, 4, 8, 7, 7, 2, 10, 10, 6, 3, 2, 7, 7, 7, 5, 7, 3, 6, 1, 4, 7, 1, 2, 3, 9, 6, 7, 1, 2, 9, 3, 4, 1, 7, 9, 9, 10, 8, 0];
rr = array2d(1..4, 1..92, [0, 9, 5, 0, 7, 0, 0, 9, 3, 0, 0, 5, 5, 0, 10, 0, 0, 5, 3, 2, 5, 8, 9, 0, 5, 5, 0, 4, 10, 5, 4, 3, 2, 4, 10, 8, 8, 0, 6, 0, 1, 2, 7, 1, 9, 0, 10, 4, 1, 10, 3, 5, 1, 2, 8, 6, 1, 9, 2, 5, 9, 7, 7, 3, 4, 0, 4, 0, 5, 0, 8, 9, 0, 0, 6, 10, 0, 3, 3, 7, 0, 6, 0, 8, 5, 8, 4, 4, 0, 10, 6, 0, 0, 0, 0, 6, 0, 7, 2, 3, 4, 0, 1, 4, 0, 8, 8, 9, 3, 10, 8, 9, 8, 2, 9, 9, 2, 10, 5, 3, 9, 3, 9, 6, 0, 9, 4, 6, 7, 3, 0, 10, 0, 1, 8, 9, 8, 3, 1, 0, 6, 2, 10, 0, 0, 9, 10, 0, 8, 2, 0, 0, 2, 0, 4, 0, 1, 5, 3, 7, 3, 8, 4, 4, 0, 0, 5, 9, 7, 4, 0, 3, 1, 4, 10, 1, 5, 0, 2, 7, 0, 0, 1, 0, 0, 0, 9, 2, 0, 5, 5, 3, 2, 5, 3, 0, 0, 3, 5, 0, 4, 2, 8, 4, 1, 9, 0, 7, 4, 0, 4, 7, 0, 6, 8, 10, 0, 6, 2, 5, 0, 6, 3, 2, 5, 0, 10, 7, 9, 8, 1, 4, 8, 5, 0, 0, 9, 9, 9, 1, 3, 10, 7, 0, 0, 9, 1, 2, 0, 1, 0, 4, 10, 6, 4, 6, 0, 7, 4, 8, 8, 0, 2, 8, 9, 0, 5, 4, 7, 0, 7, 0, 8, 0, 3, 0, 0, 2, 8, 1, 0, 6, 3, 8, 6, 3, 4, 5, 8, 2, 8, 1, 9, 0, 9, 8, 7, 0, 7, 1, 7, 8, 7, 9, 4, 9, 9, 0, 0, 9, 9, 10, 2, 3, 0, 1, 9, 0, 0, 9, 3, 2, 7, 6, 6, 0, 8, 0, 0, 0, 0, 5, 9, 8, 2, 0, 4, 8, 0, 0, 7, 0, 10, 3, 7, 0, 4, 10, 9, 2, 0, 5, 4, 1, 4, 0, 10, 6, 4, 0, 6, 1, 0, 10, 8, 1, 5, 0]);

suc = [
   {2, 3, 4},
   {16, 5, 7},
   {8, 9, 30},
   {56, 21, 6},
   {51, 70},
   {10, 34, 78},
   {72, 14, 15},
   {50, 11, 58},
   {64, 90, 12},
   {59, 19, 76},
   {32, 17, 23},
   {24, 26, 13},
   {33, 34, 45},
   {62, 20, 36},
   {80, 42, 28},
   {82, 27, 22},
   {18, 29, 63},
   {44, 45, 39},
   {81, 25, 33},
   {49},
   {50, 30, 47},
   {51, 53, 31},
   {56, 34, 35},
   {40, 37, 86},
   {65, 42, 54},
   {28, 60},
   {28, 61, 52},
   {40, 49, 67},
   {64, 37, 55},
   {43, 53},
   {50, 35, 85},
   {43, 35, 38},
   {51},
   {48, 65, 47},
   {48},
   {58, 83, 37},
   {84},
   {40, 41, 60},
   {61, 46, 71},
   {73},
   {67, 62, 55},
   {48, 88, 77},
   {76},
   {49, 46},
   {91, 75, 69},
   {73, 62, 78},
   {57, 69, 71},
   {52},
   {70, 79},
   {52, 61, 79},
   {65, 57, 54},
   {57, 68},
   {72, 68, 63},
   {66, 67, 74},
   {56, 80, 87},
   {72, 74, 59},
   {60},
   {59, 68, 78},
   {66, 82},
   {63},
   {64},
   {80},
   {86},
   {73},
   {66, 69},
   {75},
   {85, 71},
   {70},
   {74},
   {75},
   {83, 77},
   {76},
   {81, 83, 77},
   {84},
   {86},
   {90},
   {91},
   {84, 79},
   {81},
   {88, 82},
   {87},
   {90},
   {87},
   {85},
   {88},
   {89},
   {89, 91},
   {89},
   {92},
   {92},
   {92},
   {  } ];

deadline = array2d(1..92, 1..3, [3, 0, 3, 6, 3, 2, 9, 3, 4, 12, 3, 2, 16, 4, 2, 31, 0, 5, 33, 5, 2, 33, 0, 1, 37, 2, 4, 37, 4, 5, 42, 0, 3, 42, 2, 4, 43, 2, 0, 43, 3, 5, 44, 0, 0, 44, 3, 0, 46, 5, 1, 49, 2, 1, 51, 1, 0, 52, 4, 1, 56, 1, 3, 56, 3, 4, 67, 1, 0, 67, 5, 3, 72, 1, 3, 77, 1, 5, 78, 0, 0, 78, 1, 4, 78, 3, 0, 79, 5, 0, 83, 1, 4, 85, 1, 2, 85, 2, 1, 85, 3, 1, 87, 0, 1, 93, 2, 4, 93, 2, 2, 95, 2, 1, 95, 2, 4, 96, 0, 3, 99, 2, 3, 100, 1, 4, 100, 0, 5, 103, 4, 1, 105, 0, 4, 106, 2, 2, 106, 3, 2, 106, 1, 1, 106, 3, 2, 106, 0, 4, 107, 0, 0, 112, 2, 5, 115, 5, 4, 116, 1, 3, 125, 0, 1, 131, 1, 4, 132, 5, 1, 132, 0, 2, 132, 4, 1, 133, 1, 4, 134, 3, 4, 141, 1, 1, 145, 2, 5, 146, 3, 4, 147, 4, 5, 148, 5, 3, 149, 2, 0, 151, 5, 3, 152, 0, 4, 153, 5, 3, 153, 2, 1, 156, 2, 4, 158, 5, 4, 159, 0, 3, 160, 1, 3, 166, 4, 3, 166, 0, 3, 169, 4, 4, 176, 1, 0, 177, 1, 0, 177, 5, 0, 177, 4, 1, 184, 0, 0, 187, 5, 4, 191, 4, 1, 193, 5, 3, 193, 3, 5, 198, 3, 0, 201, 0, 0, 204, 1, 1, 205, 4, 1, 206, 5, 4]);
