n_res = 4;
rc = [ 22, 22, 22, 23 ];
n_tasks = 92;
d = [0, 6, 5, 7, 3, 1, 3, 4, 10, 6, 6, 3, 1, 3, 4, 1, 3, 3, 10, 1, 4, 3, 9, 3, 7, 3, 7, 4, 6, 1, 7, 2, 8, 7, 7, 9, 6, 2, 8, 9, 2, 6, 8, 5, 7, 3, 4, 3, 8, 9, 7, 10, 4, 5, 3, 5, 7, 9, 9, 6, 4, 1, 9, 8, 4, 9, 7, 6, 4, 2, 8, 4, 7, 3, 1, 7, 5, 8, 5, 3, 9, 9, 6, 8, 7, 5, 4, 5, 1, 1, 3, 0];
rr = array2d(1..4, 1..92, [0, 0, 0, 6, 0, 0, 0, 0, 0, 0, 0, 0, 9, 0, 0, 9, 0, 2, 0, 10, 0, 0, 0, 5, 0, 4, 0, 0, 0, 0, 0, 0, 0, 0, 0, 9, 0, 0, 0, 0, 0, 0, 0, 0, 0, 0, 0, 0, 0, 0, 3, 6, 0, 0, 9, 0, 0, 0, 0, 0, 0, 9, 0, 0, 0, 3, 0, 0, 4, 0, 2, 10, 0, 0, 0, 0, 0, 0, 5, 4, 0, 0, 0, 0, 1, 0, 0, 0, 0, 0, 0, 0, 0, 0, 10, 0, 0, 0, 0, 0, 5, 0, 0, 0, 0, 0, 2, 0, 0, 0, 0, 0, 8, 8, 1, 0, 0, 0, 9, 7, 8, 7, 0, 1, 0, 3, 0, 0, 0, 2, 0, 6, 0, 0, 0, 0, 0, 0, 0, 7, 0, 0, 0, 0, 0, 0, 0, 0, 0, 0, 4, 0, 0, 0, 1, 3, 1, 0, 0, 0, 0, 0, 0, 0, 0, 3, 0, 3, 6, 0, 0, 0, 0, 0, 0, 3, 0, 0, 0, 0, 0, 0, 0, 0, 0, 7, 0, 0, 0, 10, 0, 0, 0, 0, 0, 0, 0, 0, 0, 0, 7, 0, 0, 0, 0, 0, 0, 0, 1, 0, 0, 0, 0, 0, 0, 0, 9, 0, 5, 0, 5, 0, 0, 0, 0, 2, 3, 4, 5, 1, 0, 0, 0, 9, 0, 0, 0, 5, 0, 0, 0, 5, 0, 6, 9, 0, 0, 0, 0, 0, 0, 5, 0, 5, 0, 0, 3, 0, 2, 0, 0, 10, 0, 0, 9, 4, 6, 0, 0, 0, 0, 0, 8, 4, 10, 0, 0, 0, 0, 0, 5, 0, 8, 3, 0, 7, 6, 2, 0, 5, 0, 0, 0, 0, 2, 0, 0, 0, 0, 0, 0, 0, 0, 0, 0, 0, 6, 0, 0, 0, 0, 0, 0, 0, 4, 0, 9, 0, 0, 0, 0, 0, 2, 0, 7, 0, 0, 0, 3, 0, 0, 1, 10, 0, 0, 0, 0, 0, 0, 0, 0, 0, 8, 0, 0, 0, 0, 0, 0, 0, 0, 0, 0, 0, 0, 0, 0, 0, 0, 0, 0, 9, 3, 9, 0, 0, 0, 0]);

suc = [
   {2, 3, 4},
   {33, 34, 23},
   {8, 10, 5},
   {65, 49, 6},
   {26, 60, 69},
   {56, 11, 7},
   {9, 12, 28},
   {16, 21, 39},
   {17, 35, 15},
   {19, 68, 14},
   {18, 13, 14},
   {19, 29, 54},
   {25, 50, 31},
   {42, 27, 20},
   {58, 36, 30},
   {49, 83, 29},
   {81, 57, 34},
   {48, 33, 52},
   {41, 26, 22},
   {24, 48, 77},
   {62},
   {62},
   {40, 91, 45},
   {72, 67, 44},
   {34, 43, 44},
   {61, 53, 46},
   {75, 60, 29},
   {32, 37, 70},
   {89, 76, 55},
   {46, 38, 63},
   {32, 42, 82},
   {60, 54, 55},
   {69, 45, 54},
   {38},
   {70, 38, 39},
   {64, 50, 88},
   {47, 39},
   {66, 51, 53},
   {48, 41, 43},
   {65, 66, 67},
   {57},
   {70, 55},
   {51, 69, 45},
   {47},
   {90, 79},
   {73, 74, 51},
   {57, 59, 85},
   {72, 50, 79},
   {56, 90},
   {89, 61, 53},
   {72, 67},
   {59},
   {85},
   {64, 68},
   {64, 81, 61},
   {76, 63},
   {66, 78, 63},
   {75, 68, 84},
   {81, 71},
   {62},
   {85, 86},
   {80, 71},
   {79},
   {86},
   {73},
   {73},
   {78},
   {77, 71},
   {74},
   {75},
   {74},
   {84, 78},
   {80, 82},
   {87},
   {76, 77},
   {91},
   {83},
   {80, 82},
   {84},
   {83},
   {86},
   {87},
   {88},
   {87},
   {90},
   {91},
   {88},
   {89},
   {92},
   {92},
   {92},
   {  } ];

deadline = array2d(1..92, 1..3, [1, 1, 0, 1, 0, 1, 4, 3, 1, 6, 2, 4, 6, 5, 0, 7, 3, 5, 7, 3, 4, 7, 4, 1, 17, 0, 0, 20, 3, 2, 21, 4, 3, 23, 4, 4, 24, 3, 0, 27, 1, 2, 34, 1, 3, 35, 3, 1, 36, 3, 1, 37, 2, 1, 39, 0, 0, 42, 0, 2, 50, 1, 5, 58, 5, 5, 61, 0, 0, 61, 3, 0, 66, 4, 0, 66, 5, 0, 68, 2, 1, 70, 2, 4, 78, 5, 1, 81, 3, 2, 84, 5, 5, 85, 1, 0, 86, 3, 4, 88, 5, 1, 89, 3, 1, 91, 5, 0, 94, 3, 4, 97, 3, 5, 98, 1, 0, 98, 2, 5, 98, 1, 1, 100, 1, 5, 100, 2, 2, 104, 4, 3, 105, 0, 3, 111, 1, 3, 114, 5, 1, 116, 4, 5, 117, 3, 0, 117, 4, 2, 119, 1, 4, 119, 0, 3, 123, 5, 4, 125, 4, 4, 130, 3, 4, 132, 1, 0, 133, 1, 0, 133, 2, 5, 135, 1, 2, 137, 1, 1, 138, 0, 3, 140, 1, 1, 140, 2, 4, 143, 2, 2, 148, 4, 1, 149, 5, 4, 151, 0, 4, 151, 5, 0, 153, 5, 1, 155, 2, 5, 163, 3, 0, 164, 5, 0, 164, 2, 1, 164, 4, 3, 169, 0, 2, 170, 3, 4, 170, 2, 4, 175, 2, 5, 177, 2, 1, 179, 2, 0, 179, 5, 5, 180, 1, 1, 182, 5, 5, 187, 5, 5, 189, 0, 5, 190, 4, 1, 190, 3, 1, 190, 3, 4, 192, 1, 0, 197, 1, 3, 207, 4, 4, 208, 0, 2]);
