n_res = 4;
rc = [ 25, 31, 18, 42 ];
n_tasks = 92;
d = [0, 5, 8, 6, 2, 9, 4, 3, 2, 10, 7, 6, 1, 9, 3, 6, 2, 9, 4, 6, 3, 9, 1, 5, 3, 4, 5, 3, 3, 7, 5, 7, 5, 6, 6, 1, 7, 9, 5, 8, 4, 8, 1, 1, 5, 10, 6, 1, 8, 6, 9, 7, 10, 6, 10, 5, 4, 8, 9, 4, 1, 2, 4, 5, 6, 10, 2, 8, 8, 9, 9, 8, 6, 7, 3, 5, 2, 9, 9, 7, 8, 10, 10, 8, 9, 4, 6, 1, 4, 2, 10, 0];
rr = array2d(1..4, 1..92, [0, 10, 10, 0, 8, 0, 0, 10, 0, 6, 3, 0, 8, 9, 5, 0, 0, 0, 0, 3, 0, 5, 3, 5, 9, 0, 8, 5, 0, 0, 7, 2, 0, 5, 0, 0, 8, 0, 0, 7, 4, 0, 0, 0, 8, 4, 0, 0, 0, 5, 0, 0, 0, 0, 0, 3, 0, 4, 0, 3, 0, 3, 0, 10, 0, 10, 3, 0, 8, 0, 0, 0, 0, 0, 9, 0, 0, 0, 0, 0, 5, 0, 0, 0, 6, 0, 4, 0, 0, 0, 0, 0, 0, 6, 7, 3, 4, 0, 7, 7, 0, 3, 0, 9, 4, 0, 0, 0, 8, 7, 10, 1, 0, 3, 0, 0, 0, 5, 8, 0, 9, 3, 3, 9, 9, 6, 0, 0, 0, 7, 0, 5, 0, 4, 0, 2, 0, 0, 9, 10, 0, 0, 5, 0, 0, 8, 0, 0, 0, 0, 6, 9, 0, 7, 0, 7, 0, 10, 0, 0, 9, 0, 0, 6, 0, 0, 10, 8, 8, 8, 0, 0, 2, 9, 5, 1, 7, 0, 8, 0, 7, 5, 4, 0, 0, 0, 0, 0, 0, 9, 0, 0, 4, 0, 5, 3, 4, 0, 0, 3, 0, 2, 0, 0, 0, 0, 0, 3, 0, 0, 0, 2, 0, 6, 1, 0, 0, 0, 5, 9, 0, 4, 6, 0, 0, 2, 8, 6, 0, 5, 0, 0, 0, 0, 0, 4, 1, 0, 0, 3, 0, 0, 0, 2, 4, 0, 7, 9, 1, 0, 5, 3, 0, 8, 5, 4, 8, 3, 0, 4, 8, 0, 10, 0, 0, 0, 2, 5, 5, 7, 0, 0, 1, 0, 2, 0, 0, 2, 4, 0, 0, 7, 9, 0, 10, 0, 5, 0, 6, 10, 3, 0, 0, 0, 1, 0, 7, 0, 0, 0, 6, 9, 9, 0, 0, 2, 0, 8, 5, 0, 2, 1, 0, 6, 0, 0, 7, 10, 0, 0, 0, 0, 0, 6, 9, 2, 0, 0, 1, 0, 10, 0, 5, 0, 4, 8, 6, 1, 5, 0, 0, 8, 10, 9, 0, 6, 7, 10, 0, 4, 6, 10, 0, 3, 10, 9, 9, 2, 6, 0, 0, 4, 3, 5, 0, 0, 0, 0]);

suc = [
   {2, 3, 4},
   {5, 6, 7},
   {8, 11},
   {40, 41, 53},
   {51},
   {29, 13},
   {9, 12, 15},
   {10, 90},
   {24, 25},
   {16, 42},
   {17, 18, 14},
   {34, 44, 37},
   {32, 20, 23},
   {82, 35, 30},
   {22},
   {64, 60},
   {19, 39, 31},
   {26, 43, 87},
   {28, 21, 52},
   {80},
   {25, 27},
   {52, 69},
   {58, 86},
   {48, 50, 36},
   {85, 71},
   {65},
   {59, 37, 78},
   {89, 38},
   {48, 42},
   {33, 74},
   {32, 37, 55},
   {82},
   {43, 68},
   {73, 49, 78},
   {56, 47},
   {56, 74, 52},
   {46},
   {66, 51, 90},
   {59, 45},
   {50, 54, 71},
   {81},
   {57, 63},
   {58},
   {80},
   {67},
   {53},
   {59, 77, 62},
   {73, 58},
   {72, 75, 77},
   {51, 68, 63},
   {85},
   {84, 62, 63},
   {66, 83},
   {87},
   {61},
   {67},
   {65},
   {69, 71},
   {64, 91, 69},
   {67},
   {65, 83, 75},
   {70},
   {83, 79},
   {70},
   {76},
   {73, 74},
   {72, 68},
   {81},
   {75, 70},
   {88},
   {76},
   {86},
   {82},
   {85},
   {90, 79},
   {81, 77, 78},
   {84},
   {79},
   {80},
   {88},
   {84},
   {86},
   {87},
   {88},
   {91},
   {91},
   {89},
   {89},
   {92},
   {92},
   {92},
   {  } ];

deadline = array2d(1..92, 1..3, [1, 0, 5, 6, 3, 3, 6, 1, 4, 6, 1, 1, 7, 5, 5, 7, 5, 0, 10, 5, 4, 14, 2, 3, 16, 1, 1, 16, 4, 4, 19, 0, 1, 22, 0, 2, 24, 3, 0, 26, 2, 5, 30, 4, 2, 30, 4, 0, 36, 3, 5, 39, 3, 1, 43, 3, 2, 45, 5, 3, 48, 5, 1, 49, 4, 0, 51, 4, 5, 52, 5, 4, 53, 2, 1, 54, 4, 3, 56, 0, 3, 56, 1, 4, 56, 1, 3, 63, 2, 4, 65, 3, 2, 70, 2, 2, 71, 5, 5, 76, 2, 5, 80, 0, 5, 82, 2, 0, 88, 4, 4, 93, 3, 5, 94, 0, 3, 95, 0, 2, 95, 2, 1, 99, 4, 0, 101, 3, 2, 106, 3, 0, 109, 0, 5, 111, 0, 5, 112, 3, 0, 116, 0, 0, 117, 1, 1, 118, 1, 2, 120, 0, 4, 121, 4, 5, 121, 3, 1, 122, 4, 1, 122, 3, 2, 124, 4, 5, 125, 0, 0, 129, 5, 0, 133, 1, 5, 137, 0, 1, 140, 2, 3, 141, 0, 0, 145, 4, 4, 145, 0, 2, 145, 5, 1, 147, 4, 2, 149, 5, 1, 151, 5, 2, 154, 1, 1, 154, 4, 3, 156, 1, 5, 160, 1, 5, 160, 4, 3, 168, 4, 5, 179, 2, 0, 182, 0, 0, 182, 3, 1, 190, 3, 1, 192, 0, 2, 192, 5, 4, 198, 3, 3, 201, 0, 5, 201, 2, 3, 202, 2, 4, 209, 3, 2, 211, 4, 1, 212, 3, 4, 215, 2, 2, 217, 3, 2, 220, 5, 3, 222, 4, 3, 236, 5, 2]);
