n_res = 4;
rc = [ 20, 16, 14, 26 ];
n_tasks = 92;
d = [0, 4, 3, 2, 8, 3, 3, 6, 8, 2, 10, 10, 7, 5, 1, 9, 9, 3, 10, 2, 1, 9, 4, 2, 2, 7, 9, 8, 5, 4, 9, 3, 5, 5, 5, 5, 7, 5, 6, 9, 3, 6, 2, 10, 9, 10, 8, 5, 6, 7, 6, 10, 4, 9, 4, 6, 2, 1, 2, 4, 5, 10, 10, 10, 8, 7, 8, 2, 9, 6, 9, 6, 1, 2, 9, 9, 3, 7, 5, 5, 1, 2, 1, 8, 2, 8, 1, 8, 6, 5, 4, 0];
rr = array2d(1..4, 1..92, [0, 0, 0, 0, 9, 0, 0, 0, 0, 0, 0, 0, 0, 0, 0, 0, 0, 2, 0, 0, 0, 0, 0, 0, 0, 0, 0, 0, 3, 9, 0, 0, 0, 0, 0, 0, 0, 0, 1, 0, 0, 0, 9, 0, 0, 0, 0, 0, 10, 0, 0, 0, 0, 0, 0, 0, 0, 0, 0, 0, 0, 0, 10, 0, 10, 0, 0, 0, 10, 0, 0, 0, 0, 0, 2, 6, 0, 1, 0, 5, 0, 0, 2, 0, 0, 0, 0, 0, 4, 0, 1, 0, 0, 4, 0, 0, 0, 0, 2, 0, 0, 0, 0, 0, 0, 9, 0, 0, 0, 0, 0, 0, 0, 0, 0, 3, 1, 0, 10, 0, 0, 0, 0, 0, 1, 0, 0, 0, 0, 0, 0, 0, 0, 0, 0, 5, 0, 10, 2, 0, 0, 0, 10, 5, 1, 1, 0, 10, 0, 2, 9, 0, 0, 0, 0, 0, 0, 0, 0, 0, 0, 0, 0, 0, 0, 2, 0, 0, 3, 0, 8, 0, 10, 9, 0, 10, 8, 0, 0, 0, 0, 5, 0, 0, 0, 0, 1, 4, 0, 6, 0, 10, 0, 0, 0, 0, 9, 0, 0, 0, 0, 0, 2, 8, 0, 0, 0, 0, 0, 1, 0, 7, 0, 0, 0, 0, 0, 2, 0, 0, 0, 0, 0, 0, 0, 0, 0, 0, 3, 0, 0, 6, 0, 1, 0, 0, 0, 0, 2, 0, 0, 0, 0, 1, 0, 0, 0, 0, 0, 0, 2, 2, 0, 6, 0, 0, 0, 0, 0, 0, 0, 0, 0, 0, 0, 0, 0, 0, 0, 7, 5, 0, 0, 0, 0, 0, 0, 0, 0, 0, 0, 0, 0, 0, 7, 3, 7, 2, 0, 0, 5, 9, 7, 0, 0, 0, 10, 1, 3, 0, 0, 0, 0, 0, 0, 0, 7, 10, 0, 0, 4, 6, 1, 10, 0, 2, 6, 9, 0, 0, 0, 0, 0, 0, 0, 0, 0, 0, 0, 0, 0, 0, 5, 0, 0, 0, 3, 8, 0, 5, 0, 7, 0, 0, 0, 0, 3, 10, 6, 0, 0, 0, 0, 0, 0, 0, 0, 0, 0, 0, 0, 0, 0, 1, 0, 0, 0, 0]);

suc = [
   {2, 3, 4},
   {68},
   {9, 36, 5},
   {48, 15},
   {8, 6, 7},
   {12, 20, 14},
   {24, 41, 37},
   {18, 13, 23},
   {16, 10, 11},
   {37},
   {25, 71},
   {90, 45, 29},
   {65, 28, 15},
   {50, 76},
   {17, 21, 38},
   {27, 40, 19},
   {49},
   {33, 59},
   {32, 57, 35},
   {77, 39},
   {66, 22, 31},
   {30},
   {52, 70, 39},
   {52},
   {26, 60, 55},
   {54},
   {72, 76, 39},
   {42, 59},
   {80},
   {62, 54},
   {34, 75},
   {70, 79},
   {84, 69},
   {44},
   {65, 53, 62},
   {41, 51, 62},
   {87, 63},
   {61, 47},
   {64, 42},
   {43},
   {61},
   {82, 61},
   {59, 78},
   {67, 53, 46},
   {74},
   {72, 83},
   {81, 63},
   {56, 73, 77},
   {69, 54},
   {81, 65, 69},
   {56, 58, 66},
   {66, 55},
   {83},
   {72, 58, 85},
   {82, 83},
   {75, 84},
   {79},
   {63},
   {67, 68},
   {67},
   {80},
   {75, 79},
   {64},
   {73, 78},
   {73},
   {91, 71},
   {70},
   {85},
   {88},
   {88, 74},
   {76},
   {77},
   {89},
   {85},
   {82},
   {89},
   {81, 78},
   {88},
   {80, 87},
   {86},
   {84},
   {87},
   {90},
   {89, 86},
   {86},
   {91},
   {90},
   {91},
   {92},
   {92},
   {92},
   {  } ];

deadline = array2d(1..92, 1..3, [1, 5, 0, 3, 4, 5, 5, 2, 4, 8, 3, 5, 11, 1, 0, 13, 3, 1, 14, 3, 2, 20, 2, 1, 21, 1, 0, 26, 0, 3, 29, 1, 1, 30, 4, 1, 40, 1, 5, 44, 3, 0, 47, 2, 5, 48, 0, 5, 50, 2, 4, 58, 4, 5, 60, 2, 3, 61, 3, 3, 64, 5, 4, 65, 5, 4, 69, 4, 0, 70, 4, 3, 77, 3, 2, 82, 1, 4, 83, 0, 0, 85, 3, 3, 91, 2, 0, 94, 1, 1, 99, 3, 4, 99, 1, 2, 102, 1, 4, 102, 1, 4, 104, 0, 0, 107, 2, 5, 110, 4, 3, 113, 0, 3, 114, 4, 5, 116, 4, 0, 118, 5, 0, 120, 4, 4, 121, 1, 0, 130, 1, 4, 133, 2, 1, 135, 3, 0, 138, 5, 1, 139, 3, 4, 140, 0, 3, 143, 1, 3, 146, 3, 3, 148, 1, 2, 151, 5, 2, 152, 5, 1, 153, 0, 4, 156, 5, 2, 157, 5, 3, 157, 1, 0, 159, 3, 2, 160, 1, 4, 162, 5, 2, 163, 5, 3, 163, 3, 5, 164, 0, 4, 174, 1, 3, 175, 2, 4, 176, 4, 4, 182, 3, 3, 184, 2, 2, 186, 1, 3, 186, 3, 0, 186, 5, 2, 187, 4, 2, 189, 4, 3, 190, 2, 4, 193, 2, 5, 198, 4, 4, 198, 5, 3, 198, 0, 0, 200, 4, 5, 204, 0, 2, 210, 4, 1, 212, 2, 4, 214, 1, 1, 214, 3, 3, 215, 2, 2, 216, 4, 4, 218, 4, 1, 220, 3, 4, 221, 0, 4, 224, 4, 3, 224, 2, 3]);
