n_res = 4;
rc = [ 21, 21, 22, 25 ];
n_tasks = 92;
d = [0, 10, 3, 8, 7, 4, 7, 2, 8, 6, 9, 10, 2, 1, 9, 1, 10, 4, 7, 6, 6, 10, 7, 8, 4, 3, 6, 2, 8, 8, 7, 5, 5, 7, 5, 10, 7, 2, 6, 8, 9, 5, 2, 10, 1, 2, 2, 5, 6, 4, 10, 7, 5, 2, 10, 1, 4, 10, 6, 6, 5, 4, 4, 7, 5, 1, 9, 3, 2, 9, 9, 3, 6, 8, 7, 2, 1, 3, 1, 9, 5, 5, 6, 10, 3, 5, 1, 3, 10, 8, 3, 0];
rr = array2d(1..4, 1..92, [0, 0, 6, 0, 0, 0, 0, 0, 0, 1, 1, 2, 0, 0, 0, 8, 0, 0, 0, 0, 3, 0, 0, 7, 0, 0, 0, 0, 0, 0, 0, 0, 0, 0, 0, 4, 0, 0, 0, 0, 0, 0, 0, 0, 0, 0, 2, 0, 0, 4, 0, 5, 0, 0, 0, 9, 0, 0, 3, 0, 0, 0, 0, 6, 1, 0, 3, 0, 0, 2, 0, 0, 0, 7, 0, 8, 0, 8, 0, 0, 0, 0, 2, 0, 0, 0, 1, 0, 0, 0, 2, 0, 0, 0, 0, 0, 5, 0, 4, 0, 0, 0, 0, 0, 0, 0, 6, 0, 0, 0, 5, 0, 0, 0, 0, 0, 0, 0, 0, 0, 0, 0, 0, 9, 8, 0, 1, 0, 0, 6, 0, 0, 0, 0, 0, 0, 10, 10, 0, 0, 0, 0, 0, 0, 2, 0, 0, 0, 0, 0, 0, 4, 8, 0, 4, 0, 0, 0, 0, 0, 0, 0, 6, 0, 0, 0, 10, 0, 0, 0, 0, 0, 3, 0, 0, 0, 0, 0, 0, 0, 7, 0, 0, 0, 0, 0, 0, 7, 0, 0, 0, 0, 4, 0, 0, 0, 0, 3, 0, 0, 6, 5, 0, 0, 0, 0, 0, 0, 0, 2, 0, 7, 10, 5, 4, 0, 0, 0, 0, 0, 0, 0, 0, 0, 0, 7, 0, 0, 0, 0, 0, 0, 1, 0, 0, 0, 0, 8, 10, 0, 7, 6, 0, 0, 0, 0, 0, 0, 0, 0, 0, 10, 0, 0, 0, 9, 1, 0, 0, 0, 0, 0, 4, 0, 0, 5, 0, 0, 10, 0, 0, 7, 0, 3, 0, 0, 0, 9, 0, 0, 0, 2, 0, 3, 0, 0, 0, 0, 5, 0, 0, 0, 0, 0, 0, 8, 0, 3, 8, 0, 5, 0, 10, 0, 0, 0, 0, 0, 0, 6, 0, 0, 4, 0, 9, 9, 10, 0, 9, 5, 0, 0, 0, 7, 0, 0, 4, 0, 0, 0, 0, 0, 0, 0, 0, 0, 0, 4, 0, 0, 0, 8, 0, 0, 5, 0, 0, 0, 0, 0, 0, 0, 4, 0, 0, 2, 0, 0, 0, 8, 0, 4, 0, 0, 0, 0, 0, 0]);

suc = [
   {2, 3, 4},
   {13, 26, 5},
   {40, 65, 27},
   {9, 37, 21},
   {29, 6, 7},
   {42, 39},
   {8, 67, 12},
   {20, 14, 15},
   {10, 11, 23},
   {18, 87},
   {16, 17, 19},
   {44, 52, 63},
   {48, 35},
   {70},
   {25, 28, 60},
   {81},
   {18, 45, 30},
   {43, 63},
   {24, 48, 54},
   {65, 49},
   {41, 26, 22},
   {57, 42},
   {49},
   {32, 56},
   {81, 34, 62},
   {33, 36, 38},
   {66},
   {58, 46},
   {33, 38, 31},
   {63},
   {72, 59},
   {53},
   {73, 74, 71},
   {72, 58, 47},
   {45},
   {51, 45, 62},
   {48, 80, 44},
   {89, 46, 39},
   {70},
   {41},
   {64, 49, 54},
   {75, 67, 69},
   {73},
   {68},
   {60, 68},
   {50, 62},
   {51, 86},
   {58},
   {50, 51, 69},
   {78},
   {55},
   {82},
   {84},
   {73},
   {83, 61},
   {75},
   {82},
   {77},
   {76},
   {90, 79},
   {80, 68, 71},
   {69},
   {86, 79},
   {77},
   {75, 85},
   {86},
   {70, 71},
   {76},
   {78},
   {90},
   {77, 87},
   {83, 85},
   {76, 78},
   {88, 85},
   {81, 79},
   {84},
   {90},
   {80},
   {91},
   {84},
   {82, 83},
   {88},
   {89},
   {88},
   {87},
   {89},
   {91},
   {91},
   {92},
   {92},
   {92},
   {  } ];

deadline = array2d(1..92, 1..3, [10, 4, 2, 12, 4, 4, 13, 4, 3, 13, 3, 2, 15, 4, 4, 15, 1, 2, 17, 1, 2, 19, 2, 4, 20, 2, 1, 23, 5, 5, 23, 2, 5, 23, 3, 5, 26, 1, 5, 28, 3, 1, 30, 4, 0, 31, 0, 1, 36, 2, 3, 36, 4, 5, 37, 2, 3, 39, 4, 2, 39, 3, 3, 39, 0, 5, 40, 3, 3, 42, 1, 2, 42, 5, 5, 44, 5, 5, 46, 2, 3, 57, 3, 1, 57, 5, 4, 59, 2, 1, 62, 3, 5, 63, 1, 5, 63, 2, 5, 64, 5, 1, 68, 1, 1, 68, 2, 3, 72, 5, 3, 77, 1, 1, 78, 4, 4, 83, 3, 4, 85, 0, 2, 97, 3, 0, 98, 5, 3, 106, 5, 3, 113, 5, 1, 115, 1, 3, 115, 5, 0, 115, 2, 1, 117, 4, 0, 128, 3, 4, 133, 0, 2, 134, 1, 5, 139, 2, 3, 140, 4, 1, 141, 1, 3, 142, 4, 5, 142, 5, 5, 142, 0, 1, 144, 5, 1, 146, 4, 1, 147, 1, 3, 149, 3, 0, 157, 0, 5, 157, 3, 2, 162, 3, 0, 163, 2, 3, 167, 2, 5, 179, 5, 1, 180, 5, 4, 180, 3, 1, 184, 5, 0, 185, 0, 5, 186, 3, 0, 191, 2, 2, 192, 5, 3, 195, 3, 2, 198, 2, 0, 198, 2, 0, 200, 0, 3, 201, 3, 2, 202, 0, 3, 211, 5, 2, 212, 2, 3, 213, 5, 3, 214, 1, 1, 221, 2, 4, 232, 2, 3, 232, 2, 1, 236, 3, 3, 237, 1, 4, 240, 0, 5, 245, 2, 1]);
