n_res = 4;
rc = [ 78, 54, 56, 67 ];
n_tasks = 92;
d = [0, 3, 7, 1, 5, 9, 8, 3, 8, 8, 3, 10, 5, 3, 2, 8, 2, 6, 6, 6, 1, 1, 6, 6, 3, 4, 9, 10, 8, 2, 8, 6, 2, 4, 8, 4, 1, 3, 7, 8, 8, 7, 4, 2, 7, 3, 10, 1, 10, 9, 9, 3, 4, 10, 2, 1, 8, 10, 2, 4, 4, 6, 7, 8, 9, 10, 7, 9, 3, 10, 10, 5, 6, 1, 4, 8, 5, 8, 10, 8, 6, 7, 4, 8, 8, 9, 5, 3, 3, 10, 10, 0];
rr = array2d(1..4, 1..92, [0, 4, 6, 7, 5, 8, 9, 6, 6, 7, 10, 10, 6, 2, 7, 6, 1, 10, 10, 2, 10, 3, 8, 7, 7, 7, 6, 9, 3, 2, 6, 5, 6, 3, 6, 2, 3, 9, 4, 9, 6, 9, 5, 8, 9, 1, 8, 1, 2, 2, 10, 7, 4, 7, 8, 9, 7, 8, 9, 7, 10, 1, 3, 7, 9, 6, 8, 6, 3, 3, 9, 1, 9, 8, 6, 7, 2, 9, 2, 10, 4, 5, 1, 5, 1, 8, 2, 3, 9, 10, 10, 0, 0, 5, 1, 6, 2, 7, 9, 10, 3, 2, 2, 3, 7, 9, 9, 7, 8, 4, 1, 5, 4, 6, 10, 6, 4, 9, 5, 6, 10, 5, 10, 7, 4, 1, 4, 1, 5, 2, 8, 4, 3, 5, 6, 9, 10, 1, 3, 1, 6, 6, 5, 7, 10, 4, 2, 7, 8, 5, 1, 5, 2, 4, 8, 10, 5, 2, 1, 8, 1, 3, 5, 10, 2, 1, 1, 5, 2, 10, 3, 3, 10, 2, 6, 3, 9, 9, 2, 9, 9, 6, 1, 0, 0, 5, 2, 9, 5, 7, 6, 8, 3, 1, 7, 3, 3, 7, 8, 10, 7, 9, 3, 4, 4, 7, 9, 5, 6, 8, 6, 3, 3, 2, 8, 4, 4, 10, 8, 7, 10, 4, 7, 6, 5, 5, 5, 9, 7, 5, 1, 3, 1, 8, 1, 3, 10, 8, 8, 9, 2, 6, 5, 6, 3, 6, 10, 4, 1, 3, 8, 4, 9, 4, 4, 8, 4, 1, 10, 10, 5, 3, 6, 4, 8, 10, 10, 6, 4, 5, 8, 2, 8, 4, 1, 0, 0, 7, 4, 1, 8, 2, 8, 10, 9, 9, 9, 6, 4, 9, 4, 1, 8, 10, 3, 5, 9, 8, 9, 5, 3, 6, 4, 2, 2, 4, 5, 8, 1, 8, 8, 3, 5, 1, 9, 8, 5, 4, 4, 9, 1, 3, 4, 9, 8, 6, 3, 1, 4, 4, 1, 10, 3, 7, 8, 10, 2, 2, 6, 7, 4, 9, 10, 2, 5, 3, 9, 2, 1, 3, 6, 10, 9, 9, 10, 7, 9, 1, 7, 6, 1, 8, 6, 8, 2, 10, 7, 0]);

suc = [
   {2, 3, 4},
   {40, 35, 47},
   {13, 6},
   {9, 36, 5},
   {8, 16, 28},
   {16, 10, 7},
   {24, 14, 23},
   {11, 12, 15},
   {29, 19, 13},
   {34, 42, 21},
   {26, 51},
   {46},
   {17, 52, 49},
   {64, 18},
   {59, 38, 23},
   {65, 59, 31},
   {25, 83, 53},
   {67, 20},
   {84, 30, 55},
   {22},
   {64, 30, 39},
   {78, 43, 38},
   {47},
   {33, 42, 76},
   {32},
   {72, 27, 71},
   {57, 44},
   {64, 66, 46},
   {32, 48, 56},
   {41, 44, 31},
   {33, 74, 62},
   {44, 70, 39},
   {80, 86},
   {37},
   {49, 59, 45},
   {56, 58, 63},
   {41, 84, 63},
   {49, 39},
   {80},
   {73, 45, 46},
   {65, 67, 68},
   {57, 50, 60},
   {45, 47},
   {88},
   {48, 66, 60},
   {60, 62},
   {77, 53, 54},
   {51, 54, 63},
   {57, 53, 54},
   {75, 51, 71},
   {74, 61, 86},
   {56, 58, 85},
   {88, 61, 70},
   {85},
   {58, 66, 62},
   {68},
   {77},
   {68},
   {61, 79, 71},
   {65},
   {84},
   {72, 81, 78},
   {69, 79},
   {67, 69},
   {69},
   {76},
   {72, 74, 76},
   {73, 82},
   {70},
   {81, 75},
   {73, 87},
   {75},
   {78},
   {91},
   {89},
   {81, 77},
   {82, 79},
   {89, 83},
   {80, 89, 83},
   {88},
   {82, 85},
   {86},
   {90},
   {91, 87},
   {90},
   {87},
   {90},
   {91},
   {92},
   {92},
   {92},
   {  } ];

deadline = array2d(1..92, 1..3, [1, 0, 2, 2, 4, 2, 6, 2, 4, 7, 2, 2, 7, 2, 1, 14, 5, 4, 16, 2, 3, 17, 0, 0, 22, 5, 2, 22, 1, 1, 23, 5, 1, 28, 0, 2, 28, 0, 4, 29, 5, 1, 34, 5, 4, 39, 4, 0, 42, 1, 3, 52, 2, 5, 52, 0, 5, 58, 5, 0, 58, 5, 5, 61, 5, 5, 67, 5, 3, 72, 2, 1, 75, 0, 5, 75, 5, 1, 76, 0, 1, 76, 4, 1, 82, 1, 3, 83, 4, 0, 85, 3, 4, 85, 0, 2, 89, 2, 4, 90, 4, 4, 92, 2, 5, 94, 2, 5, 105, 5, 0, 107, 0, 1, 110, 2, 4, 110, 0, 5, 114, 4, 5, 123, 5, 5, 128, 2, 3, 130, 3, 4, 135, 5, 5, 135, 5, 2, 137, 5, 0, 140, 4, 3, 140, 5, 2, 141, 1, 1, 142, 1, 1, 142, 1, 0, 148, 5, 4, 148, 3, 2, 153, 3, 5, 157, 3, 1, 163, 2, 4, 175, 2, 0, 180, 1, 1, 182, 1, 4, 183, 5, 3, 187, 1, 1, 188, 3, 2, 194, 0, 5, 202, 1, 1, 219, 3, 5, 223, 2, 0, 224, 0, 2, 227, 2, 1, 227, 2, 1, 228, 5, 4, 233, 0, 4, 233, 5, 2, 233, 3, 1, 238, 0, 0, 238, 4, 1, 241, 3, 3, 243, 2, 2, 247, 4, 5, 249, 5, 5, 252, 4, 4, 253, 3, 5, 254, 2, 5, 258, 5, 2, 264, 1, 1, 266, 3, 3, 269, 1, 3, 269, 0, 2, 269, 1, 3, 273, 4, 2, 282, 0, 5, 284, 5, 1]);
