n_res = 4;
rc = [ 31, 38, 39, 48 ];
n_tasks = 92;
d = [0, 7, 10, 10, 7, 3, 8, 7, 1, 6, 9, 5, 4, 5, 5, 5, 2, 10, 9, 8, 4, 10, 2, 7, 10, 8, 1, 4, 6, 1, 8, 10, 10, 1, 7, 4, 7, 3, 3, 7, 8, 6, 3, 8, 1, 6, 2, 4, 5, 4, 8, 9, 7, 7, 5, 3, 1, 10, 5, 2, 9, 8, 5, 9, 8, 3, 4, 1, 9, 8, 9, 4, 4, 1, 6, 1, 3, 6, 9, 8, 3, 6, 5, 1, 5, 1, 5, 2, 4, 9, 10, 0];
rr = array2d(1..4, 1..92, [0, 0, 6, 0, 3, 0, 9, 0, 5, 9, 0, 10, 4, 0, 0, 0, 0, 0, 1, 1, 6, 0, 7, 10, 0, 1, 0, 10, 1, 0, 4, 0, 0, 1, 0, 0, 4, 2, 0, 0, 3, 0, 0, 10, 0, 0, 0, 1, 0, 3, 0, 0, 0, 9, 0, 0, 0, 6, 0, 0, 9, 3, 0, 0, 7, 0, 0, 7, 0, 9, 3, 0, 0, 5, 3, 2, 0, 6, 0, 0, 8, 9, 0, 0, 10, 0, 4, 0, 0, 0, 0, 0, 0, 7, 0, 0, 8, 1, 0, 1, 10, 0, 0, 3, 0, 0, 0, 0, 5, 0, 0, 0, 2, 2, 0, 0, 1, 0, 6, 0, 6, 0, 0, 1, 0, 0, 9, 0, 0, 0, 2, 1, 0, 0, 0, 4, 1, 0, 0, 5, 1, 9, 8, 0, 6, 1, 3, 4, 7, 0, 2, 0, 6, 0, 5, 9, 0, 4, 7, 9, 2, 6, 0, 0, 0, 0, 0, 8, 0, 0, 0, 0, 3, 0, 7, 1, 4, 0, 0, 0, 1, 10, 7, 0, 0, 0, 6, 2, 0, 0, 7, 0, 0, 6, 0, 0, 0, 0, 0, 2, 0, 3, 0, 4, 3, 8, 0, 0, 0, 0, 0, 2, 0, 1, 4, 6, 9, 0, 4, 0, 3, 0, 4, 0, 8, 2, 6, 0, 1, 4, 0, 0, 5, 0, 0, 5, 4, 0, 0, 9, 0, 1, 1, 9, 1, 1, 0, 5, 0, 9, 4, 0, 0, 0, 10, 10, 3, 0, 2, 6, 0, 6, 8, 8, 0, 0, 2, 0, 0, 0, 3, 10, 8, 0, 1, 0, 0, 5, 0, 0, 0, 0, 3, 0, 0, 6, 6, 0, 0, 8, 9, 0, 3, 0, 6, 0, 0, 0, 5, 3, 0, 0, 0, 0, 10, 0, 1, 3, 0, 10, 5, 5, 9, 8, 0, 10, 1, 0, 8, 3, 4, 2, 1, 0, 0, 10, 6, 10, 0, 0, 0, 8, 0, 9, 7, 6, 7, 0, 0, 0, 9, 6, 0, 10, 0, 0, 5, 9, 0, 10, 0, 6, 4, 3, 2, 1, 0, 0, 6, 10, 2, 7, 0, 0, 9, 8, 3, 0]);

suc = [
   {2, 3, 4},
   {10, 22},
   {86, 82, 6},
   {5},
   {8, 9, 14},
   {35, 21, 7},
   {43, 61},
   {11},
   {74, 45, 13},
   {17, 35, 30},
   {16, 12, 23},
   {60, 15},
   {25, 18, 46},
   {32, 28, 45},
   {75, 26, 19},
   {25, 29},
   {69, 54, 31},
   {40, 52, 84},
   {66, 20, 36},
   {59, 30},
   {80, 42},
   {40},
   {24, 41, 59},
   {27},
   {56, 88},
   {34, 38},
   {50, 43, 47},
   {33, 44},
   {58, 68, 37},
   {74},
   {32, 67},
   {79, 78, 55},
   {91},
   {64, 41, 83},
   {81, 62},
   {59, 45},
   {42, 53, 39},
   {57, 53},
   {50, 77},
   {48, 49},
   {51, 61},
   {65},
   {65, 84},
   {56, 70, 47},
   {81},
   {82},
   {81, 68},
   {72},
   {64, 58},
   {51},
   {73},
   {64, 75, 53},
   {82},
   {57, 61},
   {71},
   {89, 87},
   {66},
   {80, 73, 67},
   {73, 71},
   {70, 62},
   {91, 63},
   {65, 75},
   {79},
   {77},
   {88},
   {67, 71},
   {72},
   {84},
   {76},
   {78},
   {88, 74},
   {83, 76, 77},
   {86},
   {76},
   {78, 79},
   {86},
   {87},
   {80, 85},
   {85},
   {87},
   {85},
   {83},
   {91},
   {90},
   {89},
   {89},
   {90},
   {90},
   {92},
   {92},
   {92},
   {  } ];

deadline = array2d(1..92, 1..3, [1, 4, 2, 1, 5, 4, 1, 4, 0, 2, 5, 0, 3, 4, 5, 6, 5, 0, 7, 0, 1, 7, 3, 0, 10, 4, 4, 14, 2, 1, 16, 3, 0, 18, 0, 5, 21, 1, 5, 23, 1, 2, 30, 1, 1, 33, 5, 5, 37, 5, 0, 44, 2, 1, 50, 5, 3, 51, 5, 5, 53, 2, 2, 54, 5, 2, 55, 3, 3, 55, 2, 1, 57, 0, 3, 58, 2, 1, 63, 4, 1, 73, 0, 4, 75, 5, 5, 77, 5, 1, 78, 3, 3, 83, 1, 2, 87, 0, 0, 88, 0, 3, 93, 5, 2, 103, 3, 0, 105, 4, 5, 106, 1, 5, 107, 2, 2, 112, 3, 4, 113, 3, 0, 113, 4, 5, 115, 0, 4, 120, 4, 5, 121, 2, 2, 124, 4, 4, 124, 2, 2, 126, 0, 4, 127, 0, 0, 128, 4, 5, 130, 5, 3, 136, 5, 3, 138, 1, 3, 144, 0, 5, 145, 5, 1, 147, 1, 2, 149, 2, 4, 151, 3, 5, 152, 3, 4, 153, 4, 1, 155, 2, 0, 157, 2, 5, 158, 3, 0, 164, 5, 0, 167, 1, 5, 168, 2, 5, 168, 0, 0, 172, 0, 3, 173, 1, 0, 178, 3, 5, 184, 2, 0, 195, 5, 5, 196, 2, 1, 202, 0, 5, 203, 1, 1, 204, 4, 0, 206, 4, 5, 208, 5, 2, 209, 0, 5, 210, 1, 5, 212, 1, 2, 214, 4, 3, 215, 5, 4, 215, 0, 2, 215, 0, 4, 215, 5, 1, 216, 1, 4, 219, 3, 3, 225, 0, 4, 225, 2, 4, 228, 1, 2, 229, 2, 5]);
