n_res = 4;
rc = [ 24, 45, 31, 26 ];
n_tasks = 92;
d = [0, 7, 1, 4, 7, 2, 2, 1, 6, 10, 3, 2, 9, 5, 10, 4, 8, 2, 5, 3, 7, 3, 2, 7, 1, 6, 2, 2, 10, 3, 5, 7, 5, 3, 8, 1, 9, 4, 10, 3, 1, 3, 1, 7, 5, 3, 5, 3, 6, 3, 6, 6, 1, 8, 1, 1, 2, 1, 9, 8, 5, 9, 2, 9, 1, 6, 3, 4, 2, 1, 9, 10, 3, 3, 6, 3, 7, 6, 1, 5, 3, 1, 10, 7, 10, 1, 2, 8, 1, 4, 9, 0];
rr = array2d(1..4, 1..92, [0, 8, 0, 3, 0, 0, 0, 0, 0, 1, 5, 0, 0, 0, 6, 0, 0, 0, 0, 0, 0, 0, 0, 3, 0, 0, 0, 0, 0, 0, 0, 0, 0, 1, 2, 0, 8, 0, 0, 0, 8, 0, 0, 0, 0, 0, 0, 5, 0, 0, 5, 9, 0, 0, 2, 4, 0, 0, 0, 0, 0, 0, 0, 6, 0, 0, 10, 0, 0, 1, 0, 7, 10, 0, 0, 0, 8, 0, 0, 0, 0, 0, 0, 4, 0, 0, 0, 8, 0, 0, 0, 0, 0, 0, 0, 0, 0, 6, 0, 4, 8, 0, 0, 9, 1, 0, 0, 0, 0, 0, 6, 0, 0, 3, 1, 0, 0, 5, 0, 0, 0, 8, 0, 7, 3, 0, 0, 4, 0, 0, 0, 0, 0, 10, 7, 0, 0, 5, 0, 0, 1, 0, 0, 0, 0, 0, 0, 0, 9, 0, 9, 0, 1, 0, 0, 0, 0, 0, 0, 9, 10, 0, 0, 0, 0, 2, 0, 0, 0, 3, 0, 0, 0, 0, 0, 0, 5, 0, 0, 0, 10, 0, 0, 0, 0, 0, 0, 0, 2, 0, 10, 0, 0, 0, 0, 0, 0, 0, 0, 0, 0, 0, 0, 8, 10, 0, 0, 0, 10, 0, 0, 1, 0, 0, 3, 0, 0, 0, 0, 0, 0, 0, 0, 10, 0, 0, 0, 0, 0, 0, 2, 0, 0, 0, 0, 0, 0, 3, 0, 0, 0, 0, 0, 2, 0, 3, 0, 0, 0, 8, 0, 0, 0, 0, 7, 0, 0, 0, 3, 3, 0, 0, 7, 0, 0, 0, 4, 0, 0, 0, 8, 0, 0, 0, 0, 0, 0, 0, 5, 0, 0, 0, 0, 0, 0, 0, 0, 0, 0, 5, 0, 4, 3, 2, 0, 0, 0, 0, 0, 0, 0, 0, 3, 0, 6, 0, 0, 0, 0, 0, 0, 0, 0, 1, 6, 0, 0, 0, 0, 5, 7, 0, 0, 0, 0, 4, 0, 0, 2, 0, 0, 0, 0, 10, 0, 0, 0, 0, 10, 0, 5, 0, 0, 0, 0, 0, 0, 0, 0, 0, 0, 0, 0, 0, 0, 3, 1, 8, 0, 0, 0, 8, 0, 0, 0, 3, 2, 0]);

suc = [
   {2, 3, 4},
   {27, 13, 6},
   {59, 46},
   {11, 12, 5},
   {8, 9, 7},
   {10, 37, 14},
   {49},
   {54, 20, 22},
   {25, 28, 36},
   {17, 47, 31},
   {81, 45, 71},
   {58, 21},
   {16, 23},
   {57, 15},
   {18, 19, 63},
   {56, 79},
   {42},
   {40},
   {24, 73},
   {26},
   {52, 39},
   {50, 82, 29},
   {24, 76},
   {30},
   {40, 65, 80},
   {32},
   {34, 83},
   {35},
   {33},
   {71},
   {44},
   {61},
   {85, 38},
   {74, 59},
   {43, 53, 78},
   {41},
   {67},
   {48, 70},
   {55},
   {66},
   {90, 51},
   {56},
   {84},
   {70},
   {55},
   {61},
   {73},
   {72},
   {69},
   {56, 88},
   {68},
   {88},
   {84},
   {83, 85, 77},
   {67, 60},
   {76},
   {66},
   {84, 69},
   {91},
   {62},
   {75},
   {64},
   {71},
   {77},
   {81},
   {72},
   {82},
   {86},
   {89, 70},
   {91},
   {86},
   {73},
   {83},
   {75, 79},
   {76},
   {77},
   {90},
   {79},
   {87},
   {86},
   {82, 85},
   {87},
   {91},
   {87},
   {88},
   {89},
   {90},
   {89},
   {92},
   {92},
   {92},
   {  } ];

deadline = array2d(1..92, 1..3, [4, 0, 2, 4, 0, 2, 4, 4, 3, 5, 1, 5, 7, 2, 5, 8, 5, 0, 8, 0, 2, 13, 1, 1, 15, 2, 1, 19, 4, 4, 21, 2, 4, 21, 5, 1, 21, 4, 5, 22, 2, 0, 23, 5, 3, 23, 5, 2, 24, 5, 4, 25, 0, 2, 28, 4, 2, 30, 1, 5, 31, 2, 4, 31, 2, 3, 35, 3, 2, 36, 5, 4, 37, 4, 2, 40, 0, 2, 41, 3, 5, 42, 3, 1, 42, 2, 5, 42, 1, 5, 47, 3, 0, 50, 2, 0, 51, 3, 0, 52, 1, 5, 53, 4, 4, 55, 1, 1, 56, 5, 2, 57, 2, 2, 58, 2, 4, 62, 4, 2, 62, 2, 2, 63, 3, 4, 64, 0, 4, 65, 4, 5, 72, 5, 5, 77, 2, 2, 80, 1, 4, 82, 0, 1, 82, 5, 0, 83, 5, 2, 85, 3, 5, 86, 1, 0, 86, 3, 5, 88, 1, 0, 90, 1, 3, 92, 4, 4, 94, 3, 4, 95, 5, 0, 97, 2, 3, 98, 4, 1, 98, 0, 3, 99, 2, 2, 102, 1, 0, 105, 0, 1, 107, 5, 2, 110, 2, 2, 113, 5, 1, 117, 1, 0, 121, 2, 5, 123, 1, 0, 125, 0, 3, 126, 0, 0, 127, 2, 1, 131, 0, 0, 133, 1, 2, 133, 5, 3, 142, 1, 5, 144, 2, 3, 144, 3, 5, 144, 4, 5, 144, 4, 0, 146, 2, 0, 149, 4, 3, 150, 5, 2, 151, 0, 0, 154, 0, 0, 156, 3, 0, 157, 5, 4, 159, 1, 4, 160, 3, 3, 163, 1, 4, 170, 4, 0]);
