n_res = 4;
rc = [ 53, 44, 50, 48 ];
n_tasks = 92;
d = [0, 3, 5, 9, 3, 1, 5, 1, 5, 1, 2, 2, 2, 3, 4, 8, 7, 2, 8, 10, 4, 4, 7, 10, 1, 1, 4, 5, 1, 6, 4, 1, 8, 10, 9, 4, 3, 2, 2, 6, 6, 1, 9, 3, 7, 5, 8, 7, 4, 4, 4, 1, 9, 1, 10, 5, 6, 1, 3, 5, 2, 10, 6, 10, 3, 9, 4, 9, 1, 9, 9, 5, 10, 8, 10, 9, 9, 10, 2, 9, 3, 8, 3, 6, 3, 7, 9, 7, 3, 8, 10, 0];
rr = array2d(1..4, 1..92, [0, 9, 6, 7, 4, 9, 2, 4, 4, 4, 3, 10, 5, 1, 1, 6, 7, 5, 5, 10, 4, 9, 6, 7, 10, 1, 8, 4, 5, 2, 5, 7, 7, 10, 9, 10, 1, 10, 4, 9, 7, 1, 10, 7, 6, 5, 10, 1, 3, 4, 5, 10, 2, 3, 9, 9, 3, 6, 1, 7, 3, 8, 2, 3, 10, 2, 3, 1, 10, 4, 7, 2, 6, 7, 9, 8, 5, 2, 1, 2, 3, 6, 9, 2, 6, 6, 7, 1, 6, 5, 9, 0, 0, 8, 7, 5, 9, 1, 10, 2, 3, 1, 8, 10, 1, 6, 5, 4, 3, 5, 9, 6, 2, 8, 10, 1, 4, 2, 3, 4, 7, 2, 5, 3, 9, 6, 1, 2, 9, 2, 3, 6, 7, 8, 6, 2, 9, 2, 1, 6, 10, 2, 2, 7, 7, 5, 2, 6, 8, 4, 7, 2, 4, 5, 3, 4, 5, 5, 5, 8, 7, 2, 3, 1, 7, 6, 9, 4, 2, 6, 5, 7, 10, 2, 9, 5, 7, 10, 7, 6, 2, 5, 7, 0, 0, 10, 8, 10, 1, 2, 8, 10, 2, 2, 4, 5, 8, 5, 8, 2, 10, 1, 2, 8, 5, 1, 2, 8, 8, 9, 1, 8, 10, 9, 4, 8, 4, 10, 2, 10, 9, 1, 9, 2, 1, 4, 5, 6, 5, 9, 3, 5, 2, 3, 10, 8, 9, 5, 5, 3, 9, 5, 8, 4, 1, 6, 7, 7, 9, 10, 9, 3, 10, 6, 5, 3, 1, 3, 7, 7, 3, 3, 7, 4, 3, 6, 7, 10, 1, 2, 2, 1, 1, 9, 5, 0, 0, 10, 1, 8, 8, 6, 4, 9, 10, 7, 3, 10, 5, 5, 4, 3, 9, 9, 6, 4, 1, 4, 4, 4, 9, 6, 7, 8, 2, 7, 8, 4, 2, 7, 1, 10, 9, 5, 3, 9, 5, 2, 9, 10, 10, 4, 6, 9, 5, 8, 9, 2, 10, 9, 1, 9, 10, 10, 6, 4, 4, 2, 10, 1, 9, 4, 6, 8, 6, 2, 2, 10, 3, 2, 4, 1, 4, 6, 9, 9, 9, 5, 8, 8, 1, 4, 3, 8, 7, 3, 3, 0]);

suc = [
   {2, 3, 4},
   {5, 6, 7},
   {18, 26, 22},
   {16, 11, 15},
   {8, 80, 84},
   {10, 43, 12},
   {81, 9, 36},
   {43},
   {16, 83, 13},
   {17, 20},
   {12, 23},
   {24, 48, 14},
   {17, 51},
   {25, 69, 39},
   {41, 19, 21},
   {52},
   {40, 34, 48},
   {44, 37, 76},
   {58, 27, 28},
   {33},
   {62},
   {23},
   {74, 53, 29},
   {65, 61},
   {89, 26},
   {47},
   {75},
   {30, 31},
   {32, 35},
   {32, 56, 78},
   {35},
   {42},
   {52, 46},
   {69, 38},
   {87},
   {38},
   {59, 63},
   {65, 62},
   {50},
   {56, 68},
   {44, 84},
   {72, 45},
   {54},
   {75, 61},
   {49},
   {58},
   {60, 77},
   {80, 50},
   {60, 79},
   {66, 62},
   {73, 66, 63},
   {66, 86},
   {57, 69, 55},
   {91, 59, 77},
   {60, 70, 63},
   {72},
   {67},
   {74, 61, 71},
   {81, 74},
   {76},
   {85},
   {64},
   {65, 75},
   {73, 85},
   {68, 78},
   {87},
   {84, 70, 79},
   {82},
   {72, 88, 80},
   {88, 83, 71},
   {73, 77},
   {82},
   {76},
   {78, 79},
   {89},
   {82, 90},
   {81},
   {87},
   {83},
   {85},
   {90},
   {86},
   {90},
   {88},
   {86},
   {91},
   {89},
   {91},
   {92},
   {92},
   {92},
   {  } ];

deadline = array2d(1..92, 1..3, [1, 5, 4, 8, 0, 4, 14, 4, 4, 14, 1, 2, 16, 3, 3, 22, 1, 0, 24, 3, 0, 24, 2, 2, 28, 1, 0, 30, 4, 0, 32, 4, 4, 34, 2, 4, 35, 2, 4, 36, 2, 2, 38, 5, 1, 39, 0, 4, 47, 2, 3, 48, 5, 2, 49, 3, 0, 51, 1, 3, 53, 5, 1, 64, 5, 5, 64, 3, 0, 65, 3, 4, 74, 4, 1, 75, 5, 0, 76, 2, 3, 77, 4, 3, 78, 1, 3, 81, 2, 1, 83, 4, 4, 88, 3, 0, 89, 0, 1, 94, 2, 0, 99, 3, 3, 100, 3, 2, 109, 3, 5, 111, 5, 2, 115, 0, 5, 118, 4, 0, 119, 5, 1, 120, 4, 3, 129, 2, 1, 131, 1, 5, 131, 0, 1, 133, 5, 5, 134, 3, 5, 136, 0, 1, 136, 2, 3, 136, 0, 2, 139, 3, 1, 143, 3, 3, 144, 5, 3, 151, 5, 4, 156, 5, 0, 162, 1, 3, 163, 5, 3, 166, 3, 0, 173, 4, 4, 175, 1, 0, 176, 2, 3, 176, 3, 5, 181, 3, 5, 181, 0, 5, 188, 5, 2, 189, 1, 3, 189, 3, 3, 191, 5, 2, 192, 0, 2, 193, 3, 3, 193, 0, 5, 194, 2, 0, 195, 3, 5, 196, 1, 0, 198, 4, 3, 203, 1, 4, 204, 3, 0, 205, 5, 1, 206, 1, 4, 211, 3, 4, 211, 1, 1, 212, 2, 5, 221, 5, 1, 222, 2, 1, 222, 5, 2, 223, 4, 4, 226, 3, 2, 229, 4, 4, 230, 3, 2, 234, 2, 0, 243, 4, 0, 246, 3, 4]);
