n_res = 4;
rc = [ 61, 66, 59, 48 ];
n_tasks = 92;
d = [0, 9, 9, 2, 7, 6, 5, 7, 5, 5, 3, 2, 8, 7, 6, 1, 6, 4, 5, 3, 9, 3, 3, 10, 8, 3, 1, 4, 8, 10, 6, 9, 8, 7, 2, 1, 7, 4, 1, 8, 4, 2, 9, 7, 10, 8, 9, 2, 7, 3, 8, 3, 8, 2, 2, 4, 3, 1, 6, 3, 3, 3, 6, 9, 5, 7, 10, 8, 4, 6, 6, 3, 1, 1, 3, 8, 9, 10, 7, 1, 3, 9, 3, 3, 9, 1, 4, 7, 6, 10, 1, 0];
rr = array2d(1..4, 1..92, [0, 7, 8, 0, 4, 2, 0, 0, 0, 0, 5, 2, 6, 4, 6, 0, 9, 8, 3, 9, 2, 8, 8, 1, 7, 5, 4, 0, 0, 4, 10, 6, 10, 4, 5, 0, 9, 2, 9, 10, 5, 0, 1, 9, 5, 3, 5, 9, 6, 4, 4, 7, 0, 10, 2, 5, 5, 0, 9, 2, 10, 0, 9, 9, 7, 5, 7, 2, 1, 4, 4, 6, 3, 5, 0, 1, 1, 8, 0, 7, 6, 7, 0, 4, 9, 5, 7, 2, 3, 0, 1, 0, 0, 0, 4, 1, 4, 0, 5, 0, 4, 3, 0, 0, 7, 0, 1, 2, 8, 10, 4, 8, 6, 10, 8, 10, 0, 3, 5, 6, 1, 5, 8, 6, 10, 10, 8, 4, 4, 0, 9, 9, 2, 9, 0, 6, 1, 10, 2, 0, 4, 5, 9, 7, 0, 0, 4, 1, 0, 0, 0, 3, 6, 0, 8, 3, 4, 6, 9, 6, 7, 0, 8, 4, 6, 7, 8, 3, 0, 7, 8, 0, 3, 7, 1, 2, 10, 4, 0, 3, 8, 2, 10, 0, 0, 4, 0, 3, 6, 2, 0, 10, 1, 0, 5, 4, 10, 1, 0, 0, 3, 7, 4, 0, 9, 2, 9, 0, 6, 0, 7, 4, 9, 2, 2, 0, 9, 4, 6, 1, 5, 3, 8, 5, 0, 4, 8, 5, 7, 0, 8, 5, 5, 9, 8, 4, 5, 7, 0, 2, 4, 2, 6, 4, 7, 0, 2, 9, 9, 5, 9, 0, 5, 3, 8, 3, 0, 10, 0, 0, 9, 0, 0, 2, 2, 1, 5, 0, 3, 4, 4, 3, 8, 10, 6, 0, 0, 0, 0, 8, 0, 10, 10, 7, 5, 3, 6, 2, 0, 6, 0, 2, 10, 6, 0, 0, 0, 0, 0, 0, 4, 1, 6, 2, 0, 9, 2, 9, 7, 1, 9, 4, 4, 0, 2, 2, 0, 1, 8, 0, 1, 0, 4, 0, 6, 9, 8, 7, 0, 0, 6, 0, 0, 5, 0, 5, 8, 8, 0, 6, 6, 3, 0, 2, 0, 8, 0, 9, 0, 0, 10, 3, 9, 7, 5, 9, 0, 0, 1, 1, 0, 0, 3, 5, 3, 7, 8, 0]);

suc = [
   {2, 3, 4},
   {48, 27, 23},
   {25, 5},
   {16, 6, 7},
   {8, 84, 14},
   {11, 86, 31},
   {45, 20, 13},
   {9, 10, 12},
   {17, 49, 33},
   {32, 27, 62},
   {64, 19},
   {24, 18, 15},
   {26, 34, 71},
   {33, 36, 44},
   {52, 22, 76},
   {73, 82, 27},
   {35, 77, 70},
   {44, 22, 30},
   {65, 42, 38},
   {51, 37, 21},
   {77, 29, 22},
   {73, 49, 46},
   {64, 28},
   {26, 54},
   {57},
   {72, 41, 43},
   {80, 42},
   {36, 47},
   {40},
   {41, 54},
   {48, 49, 89},
   {41, 59, 57},
   {57, 58, 35},
   {35, 76},
   {56, 66},
   {62, 59, 54},
   {42, 39},
   {59, 43},
   {62, 53, 46},
   {50, 46},
   {52, 61},
   {88, 58},
   {51, 52},
   {83, 61},
   {60, 53, 70},
   {64, 85, 78},
   {56, 53, 79},
   {51, 71, 63},
   {81, 65, 55},
   {66, 70},
   {69},
   {58, 74, 55},
   {84, 63},
   {56, 68, 55},
   {60},
   {75},
   {61},
   {60, 68, 63},
   {66, 74, 69},
   {67},
   {82, 68},
   {83, 67, 79},
   {67, 69},
   {65},
   {74, 87, 71},
   {72},
   {75},
   {77},
   {83},
   {72, 76, 79},
   {90},
   {80, 73, 89},
   {81, 75},
   {80, 91},
   {85},
   {86, 78},
   {78},
   {89, 81},
   {82},
   {88},
   {87},
   {86},
   {85},
   {91},
   {90, 87},
   {88},
   {91},
   {90},
   {92},
   {92},
   {92},
   {  } ];

deadline = array2d(1..92, 1..3, [1, 1, 0, 1, 2, 1, 2, 4, 0, 8, 1, 1, 11, 3, 1, 13, 5, 5, 14, 2, 1, 16, 1, 3, 28, 3, 5, 32, 5, 0, 34, 2, 5, 45, 1, 2, 45, 2, 5, 47, 4, 5, 57, 0, 0, 58, 3, 3, 59, 3, 2, 60, 5, 4, 64, 3, 4, 72, 0, 4, 73, 2, 0, 73, 0, 2, 74, 0, 0, 76, 3, 3, 80, 0, 1, 83, 4, 3, 84, 4, 3, 86, 0, 4, 90, 3, 1, 90, 1, 5, 91, 1, 2, 94, 0, 1, 94, 4, 3, 95, 5, 5, 96, 5, 5, 96, 1, 0, 98, 5, 2, 102, 0, 5, 105, 5, 4, 108, 3, 4, 116, 2, 3, 117, 1, 0, 121, 1, 5, 122, 1, 4, 123, 2, 0, 123, 5, 4, 125, 3, 1, 125, 0, 0, 127, 4, 5, 127, 2, 2, 127, 4, 3, 130, 2, 2, 130, 5, 3, 135, 1, 2, 137, 0, 1, 139, 3, 1, 140, 5, 3, 142, 5, 5, 143, 4, 0, 146, 2, 4, 151, 2, 2, 152, 0, 0, 156, 5, 3, 156, 3, 4, 161, 2, 3, 161, 4, 2, 162, 0, 1, 164, 2, 0, 164, 5, 5, 167, 4, 0, 170, 2, 0, 170, 4, 0, 172, 1, 0, 175, 4, 4, 180, 3, 3, 181, 1, 5, 183, 1, 4, 184, 5, 1, 184, 4, 1, 189, 1, 2, 189, 2, 4, 191, 1, 3, 191, 2, 1, 194, 4, 4, 196, 0, 4, 199, 5, 5, 200, 4, 5, 205, 2, 5, 207, 5, 5, 210, 5, 3, 214, 4, 1, 214, 1, 5]);
