n_res = 4;
rc = [ 62, 46, 60, 63 ];
n_tasks = 92;
d = [0, 7, 1, 1, 7, 3, 10, 5, 10, 6, 3, 9, 4, 6, 7, 4, 9, 1, 3, 10, 1, 3, 2, 3, 2, 3, 7, 2, 4, 2, 3, 10, 2, 5, 3, 4, 1, 1, 6, 8, 4, 5, 10, 8, 5, 7, 4, 10, 4, 2, 9, 2, 9, 5, 6, 9, 9, 5, 10, 3, 9, 10, 7, 3, 3, 1, 2, 9, 7, 10, 10, 6, 7, 1, 2, 2, 2, 2, 3, 8, 3, 4, 8, 5, 6, 7, 6, 4, 8, 6, 9, 0];
rr = array2d(1..4, 1..92, [0, 4, 10, 4, 5, 5, 8, 6, 5, 7, 3, 7, 4, 2, 10, 4, 9, 2, 3, 10, 3, 10, 5, 10, 1, 10, 8, 3, 2, 1, 4, 7, 10, 5, 4, 6, 10, 6, 6, 5, 5, 6, 6, 5, 1, 4, 10, 5, 3, 9, 5, 1, 6, 2, 7, 8, 1, 9, 9, 5, 4, 1, 8, 2, 1, 7, 7, 10, 1, 6, 2, 4, 2, 8, 1, 3, 3, 7, 2, 5, 3, 8, 7, 7, 1, 3, 5, 8, 5, 1, 10, 0, 0, 5, 6, 1, 2, 7, 3, 10, 7, 4, 4, 6, 7, 6, 4, 6, 6, 5, 7, 8, 5, 6, 4, 2, 5, 9, 4, 1, 6, 4, 3, 2, 4, 3, 8, 3, 7, 1, 5, 3, 10, 9, 1, 5, 2, 10, 2, 1, 5, 8, 10, 1, 10, 3, 2, 5, 3, 2, 6, 8, 10, 5, 6, 10, 8, 6, 4, 1, 1, 5, 2, 3, 7, 7, 2, 3, 3, 4, 2, 5, 10, 3, 10, 1, 9, 9, 6, 5, 1, 5, 6, 0, 0, 1, 8, 9, 1, 6, 8, 7, 10, 6, 3, 9, 6, 4, 10, 7, 9, 4, 3, 7, 4, 1, 5, 6, 4, 8, 3, 6, 9, 3, 4, 2, 9, 2, 1, 2, 8, 6, 7, 7, 2, 10, 6, 1, 9, 8, 6, 10, 9, 8, 1, 8, 4, 1, 4, 6, 1, 7, 9, 2, 1, 1, 7, 8, 8, 9, 1, 4, 1, 5, 3, 8, 2, 10, 4, 5, 4, 3, 1, 1, 8, 10, 5, 10, 3, 3, 9, 7, 5, 8, 7, 0, 0, 3, 10, 1, 8, 2, 7, 5, 4, 7, 10, 3, 4, 10, 5, 4, 8, 3, 8, 7, 9, 6, 9, 3, 2, 10, 6, 7, 5, 1, 10, 2, 7, 8, 9, 8, 4, 7, 3, 10, 2, 7, 7, 3, 10, 8, 3, 1, 3, 7, 4, 8, 10, 6, 8, 10, 1, 8, 6, 8, 3, 10, 9, 4, 7, 6, 5, 1, 4, 5, 10, 5, 4, 7, 3, 4, 5, 7, 8, 4, 8, 2, 8, 6, 10, 7, 3, 4, 8, 10, 10, 0]);

suc = [
   {2, 3, 4},
   {5, 7},
   {10, 35, 38},
   {62, 6},
   {16, 36, 70},
   {8, 17, 23},
   {9, 12, 21},
   {24, 34},
   {11, 52, 13},
   {42, 50, 15},
   {66, 14},
   {65, 30, 87},
   {18, 19, 28},
   {47},
   {71},
   {52},
   {80, 57, 27},
   {48, 20, 22},
   {53, 45},
   {73},
   {26, 75},
   {77, 29},
   {25, 43},
   {32, 73},
   {33, 37, 31},
   {56, 82, 90},
   {78},
   {38},
   {76},
   {49, 55},
   {41},
   {58, 44, 39},
   {40},
   {44},
   {63},
   {68},
   {41},
   {64},
   {91, 67},
   {58},
   {46},
   {76},
   {52},
   {83, 46},
   {54},
   {61},
   {73, 85},
   {51, 85, 53},
   {77},
   {61},
   {56, 60},
   {68},
   {74, 79},
   {69},
   {82},
   {88},
   {59},
   {68, 63},
   {83},
   {66},
   {64},
   {81, 70},
   {78},
   {81},
   {76},
   {90},
   {72},
   {78},
   {71},
   {84},
   {85},
   {77},
   {87},
   {80},
   {82},
   {89},
   {80},
   {79},
   {90},
   {86},
   {86},
   {86},
   {84},
   {89},
   {87},
   {89},
   {91},
   {91},
   {92},
   {92},
   {92},
   {  } ];

deadline = array2d(1..92, 1..3, [1, 1, 4, 6, 0, 3, 6, 1, 0, 10, 2, 3, 11, 5, 1, 17, 5, 3, 18, 1, 0, 21, 1, 5, 22, 0, 4, 31, 3, 1, 32, 4, 4, 34, 3, 1, 34, 4, 3, 37, 5, 2, 45, 0, 2, 47, 5, 2, 52, 5, 0, 54, 3, 5, 55, 1, 4, 56, 5, 1, 56, 0, 4, 59, 3, 5, 62, 4, 1, 63, 2, 1, 63, 0, 1, 66, 1, 2, 71, 0, 4, 71, 4, 0, 73, 1, 0, 73, 3, 4, 77, 4, 1, 77, 4, 1, 78, 1, 3, 78, 0, 1, 81, 3, 5, 81, 5, 3, 81, 0, 2, 82, 2, 3, 83, 0, 5, 83, 1, 4, 83, 5, 1, 83, 2, 5, 85, 5, 2, 86, 1, 1, 86, 4, 3, 89, 0, 4, 94, 2, 2, 94, 2, 0, 95, 5, 5, 95, 2, 5, 97, 5, 3, 98, 4, 2, 100, 5, 1, 111, 5, 4, 115, 3, 1, 116, 2, 0, 118, 0, 3, 120, 4, 1, 121, 2, 3, 121, 4, 3, 123, 1, 4, 123, 4, 5, 124, 1, 3, 124, 1, 3, 128, 0, 0, 136, 5, 1, 138, 2, 2, 139, 1, 4, 140, 4, 3, 140, 3, 0, 141, 1, 2, 147, 1, 2, 147, 4, 2, 148, 4, 4, 153, 4, 2, 153, 0, 2, 156, 2, 3, 156, 2, 0, 157, 4, 2, 157, 4, 5, 157, 0, 4, 168, 0, 2, 169, 1, 2, 175, 2, 5, 180, 1, 5, 183, 3, 1, 184, 2, 4, 184, 3, 5, 187, 3, 5, 194, 2, 4, 194, 2, 1, 197, 5, 0]);
