n_res = 4;
rc = [ 14, 17, 17, 18 ];
n_tasks = 92;
d = [0, 7, 8, 9, 5, 6, 8, 8, 3, 7, 2, 5, 2, 2, 5, 1, 10, 3, 4, 9, 10, 9, 6, 5, 6, 4, 6, 6, 5, 10, 3, 2, 4, 10, 2, 9, 1, 6, 6, 9, 9, 2, 4, 4, 8, 2, 10, 4, 7, 3, 10, 5, 5, 4, 8, 10, 6, 9, 10, 2, 9, 3, 3, 3, 2, 9, 4, 4, 2, 1, 2, 3, 2, 10, 10, 6, 4, 6, 4, 5, 6, 9, 4, 4, 1, 2, 1, 1, 2, 6, 9, 0];
rr = array2d(1..4, 1..92, [0, 7, 2, 4, 10, 0, 0, 10, 7, 1, 1, 0, 0, 6, 1, 0, 4, 0, 0, 0, 6, 0, 9, 0, 0, 0, 0, 5, 0, 0, 2, 3, 0, 5, 0, 0, 0, 0, 6, 0, 0, 0, 0, 3, 4, 0, 2, 3, 9, 1, 8, 0, 0, 0, 0, 0, 6, 0, 0, 0, 0, 0, 0, 0, 0, 1, 8, 0, 0, 0, 0, 6, 1, 0, 0, 0, 8, 2, 9, 6, 0, 0, 8, 4, 6, 10, 0, 0, 0, 10, 2, 0, 0, 0, 0, 10, 0, 1, 0, 0, 0, 10, 0, 10, 5, 0, 6, 0, 1, 8, 0, 4, 0, 0, 10, 9, 9, 2, 8, 6, 3, 0, 0, 10, 3, 0, 5, 8, 3, 0, 10, 10, 1, 0, 0, 4, 0, 0, 0, 0, 0, 7, 0, 4, 10, 10, 0, 9, 0, 8, 6, 3, 7, 5, 1, 0, 0, 1, 0, 6, 5, 10, 0, 8, 0, 0, 0, 10, 0, 0, 4, 0, 8, 8, 7, 0, 3, 8, 5, 1, 4, 9, 10, 0, 0, 1, 1, 0, 0, 10, 1, 5, 0, 5, 4, 0, 0, 0, 0, 7, 9, 0, 10, 0, 0, 10, 0, 0, 10, 1, 0, 0, 3, 0, 5, 10, 8, 1, 0, 0, 4, 1, 7, 0, 0, 8, 7, 0, 7, 5, 6, 5, 1, 0, 0, 3, 0, 10, 3, 10, 6, 0, 0, 0, 0, 10, 0, 10, 2, 0, 6, 7, 10, 0, 0, 0, 0, 3, 0, 10, 0, 2, 0, 0, 0, 0, 0, 1, 0, 7, 0, 0, 0, 0, 0, 0, 0, 8, 0, 1, 1, 1, 0, 0, 2, 0, 8, 4, 0, 3, 1, 0, 9, 7, 0, 0, 9, 3, 7, 8, 0, 0, 0, 0, 0, 3, 1, 0, 0, 7, 0, 0, 0, 10, 0, 10, 0, 5, 1, 1, 0, 0, 0, 0, 0, 6, 1, 7, 10, 0, 0, 0, 0, 0, 0, 1, 3, 0, 0, 0, 3, 9, 0, 8, 0, 0, 8, 0, 4, 9, 2, 0, 0, 10, 1, 2, 2, 0, 0, 0, 7, 8, 0, 1, 0, 0, 1, 0]);

suc = [
   {2, 3, 4},
   {25, 12, 14},
   {16, 10, 6},
   {18, 5, 31},
   {57, 26, 34},
   {20, 30, 7},
   {8, 29},
   {9, 44, 23},
   {32, 28, 69},
   {24, 27, 11},
   {36, 15},
   {40, 17, 13},
   {79, 15},
   {69},
   {56, 42, 47},
   {46, 73, 22},
   {19, 21},
   {62, 58, 38},
   {45, 29},
   {33, 21, 87},
   {26},
   {40, 79, 23},
   {36, 55, 47},
   {64, 49, 26},
   {41, 58},
   {58, 70, 63},
   {64, 74, 68},
   {36, 37, 39},
   {48, 37, 31},
   {48, 85, 63},
   {73, 54},
   {48, 35, 86},
   {50, 68, 45},
   {51, 43},
   {40, 42, 43},
   {43, 52, 62},
   {82, 52, 53},
   {50},
   {56, 53},
   {90},
   {56, 60, 62},
   {51},
   {72, 65, 83},
   {49},
   {83, 61, 78},
   {80, 50, 60},
   {66, 51, 82},
   {74, 59, 54},
   {53},
   {66, 52, 69},
   {65, 59, 54},
   {65, 67},
   {57, 90, 55},
   {76},
   {72, 67, 71},
   {59, 61},
   {79, 63},
   {60, 68},
   {80, 77, 71},
   {75, 76, 78},
   {64, 74, 70},
   {72, 91, 71},
   {66},
   {81},
   {85, 70},
   {75, 67},
   {78},
   {89, 73, 75},
   {84},
   {76},
   {87},
   {80},
   {81, 82, 77},
   {88},
   {86},
   {77},
   {90},
   {84},
   {81, 87},
   {89},
   {84, 85},
   {83},
   {88},
   {86},
   {88},
   {91},
   {89},
   {91},
   {92},
   {92},
   {92},
   {  } ];

deadline = array2d(1..92, 1..3, [6, 4, 3, 15, 1, 5, 17, 3, 0, 22, 2, 2, 26, 5, 2, 31, 0, 3, 35, 5, 0, 40, 3, 4, 40, 5, 2, 42, 0, 5, 47, 3, 4, 50, 3, 3, 52, 0, 5, 52, 0, 4, 53, 3, 1, 54, 3, 4, 58, 0, 5, 60, 5, 3, 61, 0, 4, 62, 5, 4, 67, 3, 3, 68, 0, 4, 69, 1, 4, 72, 5, 2, 75, 0, 3, 77, 0, 2, 77, 2, 5, 78, 5, 5, 79, 1, 3, 79, 0, 1, 81, 1, 2, 83, 0, 5, 87, 4, 5, 90, 4, 0, 95, 4, 0, 99, 2, 4, 101, 2, 4, 103, 1, 0, 104, 3, 1, 104, 3, 0, 105, 4, 3, 108, 4, 2, 109, 2, 5, 112, 0, 1, 113, 0, 4, 117, 1, 4, 117, 0, 2, 124, 4, 2, 127, 0, 1, 128, 0, 3, 132, 3, 5, 132, 3, 3, 136, 1, 0, 138, 1, 3, 142, 4, 4, 144, 2, 4, 144, 0, 5, 144, 4, 2, 145, 0, 1, 147, 1, 4, 148, 1, 0, 148, 2, 4, 149, 3, 5, 157, 0, 1, 161, 5, 2, 167, 4, 3, 168, 3, 1, 178, 3, 1, 180, 3, 5, 180, 0, 3, 181, 2, 4, 182, 4, 3, 182, 4, 0, 183, 1, 3, 187, 2, 2, 187, 2, 3, 189, 5, 5, 192, 0, 5, 196, 0, 0, 200, 3, 3, 201, 5, 4, 206, 4, 0, 206, 3, 0, 207, 4, 3, 211, 5, 1, 212, 1, 1, 213, 1, 5, 216, 2, 0, 219, 5, 1, 220, 3, 1, 222, 3, 0, 226, 4, 0]);
