n_res = 4;
rc = [ 35, 21, 28, 22 ];
n_tasks = 92;
d = [0, 7, 10, 3, 9, 8, 10, 2, 7, 4, 1, 10, 9, 1, 3, 8, 10, 4, 4, 4, 10, 10, 5, 8, 5, 5, 5, 5, 10, 5, 4, 5, 1, 2, 2, 5, 7, 3, 1, 2, 7, 3, 3, 10, 4, 2, 3, 3, 8, 9, 10, 7, 3, 4, 6, 3, 1, 2, 2, 7, 3, 9, 9, 5, 7, 5, 4, 2, 5, 1, 10, 2, 9, 6, 5, 6, 10, 8, 3, 7, 6, 5, 8, 9, 2, 7, 5, 10, 7, 7, 7, 0];
rr = array2d(1..4, 1..92, [0, 0, 0, 0, 7, 0, 0, 0, 0, 6, 10, 2, 9, 9, 0, 0, 0, 1, 0, 2, 0, 0, 0, 0, 0, 0, 0, 0, 0, 5, 0, 0, 0, 3, 0, 0, 0, 0, 6, 0, 9, 6, 0, 7, 0, 0, 0, 0, 10, 10, 0, 0, 0, 0, 0, 0, 0, 0, 0, 0, 9, 0, 0, 0, 0, 4, 0, 0, 6, 0, 0, 4, 0, 0, 0, 6, 0, 0, 0, 2, 0, 2, 0, 0, 6, 0, 0, 5, 0, 3, 0, 0, 0, 0, 0, 0, 0, 2, 0, 0, 0, 0, 0, 0, 0, 0, 0, 2, 2, 0, 0, 0, 5, 0, 0, 0, 0, 2, 2, 0, 0, 0, 0, 7, 0, 0, 1, 8, 0, 0, 0, 0, 0, 0, 1, 0, 0, 0, 0, 0, 0, 0, 0, 0, 0, 0, 0, 9, 0, 0, 0, 0, 0, 0, 0, 1, 9, 0, 7, 0, 0, 0, 0, 0, 0, 0, 1, 0, 0, 3, 10, 0, 0, 0, 2, 4, 0, 0, 0, 0, 0, 0, 0, 0, 0, 1, 0, 5, 0, 0, 2, 0, 4, 0, 0, 0, 0, 0, 7, 0, 0, 0, 0, 0, 0, 0, 0, 0, 5, 0, 0, 2, 0, 0, 0, 0, 7, 0, 0, 0, 0, 0, 0, 0, 0, 0, 0, 0, 7, 9, 10, 0, 0, 0, 9, 1, 10, 7, 0, 0, 2, 10, 0, 0, 0, 0, 7, 0, 0, 0, 0, 5, 0, 2, 1, 0, 6, 5, 0, 0, 3, 0, 0, 0, 7, 0, 0, 0, 0, 0, 0, 0, 0, 0, 0, 0, 0, 0, 10, 0, 0, 0, 0, 5, 0, 0, 0, 0, 0, 0, 0, 0, 0, 0, 10, 0, 0, 8, 2, 2, 0, 0, 0, 0, 8, 0, 4, 0, 0, 0, 0, 0, 2, 5, 0, 1, 0, 0, 0, 0, 0, 0, 0, 9, 0, 0, 0, 0, 0, 0, 8, 0, 0, 0, 4, 6, 0, 1, 0, 0, 0, 0, 0, 0, 0, 0, 0, 0, 0, 0, 0, 0, 0, 0, 0, 0, 0, 0, 0, 0, 0, 10, 6, 0, 4, 0, 9, 0]);

suc = [
   {2, 3, 4},
   {8, 13, 5},
   {25, 42},
   {17, 18, 6},
   {57, 12, 44},
   {72, 9, 7},
   {16, 10, 20},
   {11, 14, 15},
   {51},
   {35, 27},
   {42, 66, 23},
   {34, 22, 47},
   {40, 49},
   {19, 54},
   {24, 38},
   {48},
   {39},
   {26, 36, 55},
   {32, 29, 21},
   {30},
   {33, 84},
   {89, 53, 55},
   {41, 46, 78},
   {64, 88},
   {28, 71, 68},
   {71},
   {33, 42, 37},
   {72, 74, 46},
   {58, 62, 31},
   {56, 43, 53},
   {73, 74, 63},
   {39},
   {67, 43},
   {59, 51, 46},
   {50, 83, 82},
   {59, 60},
   {52, 47},
   {90},
   {45},
   {81},
   {52, 85},
   {54},
   {61},
   {72},
   {52, 55},
   {49},
   {66, 54},
   {51},
   {80, 60},
   {73, 75, 76},
   {53},
   {65},
   {66, 63},
   {65, 91},
   {86},
   {57, 70},
   {80},
   {69},
   {74, 69, 61},
   {77},
   {64, 73, 70},
   {76, 84},
   {86},
   {79},
   {81, 71},
   {77},
   {68, 69, 76},
   {78, 79},
   {80},
   {83, 78},
   {89},
   {75, 87},
   {79},
   {85},
   {77},
   {88},
   {84},
   {81, 82},
   {87},
   {82, 83},
   {86},
   {88, 85},
   {91},
   {91},
   {90},
   {87},
   {90},
   {89},
   {92},
   {92},
   {92},
   {  } ];

deadline = array2d(1..92, 1..3, [1, 0, 5, 2, 4, 4, 3, 4, 2, 6, 0, 2, 13, 0, 2, 14, 2, 0, 17, 4, 5, 21, 4, 4, 21, 1, 4, 21, 5, 3, 24, 4, 1, 25, 1, 2, 27, 3, 5, 29, 4, 3, 34, 3, 0, 35, 4, 5, 44, 0, 0, 45, 0, 2, 49, 1, 2, 50, 3, 5, 59, 1, 3, 59, 1, 2, 62, 3, 4, 62, 0, 1, 63, 0, 2, 64, 2, 5, 68, 3, 3, 69, 4, 3, 69, 5, 0, 70, 4, 4, 70, 3, 0, 71, 0, 5, 72, 2, 2, 73, 4, 4, 75, 4, 0, 85, 0, 0, 87, 4, 2, 87, 2, 0, 91, 1, 5, 92, 2, 5, 93, 1, 2, 95, 1, 3, 101, 5, 0, 101, 4, 4, 104, 2, 4, 106, 0, 4, 110, 4, 2, 112, 4, 3, 118, 4, 3, 121, 0, 0, 124, 5, 0, 124, 1, 1, 125, 3, 0, 126, 2, 4, 127, 4, 4, 129, 5, 4, 130, 2, 0, 131, 4, 2, 133, 2, 0, 135, 1, 5, 135, 4, 4, 136, 1, 2, 137, 0, 3, 139, 2, 5, 139, 0, 1, 140, 1, 2, 143, 0, 4, 144, 3, 3, 149, 3, 2, 152, 3, 0, 152, 5, 1, 153, 0, 3, 153, 3, 5, 158, 1, 5, 159, 3, 1, 159, 5, 5, 160, 0, 5, 160, 5, 2, 160, 0, 3, 162, 1, 2, 163, 1, 4, 163, 0, 4, 165, 0, 1, 170, 2, 5, 175, 3, 5, 177, 1, 4, 179, 1, 4, 181, 3, 1, 183, 1, 2, 183, 4, 0, 185, 5, 2, 188, 1, 4]);
