n_res = 4;
rc = [ 52, 48, 53, 46 ];
n_tasks = 92;
d = [0, 10, 6, 8, 5, 2, 10, 10, 5, 6, 8, 9, 8, 5, 8, 3, 6, 9, 9, 8, 4, 3, 7, 3, 5, 5, 3, 3, 3, 7, 8, 4, 9, 2, 9, 5, 6, 5, 3, 9, 4, 5, 5, 7, 5, 3, 5, 1, 8, 5, 7, 10, 6, 5, 10, 2, 1, 10, 1, 3, 4, 9, 2, 4, 2, 4, 4, 5, 7, 5, 9, 7, 7, 3, 6, 1, 9, 6, 2, 8, 10, 8, 2, 1, 7, 2, 2, 1, 9, 4, 7, 0];
rr = array2d(1..4, 1..92, [0, 6, 7, 6, 4, 6, 6, 3, 7, 5, 5, 8, 4, 10, 2, 10, 10, 3, 6, 2, 6, 6, 3, 3, 4, 7, 7, 9, 10, 5, 1, 6, 10, 7, 5, 9, 2, 2, 8, 10, 9, 9, 7, 7, 10, 1, 10, 9, 4, 7, 3, 5, 5, 6, 6, 10, 9, 6, 4, 4, 4, 3, 9, 10, 2, 9, 2, 5, 6, 8, 8, 3, 10, 10, 1, 3, 1, 9, 9, 10, 3, 9, 9, 10, 10, 3, 4, 6, 8, 9, 8, 0, 0, 4, 3, 5, 8, 10, 2, 5, 9, 10, 4, 1, 3, 5, 9, 4, 4, 10, 4, 8, 6, 4, 5, 8, 5, 8, 7, 4, 5, 4, 5, 6, 8, 7, 3, 5, 9, 5, 10, 2, 9, 2, 10, 10, 3, 3, 4, 10, 4, 2, 2, 5, 1, 8, 4, 9, 7, 2, 9, 9, 9, 10, 4, 4, 3, 7, 4, 3, 2, 8, 8, 9, 9, 1, 1, 3, 2, 3, 1, 7, 1, 1, 6, 2, 4, 3, 10, 8, 5, 1, 3, 0, 0, 7, 10, 8, 2, 2, 3, 4, 10, 4, 9, 7, 10, 5, 8, 10, 2, 5, 9, 3, 8, 10, 1, 8, 6, 5, 7, 5, 3, 2, 3, 4, 5, 10, 3, 8, 6, 9, 10, 6, 4, 7, 2, 4, 7, 9, 1, 7, 4, 5, 2, 1, 5, 7, 3, 7, 5, 9, 4, 7, 5, 2, 7, 2, 6, 9, 8, 1, 4, 9, 10, 3, 8, 9, 8, 7, 6, 8, 3, 9, 2, 7, 8, 2, 6, 9, 8, 2, 7, 4, 10, 0, 0, 5, 7, 6, 2, 8, 6, 8, 3, 6, 10, 1, 6, 8, 4, 5, 9, 5, 5, 8, 5, 6, 2, 3, 9, 3, 5, 4, 8, 4, 2, 10, 3, 6, 2, 4, 6, 2, 6, 1, 6, 10, 7, 5, 2, 9, 10, 8, 2, 5, 10, 6, 3, 7, 6, 6, 7, 4, 4, 4, 5, 8, 2, 1, 6, 9, 1, 1, 5, 2, 5, 6, 4, 6, 2, 9, 10, 5, 8, 10, 7, 8, 3, 9, 8, 2, 2, 10, 7, 9, 10, 0]);

suc = [
   {2, 3, 4},
   {5},
   {9, 14, 15},
   {8, 7},
   {65, 10, 6},
   {28},
   {11, 12},
   {57, 20, 31},
   {81, 58},
   {46, 17, 38},
   {52, 13, 23},
   {72, 57, 82},
   {16, 50},
   {38},
   {33, 18, 43},
   {73, 49, 55},
   {61, 22},
   {59, 26, 19},
   {29, 21},
   {46},
   {30},
   {25},
   {24, 66, 51},
   {39},
   {27, 36},
   {74},
   {32, 79},
   {91},
   {90},
   {41},
   {70},
   {49, 34},
   {53, 35, 37},
   {81},
   {55},
   {62},
   {48},
   {71},
   {40, 88},
   {42, 44, 54},
   {44},
   {76, 47},
   {80, 45, 47},
   {70},
   {64},
   {86},
   {57},
   {66, 68},
   {56},
   {64},
   {83},
   {78},
   {61},
   {74},
   {78},
   {60, 63},
   {65, 58},
   {75, 85},
   {87},
   {76},
   {71},
   {67},
   {89, 69},
   {82},
   {70},
   {72},
   {84},
   {71},
   {84},
   {86},
   {87},
   {87},
   {78},
   {85},
   {77, 79},
   {89},
   {86},
   {80, 83, 79},
   {89},
   {81},
   {85},
   {84},
   {90},
   {88},
   {90},
   {91},
   {88},
   {91},
   {92},
   {92},
   {92},
   {  } ];

deadline = array2d(1..92, 1..3, [4, 0, 2, 5, 3, 3, 6, 1, 3, 9, 2, 0, 11, 4, 5, 13, 5, 3, 17, 3, 4, 21, 4, 2, 21, 2, 3, 23, 5, 5, 24, 3, 2, 24, 0, 5, 25, 4, 2, 26, 0, 4, 27, 5, 4, 27, 1, 1, 30, 2, 1, 32, 0, 5, 44, 3, 0, 46, 3, 0, 49, 1, 4, 52, 3, 2, 53, 2, 4, 56, 2, 0, 59, 3, 1, 65, 4, 0, 69, 5, 3, 70, 0, 5, 78, 3, 5, 78, 1, 1, 83, 0, 2, 84, 5, 2, 87, 0, 3, 87, 0, 3, 87, 0, 3, 87, 1, 2, 88, 5, 0, 89, 0, 5, 94, 0, 2, 96, 2, 0, 98, 0, 5, 98, 5, 1, 104, 1, 2, 107, 4, 4, 107, 5, 5, 107, 5, 1, 109, 1, 5, 110, 5, 1, 110, 3, 1, 115, 1, 1, 118, 2, 1, 119, 2, 1, 119, 4, 5, 126, 5, 0, 129, 4, 4, 131, 1, 2, 138, 3, 5, 138, 4, 0, 140, 5, 4, 143, 2, 1, 143, 2, 3, 145, 2, 2, 148, 0, 0, 149, 3, 5, 152, 1, 2, 154, 5, 4, 158, 2, 2, 159, 0, 2, 171, 3, 0, 179, 2, 4, 180, 4, 4, 181, 0, 2, 183, 0, 1, 184, 3, 0, 191, 5, 3, 192, 0, 1, 194, 3, 0, 198, 0, 3, 203, 0, 0, 204, 4, 5, 206, 1, 0, 211, 2, 4, 211, 4, 1, 213, 3, 1, 217, 5, 3, 219, 5, 4, 223, 3, 1, 225, 4, 2, 226, 0, 1, 227, 4, 3, 230, 1, 5, 231, 3, 3]);
