n_res = 4;
rc = [ 41, 34, 44, 41 ];
n_tasks = 92;
d = [0, 4, 3, 1, 7, 6, 3, 1, 5, 8, 3, 2, 6, 5, 9, 6, 3, 8, 5, 8, 9, 1, 7, 6, 6, 3, 3, 10, 5, 6, 3, 1, 9, 8, 10, 3, 5, 1, 7, 6, 6, 5, 4, 1, 7, 7, 4, 8, 9, 6, 10, 7, 8, 10, 5, 7, 1, 10, 5, 6, 8, 9, 8, 6, 5, 2, 9, 2, 9, 5, 4, 7, 4, 6, 5, 1, 10, 4, 1, 10, 6, 10, 4, 3, 5, 2, 8, 2, 4, 10, 4, 0];
rr = array2d(1..4, 1..92, [0, 6, 3, 5, 0, 0, 0, 10, 0, 5, 0, 0, 5, 0, 4, 0, 9, 0, 4, 5, 3, 0, 0, 0, 0, 8, 2, 5, 0, 0, 0, 0, 0, 5, 1, 8, 0, 6, 6, 2, 7, 0, 0, 9, 1, 6, 5, 0, 4, 6, 4, 8, 0, 0, 0, 0, 2, 0, 0, 0, 4, 0, 10, 1, 1, 7, 0, 1, 3, 0, 7, 0, 6, 0, 0, 0, 2, 4, 0, 0, 0, 0, 0, 1, 6, 1, 0, 7, 0, 0, 0, 0, 0, 0, 0, 3, 1, 2, 3, 3, 7, 0, 7, 9, 0, 0, 0, 0, 0, 2, 6, 8, 0, 0, 7, 9, 0, 0, 0, 0, 4, 3, 10, 8, 0, 1, 10, 2, 0, 5, 0, 0, 0, 5, 0, 5, 0, 0, 6, 2, 0, 0, 0, 9, 0, 0, 8, 6, 0, 9, 0, 0, 0, 0, 2, 0, 0, 0, 10, 1, 0, 0, 0, 0, 2, 1, 4, 7, 8, 1, 4, 0, 1, 0, 8, 0, 9, 0, 6, 2, 0, 0, 6, 0, 0, 0, 0, 5, 0, 3, 3, 0, 0, 3, 0, 0, 0, 1, 7, 5, 7, 0, 0, 0, 0, 0, 0, 6, 8, 0, 1, 5, 10, 4, 0, 0, 5, 10, 0, 10, 7, 0, 8, 3, 0, 4, 0, 0, 0, 0, 0, 6, 0, 4, 2, 0, 9, 0, 0, 9, 1, 0, 9, 0, 9, 0, 0, 0, 10, 5, 0, 1, 0, 8, 4, 0, 2, 7, 0, 3, 1, 0, 7, 0, 0, 6, 0, 1, 0, 0, 0, 5, 5, 9, 0, 0, 0, 0, 4, 0, 0, 6, 10, 0, 0, 0, 1, 0, 9, 5, 10, 5, 0, 0, 0, 1, 3, 2, 1, 0, 0, 9, 4, 0, 2, 0, 8, 0, 0, 9, 0, 0, 0, 8, 0, 0, 1, 7, 6, 6, 2, 4, 0, 0, 8, 9, 0, 0, 9, 2, 0, 0, 0, 0, 10, 1, 2, 1, 0, 0, 5, 5, 9, 6, 1, 0, 1, 8, 2, 9, 0, 0, 0, 0, 0, 5, 0, 0, 0, 3, 0, 0, 5, 0, 5, 6, 10, 0]);

suc = [
   {2, 3, 4},
   {24, 10, 5},
   {8, 17, 55},
   {18, 21, 6},
   {64, 74, 7},
   {9, 34, 11},
   {46, 91, 38},
   {43, 20, 70},
   {36, 13, 60},
   {40, 12, 14},
   {12, 38},
   {31, 61, 15},
   {16, 24},
   {48, 33, 30},
   {46, 20, 22},
   {50, 35},
   {75, 37},
   {26, 19, 23},
   {65, 52, 68},
   {63, 37, 47},
   {48, 28, 29},
   {25, 47, 39},
   {32, 49, 53},
   {32, 31},
   {49, 42, 44},
   {72, 27, 68},
   {40, 50, 71},
   {73, 51, 30},
   {80, 54, 63},
   {35, 52, 38},
   {48, 50},
   {73, 54, 39},
   {43, 63},
   {57, 42, 44},
   {49},
   {82, 67},
   {71},
   {56, 45, 62},
   {41, 51},
   {41, 44, 46},
   {75, 76},
   {80},
   {57, 62, 47},
   {83, 59, 55},
   {72},
   {57, 62, 78},
   {64, 52, 53},
   {81, 69},
   {81, 69, 55},
   {56, 51, 53},
   {58, 77, 66},
   {84, 77, 78},
   {73},
   {64, 72, 79},
   {56, 76, 79},
   {89},
   {66},
   {59, 79},
   {65, 74, 87},
   {67, 76, 61},
   {90, 68},
   {87},
   {66, 83},
   {78},
   {67},
   {85},
   {80, 69},
   {70, 71},
   {70},
   {86},
   {91, 74, 83},
   {84},
   {75, 77},
   {81},
   {88},
   {87},
   {91, 85},
   {82, 90},
   {84},
   {86},
   {82},
   {88},
   {86},
   {85},
   {88},
   {89},
   {90},
   {89},
   {92},
   {92},
   {92},
   {  } ];

deadline = array2d(1..92, 1..3, [1, 2, 3, 1, 2, 3, 2, 1, 0, 3, 3, 5, 5, 1, 4, 6, 0, 1, 7, 3, 3, 9, 4, 4, 10, 1, 4, 10, 5, 2, 12, 4, 3, 17, 0, 5, 17, 0, 3, 18, 4, 0, 18, 5, 5, 23, 5, 4, 24, 3, 4, 26, 5, 4, 33, 4, 4, 35, 0, 3, 44, 1, 3, 45, 1, 5, 46, 0, 0, 50, 1, 0, 51, 0, 3, 53, 1, 3, 57, 1, 5, 64, 4, 5, 68, 3, 3, 70, 3, 4, 73, 1, 4, 73, 5, 3, 73, 5, 3, 77, 1, 4, 77, 4, 1, 77, 1, 2, 78, 3, 2, 78, 4, 5, 78, 1, 5, 80, 4, 1, 81, 3, 0, 84, 2, 1, 87, 3, 0, 95, 4, 2, 96, 4, 4, 96, 2, 0, 96, 4, 2, 97, 4, 2, 98, 3, 5, 101, 0, 3, 102, 0, 2, 103, 3, 2, 111, 2, 2, 111, 0, 4, 122, 5, 2, 127, 2, 1, 131, 1, 0, 134, 1, 3, 138, 3, 1, 140, 1, 0, 141, 5, 2, 141, 0, 1, 142, 3, 2, 144, 0, 1, 145, 3, 3, 145, 2, 3, 151, 4, 3, 151, 0, 3, 162, 5, 4, 165, 4, 5, 165, 0, 4, 170, 1, 0, 175, 1, 3, 177, 5, 2, 179, 5, 2, 179, 3, 1, 180, 3, 5, 187, 4, 4, 196, 4, 0, 199, 1, 2, 200, 3, 2, 201, 4, 1, 208, 4, 4, 210, 2, 5, 215, 4, 5, 216, 2, 3, 221, 3, 0, 222, 0, 3, 224, 2, 4, 224, 3, 5, 228, 0, 2, 229, 2, 0]);
