n_res = 4;
rc = [ 15, 16, 12, 15 ];
n_tasks = 92;
d = [0, 3, 3, 1, 5, 4, 7, 1, 5, 6, 3, 3, 2, 7, 5, 4, 9, 4, 5, 3, 10, 10, 1, 1, 10, 1, 4, 5, 2, 1, 2, 2, 4, 6, 3, 10, 3, 6, 10, 1, 4, 4, 10, 6, 4, 8, 6, 10, 10, 2, 6, 4, 10, 7, 5, 2, 3, 5, 1, 4, 5, 3, 3, 8, 9, 5, 7, 5, 7, 9, 10, 1, 10, 1, 1, 3, 2, 1, 10, 8, 9, 10, 9, 1, 5, 4, 6, 3, 7, 7, 4, 0];
rr = array2d(1..4, 1..92, [0, 0, 10, 0, 0, 8, 0, 0, 0, 0, 0, 0, 0, 0, 6, 0, 0, 0, 0, 0, 0, 0, 0, 0, 4, 0, 0, 0, 0, 0, 10, 0, 0, 0, 0, 9, 0, 10, 0, 0, 0, 0, 0, 0, 0, 0, 0, 0, 0, 7, 0, 0, 0, 0, 5, 0, 0, 0, 4, 9, 0, 0, 9, 0, 0, 0, 0, 0, 0, 0, 0, 0, 0, 0, 0, 8, 0, 5, 0, 9, 9, 0, 0, 0, 0, 4, 0, 0, 9, 0, 0, 0, 0, 0, 0, 10, 7, 0, 2, 0, 8, 6, 0, 2, 0, 0, 0, 8, 0, 3, 0, 0, 0, 8, 0, 0, 0, 0, 0, 4, 0, 0, 0, 0, 0, 0, 0, 0, 3, 0, 0, 9, 0, 0, 0, 0, 10, 0, 0, 0, 0, 0, 0, 0, 0, 0, 0, 0, 0, 0, 0, 0, 8, 9, 0, 9, 5, 0, 10, 0, 8, 0, 0, 0, 0, 10, 8, 0, 0, 0, 0, 0, 0, 0, 2, 0, 6, 0, 4, 10, 0, 2, 0, 0, 0, 0, 0, 0, 0, 0, 0, 0, 0, 0, 0, 0, 0, 5, 0, 0, 4, 0, 0, 3, 0, 0, 0, 6, 0, 1, 1, 0, 2, 0, 0, 10, 5, 0, 2, 0, 0, 0, 0, 0, 0, 0, 0, 10, 0, 1, 0, 0, 0, 0, 0, 4, 0, 0, 0, 6, 2, 0, 0, 0, 0, 0, 0, 0, 0, 5, 0, 0, 0, 3, 0, 9, 0, 0, 0, 0, 0, 0, 10, 0, 0, 0, 0, 0, 0, 0, 0, 0, 0, 0, 1, 0, 0, 10, 0, 0, 0, 0, 0, 5, 0, 0, 8, 0, 7, 0, 0, 0, 0, 0, 8, 0, 8, 0, 7, 0, 0, 0, 0, 0, 0, 7, 0, 0, 0, 5, 0, 0, 0, 0, 1, 0, 4, 7, 3, 0, 0, 0, 7, 4, 9, 0, 3, 0, 4, 4, 0, 0, 0, 2, 0, 0, 0, 0, 0, 0, 0, 0, 0, 10, 0, 0, 4, 0, 5, 0, 0, 0, 9, 0, 0, 0, 0, 10, 0, 9, 0, 0, 0, 0, 0, 0, 0, 0]);

suc = [
   {2, 3, 4},
   {9, 5, 23},
   {8, 10, 6},
   {12, 13, 7},
   {48, 42, 21},
   {26, 45, 30},
   {19, 17, 11},
   {65, 82},
   {48, 83, 14},
   {16, 24, 22},
   {42, 53, 87},
   {66, 53, 62},
   {50},
   {43, 27, 15},
   {62, 20, 44},
   {18, 35, 60},
   {81, 18, 23},
   {40, 61, 31},
   {25, 75, 67},
   {79, 47},
   {49, 66, 22},
   {46, 38, 39},
   {73},
   {51, 37, 29},
   {28, 53},
   {58, 29, 38},
   {40, 80, 36},
   {32, 55, 31},
   {64, 44, 31},
   {33, 34, 36},
   {49, 52, 76},
   {48, 52, 60},
   {73, 41, 50},
   {51, 52, 70},
   {57, 76, 45},
   {41, 77, 63},
   {41, 91, 59},
   {67, 78},
   {72, 54},
   {42, 91, 46},
   {64, 70},
   {57, 50, 71},
   {57, 51, 46},
   {80},
   {75, 54, 71},
   {54},
   {56, 69},
   {64, 49, 91},
   {73},
   {65},
   {56, 75},
   {72, 66},
   {65, 58, 68},
   {84},
   {56, 68, 76},
   {81, 58, 60},
   {69},
   {90, 63},
   {72, 61, 62},
   {80, 61},
   {74, 71},
   {67, 63},
   {86},
   {68, 79},
   {89},
   {74, 83, 69},
   {84, 70},
   {88},
   {78},
   {79},
   {78},
   {74, 82},
   {87},
   {77},
   {77, 87},
   {82, 90},
   {86},
   {85},
   {81},
   {85},
   {85, 86},
   {83},
   {84},
   {88},
   {90},
   {88},
   {89},
   {89},
   {92},
   {92},
   {92},
   {  } ];

deadline = array2d(1..92, 1..3, [1, 0, 2, 2, 5, 1, 3, 2, 1, 9, 2, 5, 16, 1, 0, 17, 2, 5, 20, 0, 0, 21, 2, 0, 21, 2, 3, 23, 4, 0, 30, 2, 1, 30, 1, 1, 32, 3, 4, 33, 2, 5, 35, 5, 1, 37, 3, 3, 47, 1, 0, 47, 2, 1, 50, 1, 2, 58, 5, 1, 64, 4, 0, 68, 0, 4, 69, 2, 2, 70, 5, 0, 71, 3, 2, 74, 0, 4, 77, 1, 1, 82, 0, 1, 84, 2, 4, 84, 2, 1, 89, 2, 1, 90, 0, 4, 90, 5, 0, 94, 0, 5, 96, 1, 4, 99, 4, 4, 99, 0, 1, 104, 5, 2, 104, 4, 2, 108, 4, 2, 109, 5, 2, 113, 1, 0, 117, 2, 4, 122, 1, 3, 124, 1, 0, 127, 4, 5, 128, 3, 5, 129, 4, 5, 132, 1, 3, 133, 3, 4, 133, 0, 3, 139, 5, 5, 140, 0, 1, 142, 0, 1, 142, 1, 0, 145, 4, 2, 146, 1, 4, 150, 3, 4, 154, 2, 4, 154, 2, 0, 155, 3, 4, 156, 2, 2, 156, 1, 5, 157, 2, 0, 159, 1, 4, 163, 5, 1, 163, 3, 1, 165, 3, 3, 170, 1, 2, 174, 4, 1, 175, 1, 4, 177, 5, 1, 177, 0, 3, 178, 3, 3, 180, 2, 1, 184, 0, 1, 185, 0, 1, 188, 1, 3, 189, 3, 5, 190, 0, 3, 190, 3, 4, 192, 1, 5, 192, 0, 4, 195, 2, 1, 196, 0, 3, 196, 3, 3, 197, 1, 3, 201, 0, 2, 202, 4, 3, 203, 2, 4, 204, 0, 4, 207, 5, 4]);
