n_res = 4;
rc = [ 23, 27, 27, 20 ];
n_tasks = 92;
d = [0, 6, 7, 3, 5, 6, 5, 8, 9, 4, 3, 5, 8, 6, 3, 10, 5, 7, 4, 5, 10, 1, 6, 6, 2, 1, 8, 7, 9, 10, 1, 6, 1, 8, 10, 6, 10, 5, 8, 1, 6, 2, 2, 9, 7, 8, 8, 2, 1, 5, 10, 8, 7, 2, 7, 1, 6, 3, 1, 6, 3, 10, 8, 1, 5, 4, 7, 4, 1, 2, 1, 3, 5, 10, 6, 4, 9, 1, 4, 1, 6, 6, 3, 8, 4, 1, 6, 5, 4, 6, 9, 0];
rr = array2d(1..4, 1..92, [0, 0, 0, 0, 0, 0, 0, 0, 0, 0, 0, 0, 0, 9, 0, 0, 0, 0, 9, 0, 0, 3, 0, 0, 0, 0, 0, 0, 10, 0, 0, 6, 0, 0, 0, 6, 0, 10, 0, 0, 0, 0, 8, 0, 0, 0, 6, 0, 0, 0, 5, 0, 0, 0, 0, 0, 0, 8, 0, 0, 0, 0, 0, 0, 7, 9, 0, 0, 0, 0, 0, 0, 0, 0, 0, 0, 0, 0, 0, 0, 5, 0, 0, 0, 0, 0, 0, 3, 0, 0, 0, 0, 0, 2, 7, 4, 0, 9, 4, 10, 0, 0, 8, 0, 0, 0, 0, 0, 0, 0, 0, 0, 0, 0, 0, 0, 0, 0, 3, 0, 0, 10, 0, 0, 0, 0, 0, 0, 0, 0, 0, 0, 4, 0, 0, 3, 10, 6, 0, 0, 4, 3, 0, 0, 0, 3, 3, 0, 0, 0, 0, 0, 0, 0, 0, 0, 0, 0, 7, 8, 0, 4, 0, 2, 0, 3, 0, 0, 10, 0, 0, 0, 0, 0, 2, 1, 10, 0, 10, 0, 6, 0, 0, 0, 0, 0, 0, 0, 0, 0, 0, 0, 0, 3, 0, 10, 0, 0, 0, 7, 2, 2, 0, 2, 10, 0, 0, 9, 0, 0, 0, 0, 0, 0, 1, 0, 0, 0, 9, 0, 4, 0, 9, 3, 0, 2, 0, 0, 0, 0, 0, 0, 0, 0, 0, 0, 1, 0, 0, 0, 0, 0, 0, 2, 3, 0, 8, 0, 0, 0, 0, 0, 2, 0, 0, 0, 0, 0, 4, 9, 0, 7, 4, 0, 0, 0, 0, 0, 0, 0, 0, 0, 0, 0, 10, 0, 0, 0, 0, 0, 7, 0, 0, 0, 5, 0, 0, 0, 5, 0, 4, 0, 0, 0, 0, 0, 0, 0, 2, 0, 8, 3, 0, 10, 0, 0, 0, 0, 7, 5, 0, 0, 0, 0, 0, 0, 0, 0, 0, 0, 0, 0, 0, 5, 0, 0, 0, 8, 0, 0, 0, 10, 9, 0, 1, 0, 0, 6, 0, 9, 0, 0, 0, 0, 0, 0, 2, 0, 5, 0, 0, 0, 0, 0, 0, 7, 0, 9, 0, 0, 0, 10, 0, 0, 0, 10, 0, 0]);

suc = [
   {2, 3, 4},
   {8, 85, 15},
   {5, 38, 7},
   {6, 14},
   {9, 47},
   {35, 21},
   {10, 11, 12},
   {17},
   {37, 62},
   {19, 44},
   {24, 27, 13},
   {32, 29},
   {16, 18, 20},
   {26},
   {48, 18},
   {51, 31},
   {57, 58, 51},
   {80},
   {33, 67},
   {28},
   {22},
   {77, 23},
   {30},
   {25, 43, 53},
   {56, 36, 31},
   {84},
   {78},
   {81, 46, 55},
   {46},
   {34, 45, 54},
   {50},
   {41, 39},
   {40},
   {59},
   {77, 71},
   {76, 70},
   {55},
   {65, 75},
   {63},
   {42, 82},
   {68},
   {87},
   {63, 61, 47},
   {61},
   {48, 52},
   {88, 49},
   {64},
   {60},
   {86},
   {59},
   {81},
   {80},
   {83, 67},
   {91},
   {69},
   {63},
   {84},
   {74, 76},
   {86},
   {72, 75},
   {87},
   {66},
   {80},
   {76},
   {89},
   {68},
   {88},
   {82},
   {84},
   {73},
   {75},
   {73},
   {79},
   {78},
   {82},
   {88, 81, 79},
   {83, 85},
   {79},
   {83},
   {90},
   {90},
   {90},
   {89},
   {86},
   {87},
   {89},
   {91},
   {91},
   {92},
   {92},
   {92},
   {  } ];

deadline = array2d(1..92, 1..3, [1, 1, 3, 2, 5, 3, 2, 2, 2, 2, 1, 5, 2, 5, 0, 5, 5, 3, 6, 2, 0, 7, 0, 3, 7, 1, 3, 7, 4, 2, 21, 5, 1, 24, 5, 4, 25, 2, 2, 28, 2, 5, 31, 4, 4, 33, 0, 4, 36, 0, 1, 39, 1, 0, 39, 3, 2, 40, 1, 4, 41, 5, 1, 45, 3, 5, 45, 4, 5, 46, 0, 2, 47, 0, 0, 49, 4, 5, 56, 3, 5, 62, 2, 5, 62, 1, 1, 65, 3, 2, 66, 2, 1, 68, 5, 2, 70, 2, 4, 71, 5, 4, 73, 0, 1, 73, 4, 2, 74, 2, 3, 75, 3, 4, 75, 4, 5, 78, 2, 4, 78, 5, 5, 79, 0, 0, 80, 2, 3, 82, 4, 4, 83, 2, 4, 85, 4, 2, 88, 0, 0, 88, 2, 5, 89, 0, 1, 90, 1, 0, 95, 2, 5, 102, 4, 3, 105, 3, 4, 105, 2, 3, 106, 5, 5, 107, 0, 0, 107, 2, 1, 111, 4, 3, 117, 0, 1, 118, 2, 1, 119, 2, 4, 121, 2, 1, 122, 5, 2, 124, 2, 2, 124, 2, 5, 125, 5, 0, 126, 4, 1, 127, 1, 1, 129, 5, 1, 130, 4, 1, 132, 1, 2, 134, 5, 1, 134, 4, 0, 134, 4, 2, 135, 5, 5, 137, 1, 0, 141, 0, 3, 143, 0, 1, 144, 3, 2, 145, 5, 0, 151, 3, 4, 152, 1, 2, 152, 2, 0, 153, 2, 5, 160, 0, 5, 162, 4, 4, 165, 0, 4, 168, 3, 2, 168, 1, 5, 173, 5, 3, 175, 0, 5, 175, 0, 4]);
