n_res = 4;
rc = [ 26, 20, 29, 22 ];
n_tasks = 92;
d = [0, 3, 10, 1, 3, 3, 7, 1, 7, 2, 9, 3, 7, 6, 7, 3, 9, 4, 2, 4, 5, 9, 4, 9, 6, 5, 2, 7, 9, 7, 3, 4, 5, 4, 9, 10, 3, 10, 6, 3, 4, 7, 3, 1, 1, 2, 5, 7, 8, 7, 1, 8, 10, 8, 4, 4, 2, 1, 4, 6, 1, 8, 1, 9, 5, 8, 10, 2, 1, 7, 2, 5, 10, 6, 5, 7, 2, 9, 5, 10, 4, 1, 5, 10, 10, 4, 5, 4, 4, 7, 8, 0];
rr = array2d(1..4, 1..92, [0, 9, 0, 8, 4, 1, 3, 5, 3, 4, 3, 8, 0, 0, 1, 0, 0, 0, 6, 5, 10, 4, 9, 7, 0, 1, 6, 1, 10, 9, 3, 0, 4, 7, 4, 0, 0, 8, 0, 9, 3, 2, 10, 6, 1, 0, 3, 9, 10, 1, 0, 7, 10, 9, 5, 7, 5, 1, 2, 9, 8, 6, 4, 8, 4, 8, 10, 9, 4, 2, 7, 4, 6, 4, 0, 9, 8, 6, 1, 10, 2, 4, 1, 9, 4, 9, 4, 7, 7, 1, 4, 0, 0, 9, 7, 8, 7, 7, 2, 0, 3, 9, 5, 9, 1, 0, 8, 4, 3, 4, 2, 8, 0, 0, 0, 3, 0, 8, 2, 8, 5, 3, 0, 2, 4, 0, 0, 2, 5, 1, 0, 1, 8, 0, 5, 2, 4, 6, 5, 2, 3, 4, 4, 3, 8, 5, 7, 4, 0, 10, 10, 5, 0, 8, 0, 0, 10, 0, 5, 4, 0, 9, 3, 10, 0, 0, 1, 1, 4, 1, 6, 0, 9, 3, 10, 3, 0, 4, 10, 5, 0, 3, 4, 0, 0, 0, 0, 3, 0, 0, 0, 6, 7, 8, 10, 6, 9, 6, 10, 10, 8, 2, 0, 6, 8, 5, 8, 0, 10, 0, 0, 8, 3, 1, 0, 9, 3, 1, 1, 2, 7, 9, 2, 5, 0, 5, 10, 10, 10, 9, 1, 10, 2, 3, 9, 9, 0, 0, 0, 0, 0, 1, 8, 10, 2, 3, 8, 0, 2, 0, 10, 7, 6, 0, 10, 7, 10, 1, 2, 0, 4, 10, 0, 6, 10, 10, 0, 0, 0, 0, 0, 0, 0, 7, 7, 0, 0, 9, 1, 2, 8, 0, 2, 0, 3, 4, 9, 5, 7, 8, 6, 0, 3, 0, 5, 10, 9, 0, 4, 8, 8, 1, 0, 0, 2, 0, 9, 1, 5, 1, 6, 7, 7, 1, 0, 9, 0, 9, 5, 6, 8, 6, 0, 0, 2, 0, 4, 10, 0, 4, 4, 0, 1, 8, 3, 10, 0, 6, 0, 6, 3, 4, 0, 0, 8, 10, 9, 0, 4, 7, 0, 4, 6, 0, 0, 1, 5, 1, 0, 7, 1, 1, 7, 10, 6, 0, 7, 0]);

suc = [
   {2, 3, 4},
   {17, 13, 41},
   {9, 10, 18},
   {26, 5, 7},
   {8, 6, 14},
   {24, 28, 29},
   {60, 31},
   {11, 12, 15},
   {51, 39},
   {20, 54, 68},
   {52, 37, 22},
   {58, 75, 28},
   {73, 34},
   {36, 47},
   {16},
   {75, 19},
   {88},
   {25, 27, 21},
   {43, 79, 23},
   {40, 65},
   {81},
   {81},
   {56},
   {48, 55},
   {63},
   {71},
   {33, 83, 57},
   {32},
   {66, 59, 30},
   {42, 82},
   {87},
   {35, 52},
   {40},
   {80, 38},
   {77, 46},
   {69},
   {65, 74},
   {61},
   {44, 87},
   {86},
   {57},
   {64, 77},
   {50},
   {45},
   {64, 88},
   {49, 53},
   {84},
   {53},
   {63},
   {62},
   {53},
   {63},
   {54},
   {66},
   {71},
   {62},
   {86},
   {73},
   {89},
   {80},
   {72},
   {65},
   {78},
   {74, 76},
   {85},
   {67, 86},
   {76},
   {82},
   {70},
   {72, 87},
   {78},
   {82},
   {91},
   {79},
   {76},
   {90},
   {89},
   {79},
   {80},
   {85},
   {83},
   {90},
   {89},
   {85},
   {90},
   {88},
   {91},
   {91},
   {92},
   {92},
   {92},
   {  } ];

deadline = array2d(1..92, 1..3, [1, 3, 4, 2, 1, 3, 2, 5, 3, 5, 2, 1, 8, 0, 3, 9, 3, 0, 10, 2, 4, 11, 1, 4, 13, 2, 5, 13, 3, 2, 17, 4, 2, 22, 4, 1, 27, 4, 5, 29, 3, 3, 31, 4, 4, 35, 1, 4, 39, 3, 3, 41, 3, 3, 44, 1, 5, 44, 2, 5, 47, 3, 3, 48, 0, 0, 48, 3, 2, 50, 2, 4, 52, 2, 5, 52, 4, 0, 58, 3, 3, 61, 5, 4, 63, 4, 5, 63, 3, 0, 72, 3, 5, 72, 5, 2, 73, 2, 1, 76, 2, 0, 76, 4, 4, 79, 0, 4, 79, 3, 1, 83, 2, 3, 84, 4, 4, 86, 0, 3, 86, 3, 5, 92, 2, 0, 94, 5, 0, 100, 0, 1, 102, 2, 1, 102, 1, 5, 106, 3, 1, 107, 4, 5, 107, 1, 3, 112, 0, 0, 114, 4, 5, 115, 2, 1, 118, 5, 2, 119, 1, 1, 121, 5, 4, 121, 2, 1, 121, 0, 4, 121, 1, 3, 129, 0, 4, 132, 5, 5, 135, 0, 4, 136, 5, 4, 139, 4, 1, 139, 2, 1, 139, 3, 3, 143, 2, 0, 143, 2, 3, 151, 4, 0, 153, 1, 4, 155, 3, 1, 157, 4, 2, 162, 4, 4, 162, 0, 1, 163, 0, 1, 167, 3, 2, 174, 2, 4, 175, 5, 3, 176, 3, 3, 176, 3, 4, 178, 4, 0, 179, 4, 2, 180, 2, 4, 182, 1, 5, 182, 1, 4, 183, 0, 4, 183, 0, 2, 184, 1, 4, 185, 0, 4, 190, 1, 4, 193, 2, 2, 196, 4, 4, 200, 2, 4]);
