n_res = 4;
rc = [ 16, 16, 17, 17 ];
n_tasks = 92;
d = [0, 5, 5, 4, 7, 10, 6, 2, 8, 6, 2, 10, 10, 5, 10, 5, 2, 9, 1, 8, 4, 7, 6, 8, 4, 5, 9, 7, 5, 6, 2, 4, 4, 3, 5, 10, 3, 10, 1, 6, 2, 9, 10, 6, 3, 2, 6, 6, 6, 8, 4, 1, 6, 1, 10, 4, 8, 7, 6, 4, 5, 2, 7, 8, 5, 10, 6, 4, 6, 6, 8, 8, 5, 10, 3, 1, 9, 10, 10, 4, 1, 10, 4, 10, 8, 6, 4, 8, 6, 5, 1, 0];
rr = array2d(1..4, 1..92, [0, 9, 5, 0, 0, 1, 7, 0, 0, 6, 0, 0, 0, 2, 1, 0, 1, 7, 0, 0, 0, 0, 9, 7, 0, 0, 9, 2, 5, 0, 2, 8, 0, 7, 3, 0, 1, 0, 4, 0, 1, 2, 3, 0, 5, 9, 6, 0, 9, 4, 0, 1, 0, 0, 0, 0, 0, 0, 7, 0, 0, 0, 3, 3, 0, 4, 2, 0, 6, 8, 0, 6, 9, 3, 0, 5, 0, 5, 0, 2, 0, 9, 0, 0, 5, 2, 0, 0, 8, 0, 2, 0, 0, 7, 2, 7, 0, 0, 0, 0, 0, 5, 6, 0, 1, 0, 0, 10, 7, 3, 0, 2, 8, 7, 6, 5, 9, 0, 2, 5, 2, 10, 3, 2, 0, 2, 2, 0, 0, 0, 0, 0, 0, 9, 1, 5, 0, 0, 0, 8, 6, 0, 0, 0, 0, 0, 5, 4, 1, 0, 1, 8, 6, 5, 0, 7, 1, 0, 8, 0, 0, 0, 7, 0, 0, 1, 7, 0, 3, 0, 3, 0, 0, 1, 10, 7, 0, 0, 10, 8, 8, 0, 4, 0, 0, 0, 0, 0, 0, 6, 0, 2, 5, 0, 0, 5, 5, 7, 0, 0, 0, 0, 0, 0, 0, 10, 0, 7, 9, 4, 3, 0, 0, 5, 0, 0, 5, 5, 0, 7, 1, 0, 2, 2, 9, 9, 2, 0, 0, 0, 0, 5, 0, 0, 5, 0, 4, 5, 0, 3, 4, 6, 10, 0, 0, 0, 7, 0, 0, 5, 0, 0, 8, 0, 0, 6, 0, 0, 9, 0, 6, 0, 0, 1, 10, 0, 0, 3, 0, 5, 0, 3, 0, 0, 0, 0, 0, 0, 0, 0, 5, 2, 5, 0, 8, 7, 5, 0, 8, 4, 7, 10, 1, 7, 3, 4, 0, 0, 6, 6, 0, 0, 0, 0, 0, 0, 9, 2, 0, 0, 0, 7, 0, 6, 0, 0, 0, 0, 0, 0, 0, 0, 4, 1, 0, 8, 9, 0, 0, 0, 0, 0, 1, 8, 0, 9, 10, 0, 8, 10, 4, 0, 0, 6, 0, 4, 3, 2, 4, 0, 4, 0, 0, 0, 0, 3, 0, 4, 6, 0, 0, 10, 4, 2, 0, 9, 0, 0]);

suc = [
   {2, 3, 4},
   {8, 27, 6},
   {10, 59, 42},
   {9, 5, 7},
   {19, 11, 28},
   {36},
   {54, 15},
   {21, 55},
   {69, 47, 23},
   {37, 13, 22},
   {67, 12, 29},
   {25},
   {18, 14},
   {17, 35, 55},
   {16, 33, 20},
   {24, 26},
   {31},
   {69},
   {52, 70},
   {26, 51, 61},
   {70},
   {30},
   {80, 41, 60},
   {32, 66, 75},
   {34, 27},
   {65, 44, 68},
   {33, 66},
   {46, 57, 38},
   {38, 30},
   {57, 43, 53},
   {64, 50, 72},
   {74, 36},
   {78},
   {40, 48, 58},
   {76, 45},
   {88, 52, 87},
   {39},
   {74},
   {40, 57, 89},
   {75, 44},
   {56},
   {49},
   {44, 71},
   {64},
   {60},
   {81, 51},
   {62, 64, 54},
   {52, 77},
   {66, 51, 82},
   {67},
   {67},
   {81},
   {60},
   {72, 68},
   {78, 63},
   {61},
   {84, 79},
   {75, 59},
   {65, 62},
   {61},
   {91, 62},
   {72, 73, 77},
   {83},
   {82, 76},
   {69, 86},
   {74, 84},
   {86, 70},
   {86},
   {88, 77},
   {76},
   {73, 78, 79},
   {81},
   {83},
   {80, 90},
   {79},
   {91},
   {83},
   {88},
   {91},
   {85},
   {82},
   {90},
   {84, 85},
   {90},
   {87},
   {87},
   {89},
   {89},
   {92},
   {92},
   {92},
   {  } ];

deadline = array2d(1..92, 1..3, [7, 3, 1, 10, 3, 4, 11, 1, 3, 14, 4, 2, 17, 4, 1, 18, 0, 0, 19, 2, 2, 21, 0, 5, 22, 3, 5, 25, 1, 4, 25, 3, 2, 27, 5, 3, 30, 3, 3, 33, 2, 2, 39, 5, 5, 43, 3, 5, 43, 1, 5, 50, 5, 5, 53, 2, 0, 57, 4, 4, 58, 3, 1, 63, 4, 4, 66, 0, 2, 67, 1, 5, 67, 5, 0, 68, 5, 1, 69, 0, 3, 70, 3, 2, 72, 0, 3, 73, 3, 1, 74, 2, 0, 74, 1, 0, 78, 2, 5, 80, 4, 0, 81, 3, 3, 85, 1, 4, 87, 0, 3, 88, 5, 1, 91, 4, 4, 96, 5, 4, 98, 0, 2, 100, 1, 0, 102, 1, 4, 105, 2, 3, 107, 3, 3, 112, 0, 0, 112, 1, 5, 114, 1, 3, 119, 4, 1, 122, 0, 4, 127, 1, 2, 128, 3, 1, 131, 4, 5, 131, 2, 4, 136, 0, 2, 138, 1, 1, 139, 3, 1, 139, 1, 4, 139, 2, 5, 139, 0, 2, 139, 4, 0, 142, 0, 5, 144, 2, 4, 146, 0, 0, 146, 0, 3, 149, 2, 4, 151, 3, 0, 152, 3, 3, 154, 1, 2, 155, 5, 2, 158, 2, 4, 160, 1, 2, 161, 1, 3, 167, 3, 1, 167, 5, 4, 168, 4, 5, 171, 1, 2, 172, 0, 5, 179, 2, 3, 182, 3, 1, 183, 1, 1, 192, 2, 3, 198, 4, 5, 198, 3, 2, 199, 0, 5, 200, 5, 2, 200, 4, 2, 202, 1, 4, 208, 1, 2, 208, 3, 3, 208, 4, 3, 211, 1, 4]);
