n_res = 4;
rc = [ 28, 37, 32, 31 ];
n_tasks = 92;
d = [0, 3, 9, 2, 10, 2, 4, 8, 10, 3, 3, 8, 7, 6, 7, 2, 6, 5, 2, 5, 6, 4, 2, 7, 7, 10, 10, 5, 8, 2, 7, 9, 2, 10, 2, 6, 8, 10, 7, 9, 9, 5, 3, 4, 6, 5, 2, 6, 10, 5, 9, 5, 7, 7, 8, 1, 2, 6, 6, 5, 7, 8, 4, 1, 5, 8, 2, 10, 1, 5, 8, 5, 3, 10, 4, 2, 5, 10, 10, 4, 4, 9, 9, 9, 9, 9, 9, 9, 6, 7, 10, 0];
rr = array2d(1..4, 1..92, [0, 6, 1, 1, 7, 1, 4, 6, 6, 0, 5, 9, 5, 8, 3, 2, 5, 4, 7, 1, 9, 1, 0, 10, 1, 0, 0, 0, 10, 2, 2, 8, 2, 1, 2, 0, 4, 8, 7, 10, 0, 0, 7, 8, 4, 1, 1, 8, 5, 7, 2, 6, 5, 10, 0, 5, 10, 0, 2, 0, 0, 0, 0, 6, 6, 0, 9, 3, 3, 10, 5, 6, 6, 0, 3, 8, 3, 10, 0, 9, 10, 0, 3, 3, 10, 0, 3, 0, 9, 0, 10, 0, 0, 4, 0, 0, 4, 6, 3, 3, 5, 3, 0, 0, 0, 8, 0, 7, 7, 0, 4, 1, 0, 0, 5, 1, 0, 10, 8, 9, 2, 1, 2, 8, 8, 1, 7, 1, 0, 1, 4, 9, 0, 6, 2, 2, 7, 0, 3, 7, 0, 10, 4, 7, 0, 6, 7, 6, 2, 1, 0, 9, 0, 7, 4, 0, 8, 6, 5, 7, 0, 5, 8, 7, 0, 2, 3, 0, 0, 8, 2, 1, 0, 10, 4, 0, 0, 0, 10, 7, 4, 4, 10, 0, 0, 1, 0, 2, 7, 0, 0, 4, 9, 3, 3, 4, 10, 7, 8, 5, 5, 10, 0, 1, 9, 7, 7, 8, 6, 0, 6, 3, 6, 10, 2, 6, 0, 0, 5, 1, 10, 5, 1, 8, 3, 0, 9, 1, 5, 9, 0, 9, 6, 0, 6, 8, 7, 0, 3, 4, 8, 0, 0, 5, 6, 0, 4, 8, 0, 0, 0, 7, 4, 0, 0, 1, 6, 0, 5, 5, 4, 5, 3, 7, 7, 6, 9, 3, 9, 7, 8, 9, 2, 8, 0, 0, 0, 7, 10, 8, 8, 9, 6, 8, 10, 5, 7, 9, 4, 0, 0, 5, 4, 9, 0, 4, 7, 7, 6, 9, 8, 9, 3, 8, 4, 10, 0, 3, 3, 2, 10, 2, 0, 4, 6, 4, 10, 1, 5, 0, 2, 0, 0, 3, 7, 7, 2, 0, 10, 0, 4, 0, 0, 10, 0, 2, 9, 1, 5, 8, 10, 7, 5, 0, 0, 10, 0, 0, 7, 8, 9, 9, 6, 3, 3, 3, 7, 0, 10, 2, 0, 3, 3, 0, 10, 1, 0, 0]);

suc = [
   {2, 3, 4},
   {18, 59},
   {10, 6, 7},
   {12, 5, 14},
   {8, 36},
   {32, 28, 37},
   {82, 29},
   {9, 19, 21},
   {10, 11, 20},
   {57, 74, 15},
   {13, 71, 23},
   {16, 17, 47},
   {24},
   {24, 73, 47},
   {87, 62, 79},
   {48, 54},
   {35, 22},
   {65, 62},
   {48, 26},
   {40, 45, 30},
   {33, 58, 67},
   {27, 52},
   {48, 58, 90},
   {25, 51, 38},
   {39},
   {66},
   {31},
   {34, 30},
   {77},
   {71, 55},
   {54, 61, 38},
   {72, 81, 45},
   {41, 42},
   {44, 76},
   {75, 39},
   {88, 41, 51},
   {49, 46},
   {64, 63},
   {42, 91, 63},
   {50, 68, 54},
   {43},
   {76, 69},
   {53, 45},
   {82},
   {77},
   {75},
   {66, 53},
   {82},
   {50, 60, 66},
   {65, 78},
   {74, 59},
   {70},
   {74, 59},
   {56},
   {60},
   {57},
   {73},
   {86},
   {80, 78},
   {64, 76, 70},
   {83, 69, 78},
   {64, 67},
   {65},
   {80},
   {85},
   {87},
   {81},
   {86},
   {72, 79},
   {80, 85, 79},
   {73},
   {85},
   {84, 77, 86},
   {75},
   {83},
   {83},
   {91},
   {90},
   {89, 81},
   {84},
   {90},
   {84},
   {87},
   {91},
   {88},
   {88},
   {89},
   {89},
   {92},
   {92},
   {92},
   {  } ];

deadline = array2d(1..92, 1..3, [1, 2, 4, 3, 2, 3, 7, 3, 3, 8, 0, 0, 8, 4, 4, 10, 0, 4, 12, 1, 0, 14, 3, 1, 15, 1, 0, 17, 0, 2, 20, 0, 1, 22, 4, 0, 23, 5, 2, 26, 5, 1, 26, 2, 5, 30, 0, 0, 31, 4, 2, 32, 4, 3, 33, 5, 1, 33, 0, 5, 37, 1, 1, 38, 4, 3, 39, 2, 3, 40, 3, 2, 41, 0, 5, 43, 5, 4, 54, 4, 1, 54, 2, 5, 58, 0, 1, 60, 2, 3, 62, 1, 5, 63, 4, 4, 76, 0, 5, 78, 2, 4, 82, 5, 4, 83, 5, 4, 84, 2, 4, 92, 3, 3, 94, 2, 2, 94, 2, 0, 96, 1, 1, 97, 3, 4, 99, 4, 1, 103, 3, 1, 104, 3, 4, 105, 5, 5, 105, 2, 4, 107, 3, 4, 109, 0, 5, 110, 0, 0, 113, 1, 1, 118, 0, 5, 120, 0, 4, 120, 5, 1, 122, 3, 5, 125, 4, 1, 125, 5, 3, 128, 1, 4, 130, 0, 4, 140, 1, 2, 141, 3, 5, 143, 3, 0, 147, 1, 3, 149, 0, 1, 152, 5, 4, 153, 2, 4, 161, 4, 3, 162, 4, 5, 167, 4, 2, 169, 5, 1, 169, 1, 2, 170, 2, 3, 170, 3, 3, 171, 1, 4, 183, 4, 3, 188, 3, 4, 190, 3, 4, 190, 5, 0, 195, 0, 4, 204, 3, 0, 206, 1, 3, 207, 3, 0, 207, 5, 2, 207, 3, 1, 208, 2, 0, 213, 2, 5, 214, 4, 5, 217, 2, 3, 223, 3, 5, 224, 0, 5, 232, 5, 3, 237, 5, 3]);
