n_res = 4;
rc = [ 21, 17, 21, 22 ];
n_tasks = 92;
d = [0, 4, 9, 9, 10, 9, 9, 5, 2, 1, 1, 2, 6, 9, 3, 7, 3, 5, 10, 1, 3, 4, 3, 5, 5, 6, 6, 5, 9, 1, 3, 5, 4, 10, 4, 4, 2, 4, 10, 7, 5, 9, 9, 2, 3, 9, 1, 10, 2, 7, 9, 1, 7, 8, 3, 2, 4, 7, 10, 6, 6, 1, 4, 7, 7, 9, 5, 1, 5, 2, 1, 5, 5, 5, 7, 8, 10, 4, 4, 1, 6, 5, 7, 6, 4, 7, 7, 1, 1, 1, 5, 0];
rr = array2d(1..4, 1..92, [0, 0, 0, 0, 7, 4, 0, 0, 0, 6, 0, 0, 0, 0, 8, 10, 0, 0, 0, 0, 0, 0, 0, 10, 0, 3, 0, 0, 0, 0, 0, 0, 0, 6, 9, 0, 10, 0, 0, 0, 0, 0, 0, 3, 4, 7, 0, 0, 0, 0, 0, 9, 0, 6, 0, 0, 0, 0, 0, 0, 0, 5, 0, 0, 0, 5, 2, 0, 0, 4, 0, 0, 0, 0, 0, 0, 0, 0, 0, 0, 0, 0, 0, 0, 0, 0, 9, 0, 0, 0, 0, 0, 0, 7, 0, 10, 0, 0, 4, 0, 0, 0, 2, 6, 10, 0, 0, 0, 0, 0, 0, 0, 0, 0, 0, 0, 0, 0, 10, 0, 0, 6, 0, 0, 4, 0, 0, 0, 0, 0, 0, 0, 0, 0, 0, 0, 0, 0, 0, 2, 0, 0, 0, 0, 9, 0, 8, 0, 0, 0, 0, 0, 0, 0, 8, 0, 0, 0, 0, 0, 3, 0, 8, 10, 1, 0, 0, 0, 10, 0, 0, 7, 1, 0, 0, 9, 7, 0, 0, 0, 0, 0, 4, 0, 0, 0, 0, 0, 0, 0, 0, 0, 3, 0, 0, 0, 0, 6, 0, 0, 0, 0, 5, 8, 0, 5, 9, 0, 6, 0, 0, 7, 0, 0, 3, 2, 0, 0, 0, 4, 0, 0, 0, 4, 0, 5, 7, 0, 0, 0, 2, 0, 6, 2, 5, 0, 0, 0, 0, 9, 0, 0, 1, 0, 0, 0, 0, 10, 0, 0, 0, 1, 0, 0, 0, 0, 0, 9, 0, 3, 0, 6, 7, 0, 0, 0, 3, 0, 0, 0, 0, 7, 0, 0, 0, 0, 0, 0, 8, 0, 0, 0, 0, 7, 0, 0, 0, 0, 0, 0, 0, 0, 5, 5, 0, 0, 5, 0, 0, 0, 0, 0, 0, 0, 5, 0, 0, 0, 0, 0, 0, 0, 0, 1, 7, 0, 7, 0, 0, 0, 0, 0, 0, 0, 0, 0, 0, 0, 0, 0, 0, 0, 9, 10, 0, 4, 4, 0, 0, 0, 9, 0, 0, 0, 0, 0, 0, 0, 0, 0, 10, 0, 0, 0, 0, 0, 0, 5, 0, 0, 0, 7, 0, 0, 9, 2, 0, 0]);

suc = [
   {2, 3, 4},
   {17, 27, 6},
   {67, 5},
   {28, 36, 7},
   {8, 9, 52},
   {44, 70},
   {51, 11, 53},
   {16, 10, 12},
   {35, 14, 15},
   {32, 66, 31},
   {41, 21, 13},
   {33, 19, 23},
   {16, 70, 55},
   {18, 36, 37},
   {17, 20},
   {64, 43},
   {32, 25, 54},
   {34, 29, 22},
   {24, 61, 31},
   {26, 28},
   {49, 43, 30},
   {26, 61, 23},
   {56, 66, 68},
   {79},
   {36, 86, 31},
   {83},
   {59, 60, 38},
   {91, 76},
   {40, 42, 43},
   {48, 52},
   {50, 51, 45},
   {73, 50, 71},
   {77, 86, 55},
   {90, 60, 53},
   {88, 41, 54},
   {47},
   {41, 51, 46},
   {40, 50, 39},
   {49, 57},
   {46, 63},
   {56},
   {58, 45, 55},
   {69, 47},
   {57, 62, 47},
   {65, 59},
   {64, 81, 75},
   {74, 84, 61},
   {69, 54, 79},
   {67, 63},
   {53, 70},
   {62},
   {81, 58, 59},
   {88, 81, 74},
   {56, 74, 62},
   {82, 60},
   {57, 82},
   {65, 78},
   {86, 63},
   {64},
   {66, 83},
   {75, 68},
   {65},
   {69},
   {68, 78},
   {80, 71},
   {72},
   {72, 73, 78},
   {80, 73, 76},
   {75, 87, 71},
   {72, 85},
   {84},
   {84},
   {85, 79},
   {77},
   {76, 77},
   {82, 83},
   {80},
   {90},
   {87},
   {85},
   {89},
   {90},
   {89},
   {89},
   {91},
   {87},
   {88},
   {91},
   {92},
   {92},
   {92},
   {  } ];

deadline = array2d(1..92, 1..3, [2, 2, 4, 7, 1, 1, 13, 1, 1, 14, 0, 5, 18, 1, 4, 20, 1, 2, 30, 0, 0, 30, 5, 4, 36, 3, 1, 38, 2, 4, 42, 2, 0, 42, 3, 2, 49, 3, 5, 54, 0, 5, 55, 5, 2, 59, 3, 2, 60, 2, 3, 64, 4, 3, 64, 2, 1, 64, 3, 5, 65, 3, 0, 67, 5, 3, 68, 4, 4, 68, 4, 5, 71, 3, 5, 71, 4, 4, 74, 3, 3, 81, 2, 3, 81, 2, 4, 90, 2, 3, 96, 4, 1, 97, 3, 3, 99, 4, 1, 99, 2, 1, 99, 5, 0, 100, 1, 1, 102, 1, 4, 106, 5, 4, 118, 5, 4, 124, 4, 2, 126, 3, 5, 132, 4, 0, 133, 5, 4, 133, 2, 5, 136, 2, 5, 137, 0, 5, 138, 5, 2, 138, 0, 5, 141, 0, 2, 143, 3, 3, 146, 0, 0, 146, 4, 5, 147, 3, 4, 148, 1, 0, 153, 2, 0, 155, 0, 2, 155, 1, 5, 157, 4, 1, 159, 2, 2, 160, 5, 1, 163, 0, 2, 165, 3, 5, 166, 2, 1, 172, 5, 4, 174, 5, 1, 176, 3, 5, 179, 0, 4, 180, 3, 1, 185, 4, 2, 186, 4, 2, 187, 1, 2, 188, 1, 2, 189, 3, 2, 190, 4, 0, 196, 4, 5, 197, 0, 5, 203, 5, 5, 204, 4, 2, 209, 0, 0, 210, 5, 1, 212, 5, 3, 212, 0, 0, 212, 2, 1, 214, 0, 1, 214, 5, 4, 225, 1, 4, 225, 2, 0, 227, 0, 5, 229, 4, 5, 232, 4, 5, 235, 1, 0, 239, 2, 3]);
