n_res = 4;
rc = [ 19, 19, 17, 15 ];
n_tasks = 92;
d = [0, 7, 7, 3, 8, 5, 4, 1, 2, 10, 5, 4, 5, 7, 1, 4, 7, 10, 9, 6, 7, 5, 7, 2, 2, 1, 8, 3, 6, 8, 2, 4, 5, 5, 4, 2, 3, 2, 9, 1, 7, 7, 5, 8, 3, 2, 1, 5, 10, 4, 10, 3, 3, 3, 5, 5, 7, 2, 8, 8, 6, 1, 3, 5, 8, 9, 5, 1, 5, 7, 5, 7, 2, 2, 2, 8, 2, 7, 1, 2, 7, 4, 1, 2, 3, 1, 1, 10, 5, 7, 6, 0];
rr = array2d(1..4, 1..92, [0, 0, 0, 7, 0, 4, 0, 0, 0, 0, 0, 0, 0, 0, 0, 0, 0, 5, 0, 0, 0, 0, 0, 0, 0, 0, 0, 3, 0, 0, 0, 0, 9, 2, 0, 0, 0, 0, 0, 0, 0, 0, 0, 0, 9, 0, 0, 0, 0, 0, 6, 7, 5, 0, 4, 0, 10, 2, 0, 0, 0, 0, 0, 0, 0, 0, 0, 0, 0, 0, 6, 0, 0, 0, 0, 4, 0, 6, 2, 0, 0, 3, 0, 2, 0, 0, 0, 0, 0, 0, 2, 0, 0, 0, 10, 0, 2, 0, 5, 9, 2, 0, 9, 0, 0, 0, 0, 0, 0, 0, 4, 8, 0, 0, 0, 0, 0, 0, 10, 0, 1, 0, 0, 0, 0, 0, 10, 0, 2, 7, 2, 0, 2, 0, 7, 5, 0, 0, 8, 0, 0, 0, 0, 0, 0, 0, 0, 0, 0, 0, 0, 0, 0, 0, 0, 0, 7, 6, 0, 0, 0, 7, 0, 0, 0, 0, 0, 0, 3, 0, 0, 1, 0, 0, 4, 0, 6, 8, 0, 8, 0, 8, 0, 0, 0, 10, 0, 0, 0, 0, 0, 0, 0, 5, 0, 2, 0, 0, 0, 0, 5, 0, 0, 0, 8, 0, 0, 0, 6, 0, 0, 0, 0, 0, 2, 7, 0, 0, 0, 0, 0, 0, 0, 10, 0, 0, 0, 0, 0, 0, 0, 0, 6, 0, 0, 0, 0, 0, 0, 3, 0, 0, 5, 2, 8, 0, 2, 0, 0, 0, 1, 0, 6, 0, 0, 0, 10, 7, 5, 0, 0, 0, 0, 0, 0, 0, 0, 0, 0, 0, 0, 0, 7, 0, 0, 0, 0, 0, 0, 0, 0, 0, 0, 0, 0, 0, 0, 0, 1, 5, 6, 1, 0, 0, 0, 0, 0, 8, 4, 5, 0, 3, 0, 0, 0, 2, 0, 0, 0, 0, 0, 5, 0, 0, 0, 0, 0, 1, 0, 0, 0, 9, 0, 5, 0, 6, 0, 0, 0, 4, 0, 0, 0, 0, 0, 0, 0, 3, 0, 8, 0, 0, 0, 6, 0, 0, 0, 8, 0, 0, 0, 0, 0, 0, 0, 0, 4, 0, 0, 0, 0, 0, 3, 0, 0, 0, 0, 0]);

suc = [
   {2, 3, 4},
   {20, 62},
   {49, 29, 13},
   {8, 10, 5},
   {16, 11, 6},
   {18, 7},
   {27, 31},
   {9, 12, 25},
   {16, 62, 14},
   {64, 21, 13},
   {17, 59, 15},
   {24, 33},
   {82, 67, 46},
   {41, 68, 63},
   {52},
   {19, 22, 23},
   {46, 28, 38},
   {30},
   {59},
   {32, 37, 54},
   {56, 66, 70},
   {24, 26, 32},
   {45},
   {38},
   {72, 62},
   {48, 50, 47},
   {34, 36, 39},
   {73, 35, 29},
   {48, 42},
   {40, 71},
   {40, 71},
   {60, 45},
   {89, 73},
   {37},
   {50},
   {58},
   {40, 74, 84},
   {43, 47},
   {49, 66, 61},
   {44},
   {46},
   {72},
   {65, 54},
   {49},
   {77},
   {56, 57, 58},
   {64, 54},
   {51},
   {76, 53},
   {74},
   {81},
   {85, 61, 55},
   {88},
   {60, 78},
   {88},
   {77},
   {80, 78, 79},
   {86, 70},
   {82, 70},
   {68, 69, 71},
   {68},
   {65},
   {83, 76},
   {84},
   {69},
   {72, 76, 78},
   {74},
   {75},
   {80, 73},
   {87},
   {75, 85},
   {75},
   {82},
   {88},
   {81, 90, 83},
   {87},
   {87, 79},
   {81, 85},
   {91},
   {83},
   {84},
   {86},
   {91},
   {86},
   {90},
   {91},
   {89, 90},
   {89},
   {92},
   {92},
   {92},
   {  } ];

deadline = array2d(1..92, 1..3, [3, 5, 3, 12, 5, 3, 15, 0, 1, 16, 1, 4, 21, 2, 5, 21, 0, 4, 22, 1, 3, 23, 5, 4, 26, 0, 4, 32, 4, 5, 32, 1, 2, 41, 5, 4, 42, 1, 2, 43, 1, 1, 43, 4, 4, 44, 3, 2, 44, 5, 3, 46, 3, 2, 46, 3, 5, 51, 5, 5, 51, 5, 5, 54, 1, 4, 60, 5, 2, 63, 3, 4, 65, 2, 4, 68, 1, 1, 71, 4, 0, 76, 4, 5, 80, 4, 5, 80, 5, 2, 80, 4, 5, 85, 5, 4, 88, 3, 0, 90, 3, 4, 92, 5, 5, 93, 5, 3, 96, 5, 5, 98, 1, 0, 101, 5, 5, 101, 4, 4, 101, 1, 2, 106, 0, 5, 107, 4, 3, 108, 3, 3, 111, 1, 0, 111, 4, 2, 112, 1, 5, 112, 4, 2, 113, 3, 1, 116, 5, 1, 116, 1, 3, 117, 2, 5, 120, 4, 1, 120, 3, 4, 121, 2, 5, 123, 1, 3, 124, 4, 4, 126, 2, 5, 128, 3, 3, 132, 5, 2, 133, 0, 5, 134, 0, 5, 135, 0, 3, 136, 2, 3, 136, 1, 4, 141, 0, 4, 143, 0, 0, 145, 2, 4, 147, 5, 0, 150, 5, 4, 153, 5, 0, 153, 2, 1, 154, 5, 1, 157, 0, 0, 157, 5, 0, 158, 2, 0, 160, 4, 1, 164, 4, 0, 164, 5, 1, 166, 4, 4, 166, 3, 4, 166, 4, 5, 168, 0, 2, 168, 4, 3, 170, 2, 5, 171, 1, 5, 173, 5, 3, 173, 1, 4, 173, 1, 3, 174, 0, 5, 175, 5, 1, 182, 3, 1]);
