n_res = 4;
rc = [ 25, 27, 23, 25 ];
n_tasks = 92;
d = [0, 9, 4, 9, 7, 6, 3, 8, 2, 5, 1, 5, 2, 2, 4, 10, 2, 9, 5, 8, 3, 5, 9, 7, 10, 7, 4, 8, 6, 4, 3, 9, 5, 8, 1, 5, 2, 2, 3, 3, 9, 9, 4, 10, 1, 6, 8, 6, 7, 9, 9, 2, 2, 9, 4, 9, 8, 6, 10, 4, 1, 6, 4, 9, 6, 3, 10, 9, 4, 6, 10, 8, 5, 2, 3, 7, 10, 4, 1, 5, 5, 1, 9, 2, 3, 2, 8, 7, 3, 2, 7, 0];
rr = array2d(1..4, 1..92, [0, 2, 4, 9, 4, 3, 5, 4, 8, 5, 10, 10, 1, 9, 5, 2, 5, 8, 6, 3, 8, 5, 1, 1, 10, 4, 7, 3, 1, 3, 1, 2, 5, 10, 4, 10, 3, 2, 1, 5, 3, 9, 4, 6, 4, 9, 5, 8, 8, 7, 6, 6, 6, 2, 5, 1, 2, 8, 1, 4, 9, 7, 6, 9, 2, 1, 9, 4, 6, 5, 9, 8, 7, 9, 4, 9, 3, 1, 6, 9, 5, 8, 4, 7, 4, 8, 9, 9, 2, 8, 1, 0, 0, 1, 6, 9, 4, 8, 4, 3, 4, 1, 10, 3, 6, 7, 5, 9, 3, 9, 9, 10, 10, 6, 10, 4, 5, 10, 3, 8, 2, 5, 8, 4, 4, 8, 6, 3, 9, 8, 1, 3, 10, 8, 3, 10, 5, 3, 3, 2, 2, 9, 8, 3, 3, 6, 9, 4, 6, 1, 6, 5, 10, 9, 1, 10, 1, 5, 3, 1, 7, 5, 1, 9, 6, 3, 2, 7, 4, 3, 9, 7, 10, 10, 6, 3, 10, 5, 5, 4, 10, 1, 10, 0, 0, 4, 4, 7, 9, 9, 8, 7, 2, 5, 8, 6, 5, 3, 9, 2, 10, 6, 4, 5, 4, 8, 6, 2, 7, 10, 8, 4, 5, 2, 10, 4, 2, 2, 8, 8, 2, 1, 2, 7, 10, 7, 10, 1, 7, 9, 6, 6, 6, 2, 2, 8, 3, 3, 6, 6, 5, 1, 2, 3, 2, 5, 8, 9, 10, 7, 3, 3, 1, 10, 1, 2, 5, 10, 8, 8, 4, 5, 10, 8, 1, 9, 4, 4, 1, 5, 3, 3, 9, 4, 3, 0, 0, 8, 7, 4, 1, 4, 9, 9, 5, 7, 10, 7, 3, 4, 4, 6, 6, 3, 7, 7, 4, 2, 4, 8, 2, 8, 9, 2, 6, 5, 9, 5, 9, 7, 5, 3, 3, 1, 5, 9, 7, 4, 9, 8, 7, 4, 5, 4, 4, 4, 9, 1, 4, 3, 6, 1, 4, 10, 7, 2, 6, 6, 4, 6, 5, 3, 4, 2, 9, 10, 1, 4, 2, 8, 8, 8, 6, 6, 6, 4, 2, 9, 9, 5, 4, 8, 5, 7, 2, 2, 6, 0]);

suc = [
   {2, 3, 4},
   {17, 12, 6},
   {5},
   {27, 14, 22},
   {8, 9, 16},
   {35, 7},
   {32, 10, 20},
   {11, 37, 39},
   {19},
   {57},
   {24, 13, 30},
   {26, 28, 68},
   {86},
   {18, 21, 15},
   {77},
   {40, 33, 45},
   {44, 61, 55},
   {42, 67, 74},
   {86},
   {64},
   {63},
   {59, 23},
   {51, 46},
   {25},
   {29, 70},
   {34},
   {88, 62},
   {54},
   {33},
   {41, 49, 31},
   {53},
   {87, 54, 71},
   {43, 52, 38},
   {48, 36, 53},
   {64, 60},
   {81, 58, 85},
   {51},
   {73},
   {69, 47},
   {60},
   {56},
   {86},
   {50},
   {82, 63},
   {60},
   {74},
   {80},
   {61},
   {50},
   {66},
   {76},
   {75, 84, 78},
   {54},
   {65},
   {91},
   {59},
   {63},
   {62},
   {72},
   {81},
   {80},
   {73},
   {72},
   {90, 67},
   {74},
   {72},
   {89},
   {73},
   {71},
   {78},
   {77},
   {79},
   {78},
   {89},
   {89},
   {82},
   {84, 85},
   {79},
   {80},
   {83},
   {84},
   {88, 87},
   {90},
   {88},
   {90},
   {87},
   {91},
   {91},
   {92},
   {92},
   {92},
   {  } ];

deadline = array2d(1..92, 1..3, [2, 4, 5, 5, 0, 3, 7, 3, 3, 9, 1, 3, 10, 1, 0, 11, 1, 5, 11, 3, 2, 14, 1, 4, 18, 2, 3, 19, 3, 4, 21, 4, 2, 24, 4, 0, 24, 5, 1, 29, 2, 3, 30, 4, 0, 30, 4, 0, 32, 5, 3, 49, 4, 4, 51, 5, 1, 52, 1, 1, 54, 4, 3, 55, 3, 5, 57, 0, 5, 60, 1, 2, 64, 0, 0, 65, 0, 4, 67, 3, 4, 70, 4, 2, 75, 5, 0, 78, 4, 1, 80, 3, 2, 83, 3, 0, 83, 3, 2, 87, 2, 4, 89, 0, 3, 95, 2, 1, 97, 2, 3, 98, 2, 2, 99, 5, 0, 102, 5, 3, 104, 1, 5, 104, 1, 0, 104, 1, 5, 107, 3, 3, 111, 5, 3, 111, 0, 1, 112, 2, 3, 113, 2, 5, 115, 2, 4, 115, 3, 1, 115, 5, 2, 117, 0, 4, 117, 0, 3, 123, 0, 0, 124, 3, 1, 127, 0, 0, 128, 3, 2, 129, 0, 5, 129, 0, 1, 134, 3, 1, 134, 2, 1, 136, 2, 2, 136, 2, 4, 141, 5, 1, 144, 0, 3, 147, 5, 3, 148, 0, 2, 152, 2, 0, 158, 5, 4, 159, 2, 0, 161, 0, 4, 162, 0, 0, 174, 0, 5, 178, 1, 2, 183, 5, 2, 186, 0, 5, 192, 4, 4, 193, 1, 0, 193, 5, 5, 193, 4, 3, 195, 1, 2, 196, 1, 0, 201, 0, 4, 206, 0, 2, 210, 3, 0, 210, 1, 0, 213, 0, 3, 217, 3, 3, 220, 5, 5, 220, 2, 4, 221, 5, 0, 222, 0, 3]);
