n_res = 4;
rc = [ 17, 13, 15, 14 ];
n_tasks = 92;
d = [0, 5, 2, 5, 4, 1, 8, 5, 3, 10, 3, 10, 7, 9, 8, 1, 1, 4, 2, 9, 2, 6, 6, 8, 3, 1, 5, 5, 2, 5, 4, 3, 7, 7, 2, 9, 5, 9, 8, 6, 4, 5, 7, 1, 7, 7, 3, 4, 2, 8, 2, 3, 8, 3, 5, 1, 10, 2, 1, 6, 2, 8, 9, 5, 7, 2, 7, 9, 7, 3, 10, 5, 9, 4, 10, 3, 1, 8, 3, 7, 7, 7, 2, 4, 4, 9, 8, 10, 7, 8, 4, 0];
rr = array2d(1..4, 1..92, [0, 1, 3, 0, 9, 0, 0, 0, 0, 0, 4, 0, 0, 0, 9, 0, 0, 7, 9, 0, 0, 0, 0, 3, 0, 0, 2, 9, 0, 0, 0, 0, 7, 4, 0, 5, 2, 0, 1, 0, 0, 4, 0, 2, 0, 0, 8, 0, 4, 0, 0, 0, 0, 2, 0, 10, 0, 0, 0, 0, 7, 0, 0, 0, 0, 9, 9, 4, 0, 0, 0, 0, 0, 2, 0, 2, 0, 0, 0, 6, 5, 0, 0, 0, 0, 0, 7, 6, 0, 2, 0, 0, 0, 0, 0, 0, 0, 0, 0, 0, 0, 2, 0, 0, 10, 0, 0, 4, 10, 0, 0, 0, 8, 0, 0, 0, 0, 0, 0, 0, 0, 0, 0, 1, 0, 0, 0, 0, 0, 0, 0, 0, 0, 0, 7, 0, 0, 0, 0, 1, 0, 0, 8, 7, 0, 0, 0, 0, 0, 0, 0, 0, 0, 0, 3, 0, 0, 0, 0, 0, 7, 3, 0, 0, 0, 0, 2, 0, 0, 4, 0, 0, 0, 0, 0, 0, 0, 9, 0, 0, 0, 0, 0, 0, 0, 0, 0, 6, 0, 7, 4, 2, 0, 0, 0, 8, 0, 1, 0, 0, 0, 0, 0, 8, 0, 2, 0, 0, 0, 8, 0, 0, 8, 10, 0, 0, 0, 0, 0, 0, 0, 8, 0, 7, 1, 0, 0, 0, 0, 0, 0, 0, 0, 3, 0, 0, 0, 0, 0, 0, 6, 6, 0, 0, 0, 0, 0, 0, 0, 0, 0, 0, 0, 0, 0, 1, 0, 0, 0, 0, 2, 0, 2, 0, 0, 8, 0, 9, 0, 0, 0, 0, 10, 0, 0, 0, 0, 0, 0, 0, 0, 0, 0, 0, 9, 0, 0, 0, 0, 0, 0, 0, 0, 0, 0, 0, 0, 0, 4, 0, 2, 0, 0, 0, 0, 0, 5, 0, 0, 0, 9, 0, 0, 0, 0, 0, 0, 0, 0, 0, 9, 9, 0, 0, 0, 0, 0, 0, 10, 0, 10, 0, 0, 0, 7, 5, 0, 1, 0, 2, 3, 0, 0, 0, 0, 0, 8, 0, 3, 0, 0, 0, 0, 0, 0, 0, 0, 0, 1, 0, 5, 0, 0, 0, 0, 0, 5, 0]);

suc = [
   {2, 3, 4},
   {8, 21, 5},
   {10, 18, 30},
   {20, 6, 14},
   {9},
   {16, 13, 7},
   {19, 11, 12},
   {77},
   {15},
   {59},
   {49},
   {32, 39, 31},
   {24},
   {48, 25, 51},
   {17, 42, 41},
   {27, 23},
   {58, 54},
   {26, 19, 36},
   {83, 22},
   {70},
   {33, 34},
   {81},
   {73, 67},
   {56, 69, 29},
   {72, 78},
   {79},
   {28, 61},
   {38},
   {35},
   {46},
   {44},
   {56},
   {50},
   {40},
   {45, 37},
   {87},
   {52},
   {43},
   {52, 62, 55},
   {60},
   {89, 66, 70},
   {79},
   {68, 71, 47},
   {88, 71},
   {57, 59},
   {64, 60},
   {49},
   {52},
   {65},
   {83},
   {84},
   {53},
   {54},
   {63},
   {88},
   {73, 58},
   {67},
   {90},
   {64},
   {76, 71},
   {86},
   {75},
   {64},
   {67},
   {90, 75},
   {76, 85},
   {82},
   {89, 75},
   {74},
   {80, 82, 84},
   {86},
   {87},
   {84},
   {76},
   {78},
   {88},
   {78},
   {80},
   {82, 86},
   {87},
   {85},
   {83},
   {85},
   {91},
   {90},
   {89},
   {91},
   {91},
   {92},
   {92},
   {92},
   {  } ];

deadline = array2d(1..92, 1..3, [1, 5, 5, 1, 0, 3, 3, 4, 2, 4, 1, 4, 5, 0, 5, 5, 1, 3, 10, 0, 0, 10, 1, 5, 11, 0, 4, 17, 5, 1, 20, 0, 1, 20, 2, 0, 21, 0, 1, 23, 2, 3, 25, 3, 4, 31, 1, 2, 33, 4, 1, 34, 5, 5, 35, 3, 3, 38, 5, 3, 41, 1, 0, 44, 4, 1, 46, 0, 3, 55, 2, 2, 56, 3, 4, 57, 3, 3, 59, 4, 5, 65, 0, 0, 69, 0, 1, 70, 2, 5, 71, 4, 2, 75, 4, 1, 80, 0, 1, 80, 4, 2, 91, 2, 3, 91, 4, 4, 92, 4, 5, 92, 4, 3, 93, 4, 5, 93, 3, 4, 96, 0, 0, 96, 5, 2, 98, 2, 3, 101, 0, 5, 103, 3, 0, 110, 4, 1, 112, 0, 5, 115, 1, 4, 119, 3, 3, 122, 2, 0, 123, 5, 0, 123, 1, 3, 124, 0, 5, 125, 1, 5, 126, 2, 3, 127, 0, 0, 132, 1, 4, 135, 2, 0, 136, 2, 3, 136, 2, 4, 139, 2, 3, 139, 0, 4, 140, 5, 4, 143, 5, 1, 143, 3, 1, 147, 5, 1, 149, 5, 4, 149, 0, 1, 152, 1, 0, 154, 1, 1, 156, 0, 3, 156, 0, 5, 158, 4, 2, 161, 1, 4, 168, 5, 3, 173, 0, 3, 174, 5, 5, 176, 4, 4, 178, 0, 3, 183, 1, 2, 185, 3, 2, 188, 0, 0, 189, 5, 4, 192, 2, 4, 192, 4, 2, 196, 0, 4, 207, 5, 3, 207, 5, 1, 209, 3, 4, 211, 5, 4, 214, 2, 2, 218, 2, 5]);
