n_res = 4;
rc = [ 112, 114, 122, 119 ];
n_tasks = 92;
d = [0, 9, 10, 10, 8, 4, 9, 7, 7, 5, 6, 3, 7, 8, 8, 1, 1, 5, 3, 1, 10, 4, 10, 9, 10, 9, 2, 7, 4, 8, 3, 4, 3, 6, 8, 4, 3, 5, 4, 9, 1, 2, 7, 7, 2, 10, 2, 7, 6, 3, 5, 8, 1, 3, 10, 1, 6, 5, 9, 5, 10, 4, 10, 9, 3, 8, 1, 2, 3, 9, 9, 5, 10, 2, 9, 3, 8, 9, 3, 2, 10, 7, 7, 9, 8, 8, 7, 9, 1, 9, 4, 0];
rr = array2d(1..4, 1..92, [0, 7, 3, 6, 10, 7, 4, 4, 1, 10, 10, 10, 9, 4, 6, 6, 10, 1, 3, 7, 6, 9, 6, 7, 4, 7, 1, 2, 1, 7, 9, 4, 6, 10, 7, 10, 2, 1, 3, 4, 8, 8, 7, 6, 5, 5, 2, 2, 2, 7, 5, 8, 8, 1, 6, 7, 4, 10, 6, 10, 10, 4, 2, 7, 2, 1, 9, 8, 4, 7, 6, 5, 7, 7, 8, 4, 6, 3, 4, 6, 2, 9, 2, 2, 10, 5, 9, 10, 6, 3, 9, 0, 0, 6, 4, 9, 6, 3, 2, 9, 3, 1, 7, 8, 6, 1, 5, 8, 3, 5, 1, 8, 2, 1, 9, 8, 7, 8, 7, 8, 10, 6, 10, 2, 7, 9, 3, 9, 10, 8, 2, 4, 7, 1, 1, 6, 3, 7, 9, 7, 2, 1, 4, 2, 8, 6, 8, 3, 6, 10, 10, 1, 2, 5, 6, 9, 5, 2, 7, 2, 7, 3, 7, 10, 8, 2, 2, 6, 6, 2, 5, 3, 4, 6, 10, 10, 1, 6, 10, 3, 10, 1, 2, 0, 0, 7, 7, 2, 1, 1, 1, 7, 5, 9, 7, 9, 10, 1, 2, 5, 2, 10, 6, 2, 8, 10, 6, 4, 1, 9, 2, 6, 1, 1, 1, 2, 2, 8, 4, 8, 10, 7, 8, 10, 5, 9, 4, 4, 9, 9, 5, 7, 10, 8, 5, 8, 6, 4, 8, 6, 2, 5, 3, 9, 5, 6, 10, 3, 5, 5, 3, 7, 9, 5, 5, 1, 4, 4, 2, 5, 6, 5, 10, 8, 6, 1, 2, 4, 2, 8, 7, 6, 6, 9, 4, 0, 0, 7, 6, 5, 7, 1, 6, 6, 5, 5, 9, 1, 3, 9, 2, 2, 3, 9, 5, 5, 3, 6, 6, 6, 4, 8, 8, 1, 3, 7, 5, 9, 7, 5, 10, 7, 6, 8, 4, 5, 6, 7, 10, 6, 10, 9, 10, 7, 10, 3, 3, 4, 4, 5, 7, 10, 4, 7, 2, 8, 10, 4, 10, 4, 4, 8, 8, 6, 4, 5, 5, 4, 8, 10, 3, 5, 8, 9, 3, 5, 4, 2, 3, 1, 10, 6, 9, 10, 4, 6, 8, 0]);

suc = [
   {2, 3, 4},
   {25},
   {32, 30},
   {8, 5, 7},
   {10, 20, 6},
   {22},
   {67, 15},
   {9, 11, 54},
   {25, 12, 14},
   {34, 21, 71},
   {18, 29, 13},
   {80, 27, 31},
   {19},
   {26, 63},
   {16, 17, 24},
   {64, 23},
   {73, 19, 36},
   {66},
   {34},
   {42},
   {50, 83, 30},
   {45, 47},
   {74, 79},
   {70},
   {28, 52},
   {49, 69},
   {48, 41, 57},
   {33, 53},
   {44, 78},
   {37},
   {35, 76},
   {90, 39},
   {72},
   {38},
   {59, 70},
   {40, 60, 86},
   {43},
   {41, 77},
   {51},
   {54},
   {82},
   {51, 79},
   {69},
   {58, 61, 46},
   {55},
   {65, 82},
   {52},
   {71},
   {80},
   {75},
   {56, 89},
   {62},
   {56},
   {77},
   {56, 83},
   {68},
   {86},
   {85},
   {90, 61},
   {72},
   {87},
   {85},
   {83},
   {74},
   {77},
   {86},
   {76},
   {84},
   {91},
   {82},
   {73},
   {85},
   {75},
   {78},
   {88},
   {88},
   {84},
   {87},
   {81},
   {81},
   {91},
   {88},
   {84},
   {91},
   {90},
   {87},
   {89},
   {89},
   {92},
   {92},
   {92},
   {  } ];

deadline = array2d(1..92, 1..3, [2, 2, 3, 2, 2, 5, 7, 0, 1, 9, 1, 0, 10, 4, 1, 13, 1, 0, 13, 0, 1, 16, 3, 5, 16, 0, 1, 22, 3, 2, 22, 4, 2, 23, 3, 3, 27, 4, 4, 27, 0, 3, 34, 3, 5, 41, 3, 5, 42, 0, 0, 43, 0, 4, 46, 1, 0, 47, 2, 1, 47, 2, 5, 47, 5, 5, 50, 4, 0, 53, 4, 1, 55, 0, 2, 57, 3, 1, 57, 1, 1, 63, 3, 4, 68, 1, 3, 73, 1, 5, 75, 2, 2, 75, 0, 2, 76, 5, 1, 77, 4, 1, 77, 1, 5, 77, 0, 2, 77, 0, 2, 79, 3, 2, 80, 2, 0, 82, 1, 3, 89, 1, 4, 90, 2, 4, 90, 5, 4, 92, 3, 0, 92, 5, 0, 97, 0, 4, 97, 1, 0, 100, 0, 5, 102, 0, 4, 103, 4, 3, 105, 0, 3, 106, 4, 4, 107, 3, 3, 113, 1, 5, 113, 2, 4, 114, 0, 2, 119, 2, 1, 119, 2, 5, 122, 0, 3, 127, 2, 2, 127, 0, 0, 128, 1, 4, 129, 4, 2, 131, 5, 4, 131, 0, 3, 132, 5, 3, 137, 1, 4, 138, 4, 4, 140, 3, 5, 141, 4, 1, 142, 1, 0, 144, 4, 5, 145, 5, 0, 148, 5, 2, 149, 5, 5, 151, 1, 1, 156, 0, 5, 158, 5, 4, 158, 4, 4, 160, 1, 1, 160, 4, 4, 163, 1, 0, 169, 1, 0, 171, 1, 4, 173, 3, 2, 176, 2, 3, 178, 0, 2, 179, 5, 1, 181, 2, 3, 181, 1, 2, 182, 0, 0, 183, 1, 4]);
