n_res = 4;
rc = [ 43, 41, 39, 40 ];
n_tasks = 92;
d = [0, 8, 6, 9, 2, 3, 1, 5, 9, 1, 9, 2, 9, 7, 7, 2, 7, 2, 1, 3, 1, 5, 6, 8, 8, 8, 5, 3, 4, 6, 9, 9, 6, 9, 1, 6, 1, 8, 3, 1, 5, 8, 4, 4, 9, 9, 3, 5, 7, 3, 9, 9, 8, 2, 8, 2, 4, 8, 9, 10, 10, 7, 8, 1, 6, 7, 7, 5, 3, 8, 4, 9, 8, 9, 5, 8, 7, 5, 8, 3, 3, 1, 10, 10, 7, 9, 8, 7, 9, 4, 1, 0];
rr = array2d(1..4, 1..92, [0, 6, 7, 0, 3, 1, 0, 0, 7, 1, 8, 0, 0, 4, 5, 9, 0, 0, 1, 5, 6, 3, 2, 10, 1, 6, 0, 2, 8, 6, 9, 0, 0, 5, 7, 0, 7, 10, 0, 4, 0, 4, 8, 10, 2, 2, 0, 8, 7, 8, 4, 3, 2, 4, 8, 0, 0, 8, 5, 6, 0, 2, 1, 9, 0, 5, 1, 10, 4, 0, 5, 5, 0, 3, 5, 0, 0, 7, 5, 8, 2, 4, 0, 8, 6, 9, 0, 6, 8, 3, 8, 0, 0, 0, 0, 5, 0, 3, 2, 3, 8, 6, 6, 6, 8, 0, 3, 7, 0, 0, 10, 6, 3, 9, 5, 1, 6, 6, 8, 8, 0, 4, 10, 5, 5, 3, 0, 6, 8, 5, 0, 6, 3, 0, 1, 1, 8, 2, 3, 2, 7, 8, 9, 1, 0, 5, 1, 7, 2, 8, 0, 1, 5, 10, 4, 7, 0, 1, 9, 2, 0, 0, 0, 0, 8, 0, 6, 5, 3, 0, 6, 7, 7, 4, 6, 9, 10, 6, 5, 0, 4, 7, 0, 0, 0, 1, 10, 4, 7, 9, 2, 9, 0, 7, 7, 0, 10, 0, 6, 9, 7, 7, 6, 0, 1, 10, 3, 2, 8, 8, 10, 0, 0, 8, 2, 0, 2, 2, 7, 2, 2, 2, 0, 7, 7, 10, 10, 0, 1, 9, 0, 7, 9, 0, 0, 1, 1, 10, 0, 3, 4, 5, 5, 5, 6, 1, 4, 1, 10, 1, 4, 9, 3, 5, 5, 0, 0, 0, 5, 1, 1, 1, 1, 4, 3, 3, 7, 6, 0, 2, 8, 7, 5, 0, 0, 0, 0, 6, 0, 0, 9, 8, 2, 9, 2, 1, 0, 9, 4, 3, 3, 8, 0, 7, 7, 0, 0, 10, 6, 3, 4, 2, 6, 0, 6, 0, 0, 10, 10, 2, 7, 10, 0, 2, 5, 0, 4, 0, 0, 9, 0, 0, 0, 3, 0, 5, 5, 0, 4, 9, 6, 5, 0, 9, 0, 10, 2, 9, 3, 5, 8, 8, 3, 10, 4, 0, 8, 1, 1, 10, 2, 10, 0, 5, 0, 8, 8, 2, 7, 0, 1, 0, 4, 9, 8, 9, 9, 0]);

suc = [
   {2, 3, 4},
   {66},
   {40, 19, 7},
   {5, 6},
   {11, 13, 15},
   {10, 60},
   {8, 33, 52},
   {9, 59, 14},
   {88},
   {12, 21, 55},
   {16, 17, 43},
   {24, 34, 22},
   {42, 31},
   {34, 60},
   {32, 18, 26},
   {27, 20},
   {55, 30, 23},
   {34},
   {51, 36, 46},
   {29, 38, 63},
   {81, 41, 28},
   {64, 25, 50},
   {54},
   {58, 69, 37},
   {36},
   {27, 86},
   {72},
   {49, 39},
   {66, 44, 39},
   {65, 83, 70},
   {45},
   {35, 55},
   {48, 82, 39},
   {56, 49, 73},
   {80, 73},
   {76},
   {68, 38},
   {80},
   {56, 71},
   {58, 76},
   {69, 62, 47},
   {68, 61},
   {83},
   {89},
   {57},
   {49, 67, 69},
   {79},
   {65},
   {50, 74},
   {57, 53},
   {82, 59},
   {84},
   {91, 62, 87},
   {88, 70},
   {65},
   {77},
   {83},
   {64},
   {73, 75, 78},
   {75, 68},
   {82, 70},
   {88},
   {64, 79},
   {71},
   {72, 66, 67},
   {74, 78},
   {81, 78},
   {72},
   {74, 71},
   {81, 77},
   {84},
   {80, 90},
   {91, 76, 86},
   {75},
   {77},
   {89},
   {79},
   {85},
   {84},
   {91},
   {85},
   {89},
   {85},
   {86},
   {87},
   {87},
   {90},
   {90},
   {92},
   {92},
   {92},
   {  } ];

deadline = array2d(1..92, 1..3, [2, 3, 1, 5, 3, 5, 7, 3, 3, 8, 0, 3, 11, 2, 5, 12, 3, 1, 15, 5, 1, 21, 1, 1, 26, 0, 2, 28, 3, 5, 30, 5, 2, 32, 2, 5, 33, 2, 1, 34, 0, 3, 34, 5, 4, 35, 5, 4, 37, 3, 5, 39, 4, 5, 40, 5, 3, 42, 1, 0, 42, 2, 3, 43, 0, 4, 45, 3, 3, 47, 3, 4, 49, 4, 3, 55, 3, 0, 60, 3, 1, 63, 4, 2, 66, 4, 1, 69, 2, 1, 72, 4, 4, 77, 3, 3, 78, 2, 5, 79, 5, 5, 85, 2, 1, 87, 2, 2, 91, 4, 1, 95, 4, 0, 95, 1, 5, 98, 1, 5, 101, 1, 1, 106, 1, 4, 106, 0, 5, 116, 1, 5, 121, 1, 2, 125, 2, 2, 132, 2, 1, 132, 4, 3, 137, 2, 5, 145, 5, 5, 146, 5, 4, 148, 4, 5, 148, 1, 2, 151, 1, 2, 152, 0, 0, 154, 3, 4, 159, 1, 1, 159, 2, 0, 161, 0, 4, 163, 4, 1, 166, 4, 4, 168, 4, 1, 170, 3, 3, 170, 2, 2, 170, 2, 4, 174, 0, 5, 177, 0, 3, 206, 1, 5, 216, 4, 5, 216, 4, 4, 216, 5, 3, 217, 5, 1, 218, 4, 0, 219, 4, 1, 219, 2, 2, 219, 4, 3, 221, 0, 4, 231, 5, 0, 231, 2, 5, 232, 4, 0, 235, 2, 2, 238, 0, 1, 242, 0, 4, 242, 5, 5, 245, 5, 4, 245, 3, 5, 248, 1, 2, 249, 5, 5, 253, 1, 4, 265, 4, 4, 270, 4, 5, 270, 3, 5]);
