n_res = 4;
rc = [ 42, 28, 47, 36 ];
n_tasks = 92;
d = [0, 4, 4, 2, 9, 4, 10, 5, 3, 10, 5, 9, 4, 4, 3, 5, 9, 8, 6, 7, 3, 3, 10, 2, 10, 3, 10, 7, 3, 10, 4, 9, 7, 10, 1, 8, 7, 10, 3, 3, 10, 5, 2, 10, 8, 1, 1, 1, 4, 7, 9, 4, 9, 10, 8, 3, 9, 9, 7, 7, 4, 5, 1, 1, 4, 7, 2, 4, 3, 9, 3, 6, 10, 6, 4, 3, 4, 6, 7, 8, 1, 7, 10, 10, 10, 8, 8, 5, 9, 6, 1, 0];
rr = array2d(1..4, 1..92, [0, 7, 3, 0, 1, 0, 3, 0, 8, 0, 0, 0, 5, 1, 6, 0, 3, 7, 0, 0, 0, 3, 0, 7, 8, 8, 4, 5, 5, 3, 0, 10, 0, 3, 0, 8, 9, 1, 5, 9, 2, 1, 0, 0, 0, 4, 0, 0, 0, 4, 0, 0, 0, 3, 8, 4, 8, 0, 0, 0, 7, 0, 0, 4, 0, 0, 7, 10, 9, 0, 0, 1, 0, 0, 2, 0, 0, 4, 3, 9, 0, 10, 0, 0, 0, 0, 5, 0, 0, 0, 0, 0, 0, 10, 0, 9, 0, 4, 3, 0, 1, 0, 0, 0, 0, 0, 0, 0, 0, 0, 0, 0, 0, 0, 9, 4, 0, 0, 0, 0, 0, 6, 0, 10, 0, 0, 1, 0, 0, 6, 0, 0, 7, 0, 9, 0, 0, 3, 4, 3, 0, 5, 10, 0, 0, 0, 2, 3, 8, 1, 0, 0, 0, 0, 0, 0, 0, 0, 0, 4, 2, 0, 0, 0, 0, 0, 0, 9, 10, 0, 0, 7, 5, 0, 3, 3, 9, 4, 4, 0, 3, 4, 0, 0, 0, 10, 8, 0, 0, 0, 0, 0, 5, 4, 0, 5, 0, 9, 1, 6, 0, 10, 5, 10, 6, 0, 4, 0, 3, 1, 0, 0, 0, 5, 9, 2, 6, 6, 0, 2, 0, 3, 0, 10, 3, 0, 0, 6, 5, 0, 10, 10, 4, 0, 7, 2, 5, 0, 0, 7, 0, 7, 0, 5, 0, 1, 7, 0, 4, 2, 10, 10, 1, 0, 6, 8, 7, 4, 4, 0, 0, 0, 0, 4, 7, 8, 6, 10, 8, 0, 0, 0, 0, 3, 7, 0, 0, 0, 0, 9, 1, 0, 3, 8, 9, 0, 4, 0, 0, 5, 0, 0, 0, 0, 0, 5, 7, 0, 1, 0, 0, 7, 1, 0, 3, 0, 2, 0, 3, 7, 4, 10, 0, 6, 0, 0, 2, 0, 0, 0, 0, 9, 8, 2, 1, 0, 0, 0, 1, 7, 3, 10, 6, 0, 9, 0, 0, 0, 1, 0, 6, 10, 0, 2, 10, 8, 4, 1, 1, 2, 8, 0, 5, 0, 0, 0, 5, 0, 0, 0, 0, 0, 2, 8, 6, 0, 0, 0]);

suc = [
   {2, 3, 4},
   {9, 11, 12},
   {16, 10, 28},
   {5, 6, 7},
   {75},
   {8, 53, 30},
   {37, 13, 14},
   {25, 22, 33},
   {19, 62, 23},
   {17, 18, 74},
   {83, 36, 15},
   {32, 88, 78},
   {42, 52},
   {24, 38, 31},
   {66, 29},
   {47},
   {26, 44},
   {50, 36, 82},
   {35, 20, 21},
   {32, 91, 54},
   {56},
   {73, 65, 34},
   {27},
   {72, 55},
   {72, 79},
   {57, 91, 37},
   {67, 76, 39},
   {32, 84, 38},
   {53},
   {41, 43},
   {72, 85},
   {33, 59},
   {40},
   {64},
   {46, 39},
   {89},
   {42, 68, 77},
   {79},
   {65, 59},
   {56, 74},
   {48, 42, 77},
   {59},
   {57, 60, 47},
   {45, 62},
   {49, 51},
   {55},
   {54, 55},
   {60, 85},
   {80, 68, 61},
   {58},
   {80, 70},
   {58},
   {77, 63},
   {69},
   {56, 76},
   {64, 65},
   {81, 61},
   {67},
   {85, 61},
   {68},
   {69},
   {76, 78},
   {91, 84},
   {83},
   {69},
   {74},
   {70},
   {88, 73, 70},
   {87},
   {71},
   {75},
   {75},
   {81},
   {90},
   {81},
   {80, 83},
   {78},
   {82, 90, 79},
   {87},
   {82, 84},
   {86},
   {87},
   {86},
   {88},
   {86},
   {89},
   {89},
   {90},
   {92},
   {92},
   {92},
   {  } ];

deadline = array2d(1..92, 1..3, [3, 5, 3, 4, 5, 5, 6, 4, 4, 10, 3, 1, 11, 0, 5, 15, 1, 2, 18, 3, 3, 22, 5, 1, 23, 3, 3, 25, 1, 3, 26, 1, 1, 31, 0, 4, 31, 4, 3, 34, 1, 5, 35, 4, 5, 37, 3, 5, 38, 5, 4, 41, 3, 1, 42, 0, 3, 43, 4, 0, 49, 1, 1, 53, 4, 0, 55, 1, 5, 59, 2, 5, 62, 1, 4, 62, 3, 0, 64, 2, 2, 64, 2, 5, 65, 3, 0, 67, 1, 2, 69, 1, 3, 76, 0, 0, 80, 5, 5, 80, 0, 3, 82, 1, 3, 82, 2, 3, 83, 1, 5, 84, 4, 5, 84, 0, 3, 92, 0, 2, 93, 4, 1, 94, 5, 0, 98, 1, 5, 100, 1, 3, 101, 1, 1, 102, 5, 3, 102, 4, 4, 102, 5, 4, 102, 1, 5, 103, 0, 2, 104, 2, 3, 106, 2, 2, 106, 1, 2, 107, 5, 2, 108, 0, 3, 109, 0, 4, 112, 4, 0, 112, 0, 5, 112, 0, 5, 114, 5, 5, 118, 2, 5, 121, 4, 2, 123, 2, 3, 126, 1, 3, 133, 5, 1, 133, 2, 5, 133, 5, 0, 141, 4, 0, 143, 4, 2, 144, 5, 5, 149, 0, 3, 154, 3, 0, 165, 0, 2, 165, 3, 0, 168, 2, 4, 169, 2, 3, 169, 5, 1, 170, 2, 3, 171, 2, 1, 175, 2, 0, 178, 1, 3, 178, 3, 4, 180, 3, 3, 182, 5, 3, 185, 4, 1, 186, 4, 4, 187, 5, 2, 188, 5, 4, 200, 4, 2, 205, 4, 2, 207, 5, 0, 207, 2, 5]);
