n_res = 4;
rc = [ 22, 23, 23, 23 ];
n_tasks = 92;
d = [0, 7, 9, 6, 3, 10, 2, 9, 6, 7, 3, 2, 2, 5, 4, 10, 8, 3, 2, 10, 1, 6, 2, 2, 6, 4, 3, 9, 4, 8, 9, 4, 8, 2, 8, 3, 5, 9, 3, 7, 9, 2, 9, 10, 10, 9, 8, 2, 9, 5, 3, 8, 7, 8, 3, 1, 2, 1, 10, 5, 6, 9, 10, 6, 5, 4, 9, 7, 4, 6, 3, 9, 1, 2, 9, 2, 8, 3, 4, 6, 1, 5, 7, 2, 1, 7, 6, 10, 7, 7, 9, 0];
rr = array2d(1..4, 1..92, [0, 0, 2, 1, 0, 1, 4, 0, 0, 10, 5, 0, 0, 0, 0, 0, 0, 0, 0, 10, 10, 5, 9, 0, 0, 9, 0, 0, 7, 0, 0, 0, 1, 8, 0, 2, 2, 4, 0, 0, 0, 0, 4, 7, 4, 0, 0, 0, 4, 1, 0, 9, 0, 4, 0, 0, 0, 2, 7, 7, 0, 10, 0, 9, 0, 0, 2, 1, 8, 0, 6, 2, 1, 10, 0, 0, 4, 0, 0, 4, 0, 0, 0, 9, 9, 0, 10, 6, 0, 7, 0, 0, 0, 0, 0, 0, 0, 0, 5, 0, 5, 6, 0, 0, 0, 4, 0, 0, 10, 0, 0, 0, 7, 0, 0, 0, 0, 0, 3, 0, 0, 0, 9, 7, 5, 0, 10, 0, 0, 4, 6, 7, 0, 4, 9, 6, 7, 0, 2, 10, 0, 0, 1, 4, 6, 0, 6, 2, 9, 0, 0, 0, 0, 0, 0, 4, 5, 5, 6, 0, 10, 0, 0, 0, 0, 6, 0, 0, 6, 4, 3, 8, 9, 0, 6, 0, 0, 0, 0, 0, 0, 0, 4, 0, 0, 1, 5, 0, 9, 5, 4, 0, 7, 3, 8, 6, 5, 0, 1, 10, 5, 2, 10, 3, 4, 0, 9, 0, 2, 0, 8, 2, 0, 9, 0, 3, 10, 0, 6, 7, 0, 0, 0, 2, 7, 0, 1, 0, 0, 0, 0, 0, 0, 0, 0, 7, 0, 0, 2, 6, 8, 2, 0, 0, 0, 2, 9, 7, 9, 1, 0, 0, 0, 2, 0, 6, 3, 0, 7, 0, 0, 3, 2, 0, 10, 0, 0, 0, 5, 9, 5, 4, 4, 0, 1, 0, 0, 5, 0, 3, 2, 4, 0, 5, 3, 0, 0, 10, 0, 9, 0, 5, 0, 7, 4, 0, 5, 9, 0, 5, 0, 0, 0, 0, 10, 4, 0, 0, 0, 8, 7, 0, 9, 0, 1, 0, 3, 10, 0, 10, 6, 9, 0, 10, 4, 9, 0, 0, 0, 4, 0, 0, 9, 0, 3, 1, 4, 1, 0, 0, 8, 0, 3, 4, 5, 0, 0, 0, 0, 0, 8, 3, 0, 0, 0, 6, 1, 6, 0, 0, 0, 4, 0, 2, 0, 5, 6, 0]);

suc = [
   {2, 3, 4},
   {12, 5, 6},
   {79},
   {8, 24, 19},
   {17, 27, 7},
   {16, 9},
   {56, 20, 78},
   {21, 14},
   {10, 11, 15},
   {48, 64, 13},
   {86, 54},
   {32, 61, 31},
   {50, 45, 46},
   {18, 27, 37},
   {17, 26},
   {33, 18, 43},
   {56, 41, 51},
   {30},
   {39},
   {35, 22},
   {29, 23},
   {25, 42},
   {43},
   {80},
   {81, 28},
   {47},
   {55, 39},
   {34},
   {53, 38},
   {57, 59, 63},
   {85},
   {74, 82, 70},
   {62, 36, 52},
   {43, 47},
   {90, 38},
   {40, 72, 67},
   {69, 38},
   {85},
   {49},
   {73, 47},
   {66},
   {67},
   {44, 63},
   {49, 58, 87},
   {56, 75},
   {51, 68},
   {58},
   {66, 61, 78},
   {85},
   {66, 71},
   {57, 58},
   {69, 68, 53},
   {64, 86},
   {76},
   {65},
   {63},
   {69},
   {90, 91, 60},
   {73, 83, 75},
   {76},
   {71},
   {65, 68, 84},
   {87},
   {65, 74, 71},
   {67},
   {83, 70},
   {76},
   {74, 70},
   {72, 77},
   {87},
   {88},
   {80, 73, 75},
   {81, 79},
   {91},
   {78},
   {82},
   {80},
   {81, 84, 79},
   {82},
   {83},
   {89},
   {88},
   {84, 86},
   {88},
   {89},
   {90},
   {91},
   {89},
   {92},
   {92},
   {92},
   {  } ];

deadline = array2d(1..92, 1..3, [3, 0, 2, 8, 2, 4, 11, 1, 1, 12, 3, 0, 12, 0, 4, 14, 0, 2, 17, 1, 1, 19, 2, 2, 19, 4, 2, 31, 2, 1, 34, 2, 5, 34, 5, 0, 35, 2, 5, 45, 4, 2, 47, 3, 2, 47, 1, 2, 51, 2, 1, 53, 0, 0, 56, 3, 1, 62, 3, 2, 73, 2, 4, 76, 3, 5, 76, 2, 2, 77, 0, 1, 78, 0, 4, 79, 1, 0, 85, 1, 4, 86, 1, 2, 86, 3, 1, 90, 3, 0, 92, 2, 5, 93, 1, 1, 95, 4, 1, 100, 2, 5, 101, 5, 2, 101, 5, 5, 109, 2, 1, 111, 4, 1, 113, 2, 2, 118, 5, 2, 119, 3, 1, 121, 0, 1, 123, 5, 3, 125, 1, 5, 125, 1, 3, 128, 2, 0, 128, 0, 1, 132, 2, 5, 135, 0, 0, 135, 2, 1, 137, 3, 1, 139, 1, 4, 140, 5, 4, 144, 2, 2, 145, 5, 0, 150, 4, 3, 152, 1, 0, 152, 3, 0, 158, 0, 2, 166, 0, 0, 166, 2, 5, 177, 1, 4, 177, 5, 3, 180, 0, 1, 183, 5, 5, 183, 5, 2, 185, 2, 2, 185, 3, 4, 194, 1, 0, 197, 5, 1, 199, 1, 1, 212, 4, 2, 213, 2, 5, 214, 3, 4, 216, 2, 0, 218, 3, 0, 219, 1, 2, 221, 5, 0, 222, 1, 0, 224, 3, 0, 226, 3, 3, 227, 4, 3, 230, 3, 5, 232, 3, 5, 232, 2, 4, 232, 5, 5, 232, 4, 3, 234, 1, 1, 235, 0, 5, 240, 5, 2, 240, 2, 2, 241, 5, 5]);
